
     Program PWSCF v.7.5 starts on  5Oct2026 at  9:35:41 

     This program is part of the open-source Quantum ESPRESSO suite
     for quantum simulation of materials; please cite
         "P. Giannozzi et al., J. Phys.:Condens. Matter 21 395502 (2009);
         "P. Giannozzi et al., J. Phys.:Condens. Matter 29 465901 (2017);
         "P. Giannozzi et al., J. Chem. Phys. 152 154105 (2020);
          URL http://www.quantum-espresso.org", 
     in publications or presentations arising from this work. More details at
     http://www.quantum-espresso.org/quote

     Parallel version (MPI & OpenMP), running on      24 processor cores
     Number of MPI processes:                24
     Threads/MPI process:                     1

     MPI processes distributed on     1 nodes
     217250 MiB available memory on the printing compute node when the environment starts

     Reading input from scf.in

     Current dimensions of program PWSCF are:
     Max number of different atomic species (ntypx) = 10
     Max number of k-points (npk) =  40000
     Max angular momentum in pseudopotentials (lmaxx) =  4
     file In.pbe-dn-kjpaw_psl.1.0.0.UPF: wavefunction(s)  5S 5P 4D renormalized
     file O.pbe-n-kjpaw_psl.1.0.0.UPF: wavefunction(s)  2S 2P renormalized
     file H.pbe-kjpaw_psl.1.0.0.UPF: wavefunction(s)  1S renormalized
     Message from routine setup:
     using ibrav=0 with symmetry is DISCOURAGED, use correct ibrav instead

     K-points division:     npool     =       2
     R & G space division:  proc/nbgrp/npool/nimage =      12
     Subspace diagonalization in iterative solution of the eigenvalue problem:
     one sub-group per band group will be used
     ELPA distributed-memory algorithm (size of sub-group:  3*  3 procs)


     Parallelization info
     --------------------
     sticks:   dense  smooth     PW     G-vecs:    dense   smooth      PW
     Min        1429     715    185               617751   218407   28819
     Max        1430     716    186               617768   218428   28830
     Sum       17157    8585   2225              7413139  2620949  345857

     Using Slab Decomposition



     bravais-lattice index     =            0
     lattice parameter (alat)  =      19.4980  a.u.
     unit-cell volume          =   32429.1815 (a.u.)^3
     number of atoms/cell      =          176
     number of atomic types    =            3
     number of electrons       =      1328.00
     number of Kohn-Sham states=          680
     kinetic-energy cutoff     =      71.0000  Ry
     charge density cutoff     =     568.0000  Ry
     scf convergence threshold =      1.0E-09
     mixing beta               =       0.2000
     number of iterations used =            8  local-TF  mixing
     Exchange-correlation= SLA  PW   PBX  PBC
                           (   1   4   3   4   0   0   0)

     celldm(1)=  19.498036  celldm(2)=   0.000000  celldm(3)=   0.000000
     celldm(4)=   0.000000  celldm(5)=   0.000000  celldm(6)=   0.000000

     crystal axes: (cart. coord. in units of alat)
               a(1) = (   1.000000   0.000000   0.000000 )  
               a(2) = (   0.000000   0.999087   0.000000 )  
               a(3) = (   0.000000   0.000000   4.378852 )  

     reciprocal axes: (cart. coord. in units 2 pi/alat)
               b(1) = (  1.000000  0.000000  0.000000 )  
               b(2) = (  0.000000  1.000914  0.000000 )  
               b(3) = (  0.000000  0.000000  0.228370 )  


     PseudoPot. # 1 for In read from file:
     ./In.pbe-dn-kjpaw_psl.1.0.0.UPF
     MD5 check sum: 235b15e6a7fdfd96486e0ecdcb5b12c6
     Pseudo is Projector augmented-wave + core cor, Zval = 13.0
     Generated using &quot;atomic&quot; code by A. Dal Corso  v.6.3
     Shape of augmentation charge: PSQ
     Using radial grid of 1241 points,  6 beta functions with: 
                l(1) =   0
                l(2) =   0
                l(3) =   1
                l(4) =   1
                l(5) =   2
                l(6) =   2
     Q(r) pseudized with 0 coefficients 


     PseudoPot. # 2 for O  read from file:
     ./O.pbe-n-kjpaw_psl.1.0.0.UPF
     MD5 check sum: e99d9cef9b487d1ca56f5b95ecd0fd7a
     Pseudo is Projector augmented-wave + core cor, Zval =  6.0
     Generated using &quot;atomic&quot; code by A. Dal Corso  v.6.3
     Shape of augmentation charge: PSQ
     Using radial grid of 1095 points,  4 beta functions with: 
                l(1) =   0
                l(2) =   0
                l(3) =   1
                l(4) =   1
     Q(r) pseudized with 0 coefficients 


     PseudoPot. # 3 for H  read from file:
     ./H.pbe-kjpaw_psl.1.0.0.UPF
     MD5 check sum: d81a744832360e4a8af0b0b5b123bc2a
     Pseudo is Projector augmented-wave, Zval =  1.0
     Generated using &quot;atomic&quot; code by A. Dal Corso  v.6.3MaX
     Shape of augmentation charge: PSQ
     Using radial grid of  929 points,  2 beta functions with: 
                l(1) =   0
                l(2) =   0
     Q(r) pseudized with 0 coefficients 


     atomic species   valence    mass     pseudopotential
     In               13.00   114.81800     In( 1.00)
     O                 6.00    15.99900     O ( 1.00)
     H                 1.00     1.00800     H ( 1.00)

      8 Sym. Ops., with inversion, found ( 6 have fractional translation)


                                    s                        frac. trans.

      isym =  1     identity                                     

 cryst.   s( 1) = (     1          0          0      )
                  (     0          1          0      )
                  (     0          0          1      )

 cart.    s( 1) = (  1.0000000  0.0000000  0.0000000 )
                  (  0.0000000  1.0000000  0.0000000 )
                  (  0.0000000  0.0000000  1.0000000 )


      isym =  2     180 deg rotation - cart. axis [0,0,1]        

 cryst.   s( 2) = (    -1          0          0      )    f =(  0.0000000 )
                  (     0         -1          0      )       (  0.5000000 )
                  (     0          0          1      )       (  0.0000000 )

 cart.    s( 2) = ( -1.0000000  0.0000000  0.0000000 )    f =(  0.0000000 )
                  (  0.0000000 -1.0000000  0.0000000 )       (  0.4995433 )
                  (  0.0000000  0.0000000  1.0000000 )       (  0.0000000 )


      isym =  3     180 deg rotation - cart. axis [0,1,0]        

 cryst.   s( 3) = (    -1          0          0      )    f =(  0.5000000 )
                  (     0          1          0      )       (  0.0000000 )
                  (     0          0         -1      )       (  0.0000000 )

 cart.    s( 3) = ( -1.0000000  0.0000000  0.0000000 )    f =(  0.5000000 )
                  (  0.0000000  1.0000000  0.0000000 )       (  0.0000000 )
                  (  0.0000000  0.0000000 -1.0000000 )       (  0.0000000 )


      isym =  4     180 deg rotation - cart. axis [1,0,0]        

 cryst.   s( 4) = (     1          0          0      )    f =(  0.5000000 )
                  (     0         -1          0      )       (  0.5000000 )
                  (     0          0         -1      )       (  0.0000000 )

 cart.    s( 4) = (  1.0000000  0.0000000  0.0000000 )    f =(  0.5000000 )
                  (  0.0000000 -1.0000000  0.0000000 )       (  0.4995433 )
                  (  0.0000000  0.0000000 -1.0000000 )       (  0.0000000 )


      isym =  5     inversion                                    

 cryst.   s( 5) = (    -1          0          0      )
                  (     0         -1          0      )
                  (     0          0         -1      )

 cart.    s( 5) = ( -1.0000000  0.0000000  0.0000000 )
                  (  0.0000000 -1.0000000  0.0000000 )
                  (  0.0000000  0.0000000 -1.0000000 )


      isym =  6     inv. 180 deg rotation - cart. axis [0,0,1]   

 cryst.   s( 6) = (     1          0          0      )    f =(  0.0000000 )
                  (     0          1          0      )       ( -0.5000000 )
                  (     0          0         -1      )       (  0.0000000 )

 cart.    s( 6) = (  1.0000000  0.0000000  0.0000000 )    f =(  0.0000000 )
                  (  0.0000000  1.0000000  0.0000000 )       ( -0.4995433 )
                  (  0.0000000  0.0000000 -1.0000000 )       (  0.0000000 )


      isym =  7     inv. 180 deg rotation - cart. axis [0,1,0]   

 cryst.   s( 7) = (     1          0          0      )    f =(  0.5000000 )
                  (     0         -1          0      )       ( -0.0000000 )
                  (     0          0          1      )       (  0.0000000 )

 cart.    s( 7) = (  1.0000000  0.0000000  0.0000000 )    f =(  0.5000000 )
                  (  0.0000000 -1.0000000  0.0000000 )       ( -0.0000000 )
                  (  0.0000000  0.0000000  1.0000000 )       (  0.0000000 )


      isym =  8     inv. 180 deg rotation - cart. axis [1,0,0]   

 cryst.   s( 8) = (    -1          0          0      )    f =(  0.5000000 )
                  (     0          1          0      )       ( -0.5000000 )
                  (     0          0          1      )       (  0.0000000 )

 cart.    s( 8) = ( -1.0000000  0.0000000  0.0000000 )    f =(  0.5000000 )
                  (  0.0000000  1.0000000  0.0000000 )       ( -0.4995433 )
                  (  0.0000000  0.0000000  1.0000000 )       (  0.0000000 )


   Cartesian axes

     site n.     atom                  positions (alat units)
         1        In     tau(   1) = (   0.2475443   0.2523154   1.4389793  )
         2        In     tau(   2) = (   0.7524557   0.2472279   1.4389793  )
         3        In     tau(   3) = (   0.2502748   0.2498150   1.9394110  )
         4        In     tau(   4) = (   0.2524557   0.7518587   1.4389793  )
         5        In     tau(   5) = (   0.4664954   0.4994667   1.9392039  )
         6        In     tau(   6) = (   0.0359158   0.5019578   1.4401297  )
         7        In     tau(   7) = (   0.7512482   0.4650386   1.6891257  )
         8        In     tau(   8) = (   0.2487518   0.0345047   1.6891257  )
         9        In     tau(   9) = (   0.5000000   0.7493149   1.6564928  )
        10        In     tau(  10) = (   0.0335046  -0.0000766   1.9392039  )
        11        In     tau(  11) = (   0.4640842   0.0024146   1.4401297  )
        12        In     tau(  12) = (   0.0000000   0.2497716   1.6564928  )
        13        O      tau(  13) = (   0.3890697   0.1563764   1.5691308  )
        14        O      tau(  14) = (   0.6109303   0.3431669   1.5691308  )
        15        O      tau(  15) = (   0.1103649   0.1547804   1.8080425  )
        16        O      tau(  16) = (   0.8896351   0.3447628   1.8080425  )
        17        O      tau(  17) = (   0.3810388   0.3935568   1.3438360  )
        18        O      tau(  18) = (   0.3837086   0.6098315   1.5364709  )
        19        O      tau(  19) = (   0.6189612   0.1059864   1.3438360  )
        20        O      tau(  20) = (   0.6162914   0.8887983   1.5364709  )
        21        O      tau(  21) = (   0.1548955   0.3830323   1.5805003  )
        22        O      tau(  22) = (   0.3460904   0.3819793   1.7995751  )
        23        O      tau(  23) = (   0.1837587   0.6023891   1.3068008  )
        24        O      tau(  24) = (   0.3455844   0.6172116   2.0791801  )
        25        O      tau(  25) = (   0.0990545   0.3423072   1.3161241  )
        26        O      tau(  26) = (   0.9009455   0.1572361   1.3161241  )
        27        O      tau(  27) = (   0.3898594   0.3452283   2.0715524  )
        28        O      tau(  28) = (   0.6101406   0.1543150   2.0715524  )
        29        O      tau(  29) = (   0.1162914   0.1102882   1.5364709  )
        30        O      tau(  30) = (   0.1189612   0.8931001   1.3438360  )
        31        O      tau(  31) = (   0.8837086   0.3892551   1.5364709  )
        32        O      tau(  32) = (   0.8810388   0.6055297   1.3438360  )
        33        O      tau(  33) = (   0.3162413   0.1028458   1.3068008  )
        34        O      tau(  34) = (   0.1544156   0.1176683   2.0791801  )
        35        O      tau(  35) = (   0.3451045   0.8825755   1.5805003  )
        36        O      tau(  36) = (   0.1539096   0.8815226   1.7995751  )
        37        In     tau(  37) = (   0.7502748   0.7492716   1.9394110  )
        38        In     tau(  38) = (   0.2497252   0.7493582   1.9394110  )
        39        In     tau(  39) = (   0.7475443   0.7467711   1.4389793  )
        40        In     tau(  40) = (   0.7497252   0.2497283   1.9394110  )
        41        In     tau(  41) = (   0.9640842  -0.0024146   1.4401297  )
        42        In     tau(  42) = (   0.5335046   0.0000766   1.9392039  )
        43        In     tau(  43) = (   0.0000000   0.2497716   2.1557213  )
        44        In     tau(  44) = (   0.0000000   0.7493149   1.7222710  )
        45        In     tau(  45) = (   0.5359158   0.4971287   1.4401297  )
        46        In     tau(  46) = (   0.9664954   0.4996198   1.9392039  )
        47        In     tau(  47) = (   0.2512482   0.5340479   1.6891257  )
        48        In     tau(  48) = (   0.7487518   0.9645819   1.6891257  )
        49        In     tau(  49) = (   0.5000000   0.2497716   1.7222710  )
        50        In     tau(  50) = (   0.5000000   0.7493149   2.1557213  )
        51        O      tau(  51) = (   0.8898594   0.6538583   2.0715524  )
        52        O      tau(  52) = (   0.1101406   0.8447716   2.0715524  )
        53        O      tau(  53) = (   0.5990545   0.6567794   1.3161241  )
        54        O      tau(  54) = (   0.4009455   0.8418504   1.3161241  )
        55        O      tau(  55) = (   0.8822894   0.8888322   1.8422341  )
        56        O      tau(  56) = (   0.8821677   0.1098284   2.0351332  )
        57        O      tau(  57) = (   0.1177106   0.6097976   1.8422341  )
        58        O      tau(  58) = (   0.1178323   0.3897149   2.0351332  )
        59        O      tau(  59) = (   0.6544156   0.8814183   2.0791801  )
        60        O      tau(  60) = (   0.8162413   0.8962407   1.3068008  )
        61        O      tau(  61) = (   0.6539096   0.1175639   1.7995751  )
        62        O      tau(  62) = (   0.8451045   0.1165110   1.5805003  )
        63        O      tau(  63) = (   0.6103649   0.8443061   1.8080425  )
        64        O      tau(  64) = (   0.3896351   0.6543237   1.8080425  )
        65        O      tau(  65) = (   0.8890697   0.8427101   1.5691308  )
        66        O      tau(  66) = (   0.1109303   0.6559197   1.5691308  )
        67        O      tau(  67) = (   0.6178323   0.6093716   2.0351332  )
        68        O      tau(  68) = (   0.6177106   0.3892890   1.8422341  )
        69        O      tau(  69) = (   0.3821677   0.8892582   2.0351332  )
        70        O      tau(  70) = (   0.3822894   0.1102543   1.8422341  )
        71        O      tau(  71) = (   0.8460904   0.6171072   1.7995751  )
        72        O      tau(  72) = (   0.6548955   0.6160543   1.5805003  )
        73        O      tau(  73) = (   0.8455844   0.3818750   2.0791801  )
        74        O      tau(  74) = (   0.6837587   0.3966974   1.3068008  )
        75        In     tau(  75) = (   0.2497252   0.2498150   2.4394411  )
        76        In     tau(  76) = (   0.7502748   0.2497283   2.4394411  )
        77        In     tau(  77) = (   0.2524557   0.2523154   2.9398727  )
        78        In     tau(  78) = (   0.2502748   0.7493582   2.4394411  )
        79        In     tau(  79) = (   0.4640842   0.5019578   2.9387223  )
        80        In     tau(  80) = (   0.0335046   0.4994667   2.4396481  )
        81        In     tau(  81) = (   0.7487518   0.4650386   2.6897264  )
        82        In     tau(  82) = (   0.2512482   0.0345047   2.6897264  )
        83        In     tau(  83) = (   0.5000000   0.7493149   2.6565810  )
        84        In     tau(  84) = (   0.5000000   0.2497716   2.2231307  )
        85        In     tau(  85) = (   0.0359158   0.0024146   2.9387223  )
        86        In     tau(  86) = (   0.4664954  -0.0000766   2.4396481  )
        87        In     tau(  87) = (   0.7500000   0.0334062   2.1894260  )
        88        In     tau(  88) = (   0.2500000   0.4661371   2.1894260  )
        89        In     tau(  89) = (   0.0000000   0.7493149   2.2231307  )
        90        In     tau(  90) = (   0.0000000   0.2497716   2.6565810  )
        91        O      tau(  91) = (   0.3896351   0.1547804   2.5708096  )
        92        O      tau(  92) = (   0.6103649   0.3447628   2.5708096  )
        93        O      tau(  93) = (   0.1109303   0.1563764   2.8097212  )
        94        O      tau(  94) = (   0.8890697   0.3431669   2.8097212  )
        95        O      tau(  95) = (   0.3821677   0.3897149   2.3437188  )
        96        O      tau(  96) = (   0.3822894   0.6097976   2.5366180  )
        97        O      tau(  97) = (   0.6178323   0.1098284   2.3437188  )
        98        O      tau(  98) = (   0.6177106   0.8888322   2.5366180  )
        99        O      tau(  99) = (   0.1539096   0.3819793   2.5792770  )
       100        O      tau( 100) = (   0.3451045   0.3830323   2.7983517  )
       101        O      tau( 101) = (   0.1544156   0.6172116   2.2996719  )
       102        O      tau( 102) = (   0.3162413   0.6023891   3.0720512  )
       103        O      tau( 103) = (   0.1101406   0.3452283   2.3072996  )
       104        O      tau( 104) = (   0.8898594   0.1543150   2.3072996  )
       105        O      tau( 105) = (   0.4009455   0.3423072   3.0627280  )
       106        O      tau( 106) = (   0.5990545   0.1572361   3.0627280  )
       107        O      tau( 107) = (   0.1177106   0.1102543   2.5366180  )
       108        O      tau( 108) = (   0.1178323   0.8892582   2.3437188  )
       109        O      tau( 109) = (   0.8822894   0.3892890   2.5366180  )
       110        O      tau( 110) = (   0.8821677   0.6093716   2.3437188  )
       111        O      tau( 111) = (   0.3455844   0.1176683   2.2996719  )
       112        O      tau( 112) = (   0.1837587   0.1028458   3.0720512  )
       113        O      tau( 113) = (   0.3460904   0.8815226   2.5792770  )
       114        O      tau( 114) = (   0.1548955   0.8825755   2.7983517  )
       115        In     tau( 115) = (   0.7524557   0.7467711   2.9398727  )
       116        In     tau( 116) = (   0.2475443   0.7518587   2.9398727  )
       117        In     tau( 117) = (   0.7497252   0.7492716   2.4394411  )
       118        In     tau( 118) = (   0.7475443   0.2472279   2.9398727  )
       119        In     tau( 119) = (   0.9664954   0.0000766   2.4396481  )
       120        In     tau( 120) = (   0.5359158  -0.0024146   2.9387223  )
       121        In     tau( 121) = (   0.2500000   0.9656804   2.1894260  )
       122        In     tau( 122) = (   0.7500000   0.5329494   2.1894260  )
       123        In     tau( 123) = (   0.0000000   0.7493149   2.7223593  )
       124        In     tau( 124) = (   0.5335046   0.4996198   2.4396481  )
       125        In     tau( 125) = (   0.9640842   0.4971287   2.9387223  )
       126        In     tau( 126) = (   0.2487518   0.5340479   2.6897264  )
       127        In     tau( 127) = (   0.7512482   0.9645819   2.6897264  )
       128        In     tau( 128) = (   0.5000000   0.2497716   2.7223593  )
       129        O      tau( 129) = (   0.9009455   0.6567794   3.0627280  )
       130        O      tau( 130) = (   0.0990545   0.8418504   3.0627280  )
       131        O      tau( 131) = (   0.6101406   0.6538583   2.3072996  )
       132        O      tau( 132) = (   0.3898594   0.8447716   2.3072996  )
       133        O      tau( 133) = (   0.8837086   0.8887983   2.8423812  )
       134        O      tau( 134) = (   0.8810388   0.1059864   3.0350160  )
       135        O      tau( 135) = (   0.1162914   0.6098315   2.8423812  )
       136        O      tau( 136) = (   0.1189612   0.3935568   3.0350160  )
       137        O      tau( 137) = (   0.6837587   0.8962407   3.0720512  )
       138        O      tau( 138) = (   0.8455844   0.8814183   2.2996719  )
       139        O      tau( 139) = (   0.6548955   0.1165110   2.7983517  )
       140        O      tau( 140) = (   0.8460904   0.1175639   2.5792770  )
       141        O      tau( 141) = (   0.6109303   0.8427101   2.8097212  )
       142        O      tau( 142) = (   0.3890697   0.6559197   2.8097212  )
       143        O      tau( 143) = (   0.8896351   0.8443061   2.5708096  )
       144        O      tau( 144) = (   0.1103649   0.6543237   2.5708096  )
       145        O      tau( 145) = (   0.6189612   0.6055297   3.0350160  )
       146        O      tau( 146) = (   0.6162914   0.3892551   2.8423812  )
       147        O      tau( 147) = (   0.3810388   0.8931001   3.0350160  )
       148        O      tau( 148) = (   0.3837086   0.1102882   2.8423812  )
       149        O      tau( 149) = (   0.8451045   0.6160543   2.7983517  )
       150        O      tau( 150) = (   0.6539096   0.6171072   2.5792770  )
       151        O      tau( 151) = (   0.8162413   0.3966974   3.0720512  )
       152        O      tau( 152) = (   0.6544156   0.3818750   2.2996719  )
       153        H      tau( 153) = (   0.3222976   0.4631522   1.3149352  )
       154        H      tau( 154) = (   0.6777024   0.0363910   1.3149352  )
       155        H      tau( 155) = (   0.1357120   0.6463843   1.2384941  )
       156        H      tau( 156) = (   0.1377726   0.3795544   1.2387193  )
       157        H      tau( 157) = (   0.8622274   0.1199888   1.2387193  )
       158        H      tau( 158) = (   0.1777024   0.9626955   1.3149352  )
       159        H      tau( 159) = (   0.8222976   0.5359343   1.3149352  )
       160        H      tau( 160) = (   0.3642880   0.1468410   1.2384941  )
       161        H      tau( 161) = (   0.6377726   0.6195321   1.2387193  )
       162        H      tau( 162) = (   0.3622274   0.8790977   1.2387193  )
       163        H      tau( 163) = (   0.8642880   0.8522455   1.2384941  )
       164        H      tau( 164) = (   0.6357120   0.3527022   1.2384941  )
       165        H      tau( 165) = (   0.3642880   0.6463843   3.1403579  )
       166        H      tau( 166) = (   0.3622274   0.3795544   3.1401328  )
       167        H      tau( 167) = (   0.6377726   0.1199888   3.1401328  )
       168        H      tau( 168) = (   0.1357120   0.1468410   3.1403579  )
       169        H      tau( 169) = (   0.8622274   0.6195321   3.1401328  )
       170        H      tau( 170) = (   0.1377726   0.8790977   3.1401328  )
       171        H      tau( 171) = (   0.8222976   0.0363910   3.0639169  )
       172        H      tau( 172) = (   0.1777024   0.4631522   3.0639169  )
       173        H      tau( 173) = (   0.6357120   0.8522455   3.1403579  )
       174        H      tau( 174) = (   0.6777024   0.5359343   3.0639169  )
       175        H      tau( 175) = (   0.3222976   0.9626955   3.0639169  )
       176        H      tau( 176) = (   0.8642880   0.3527022   3.1403579  )

   Crystallographic axes

     site n.     atom                  positions (cryst. coord.)
         1        In     tau(   1) = (  0.2475443  0.2525461  0.3286202  )
         2        In     tau(   2) = (  0.7524557  0.2474539  0.3286202  )
         3        In     tau(   3) = (  0.2502748  0.2500434  0.4429040  )
         4        In     tau(   4) = (  0.2524557  0.7525461  0.3286202  )
         5        In     tau(   5) = (  0.4664954  0.4999234  0.4428567  )
         6        In     tau(   6) = (  0.0359158  0.5024168  0.3288829  )
         7        In     tau(   7) = (  0.7512482  0.4654638  0.3857462  )
         8        In     tau(   8) = (  0.2487518  0.0345362  0.3857462  )
         9        In     tau(   9) = (  0.5000000  0.7500000  0.3782939  )
        10        In     tau(  10) = (  0.0335046 -0.0000766  0.4428567  )
        11        In     tau(  11) = (  0.4640842  0.0024168  0.3288829  )
        12        In     tau(  12) = (  0.0000000  0.2500000  0.3782939  )
        13        O      tau(  13) = (  0.3890697  0.1565194  0.3583430  )
        14        O      tau(  14) = (  0.6109303  0.3434806  0.3583430  )
        15        O      tau(  15) = (  0.1103649  0.1549220  0.4129033  )
        16        O      tau(  16) = (  0.8896351  0.3450780  0.4129033  )
        17        O      tau(  17) = (  0.3810388  0.3939167  0.3068923  )
        18        O      tau(  18) = (  0.3837086  0.6103890  0.3508844  )
        19        O      tau(  19) = (  0.6189612  0.1060833  0.3068923  )
        20        O      tau(  20) = (  0.6162914  0.8896110  0.3508844  )
        21        O      tau(  21) = (  0.1548955  0.3833825  0.3609394  )
        22        O      tau(  22) = (  0.3460904  0.3823286  0.4109696  )
        23        O      tau(  23) = (  0.1837587  0.6029399  0.2984346  )
        24        O      tau(  24) = (  0.3455844  0.6177759  0.4748231  )
        25        O      tau(  25) = (  0.0990545  0.3426201  0.3005637  )
        26        O      tau(  26) = (  0.9009455  0.1573799  0.3005637  )
        27        O      tau(  27) = (  0.3898594  0.3455439  0.4730812  )
        28        O      tau(  28) = (  0.6101406  0.1544561  0.4730812  )
        29        O      tau(  29) = (  0.1162914  0.1103890  0.3508844  )
        30        O      tau(  30) = (  0.1189612  0.8939167  0.3068923  )
        31        O      tau(  31) = (  0.8837086  0.3896110  0.3508844  )
        32        O      tau(  32) = (  0.8810388  0.6060833  0.3068923  )
        33        O      tau(  33) = (  0.3162413  0.1029399  0.2984346  )
        34        O      tau(  34) = (  0.1544156  0.1177759  0.4748231  )
        35        O      tau(  35) = (  0.3451045  0.8833825  0.3609394  )
        36        O      tau(  36) = (  0.1539096  0.8823286  0.4109696  )
        37        In     tau(  37) = (  0.7502748  0.7499566  0.4429040  )
        38        In     tau(  38) = (  0.2497252  0.7500434  0.4429040  )
        39        In     tau(  39) = (  0.7475443  0.7474539  0.3286202  )
        40        In     tau(  40) = (  0.7497252  0.2499566  0.4429040  )
        41        In     tau(  41) = (  0.9640842 -0.0024168  0.3288829  )
        42        In     tau(  42) = (  0.5335046  0.0000766  0.4428567  )
        43        In     tau(  43) = (  0.0000000  0.2500000  0.4923028  )
        44        In     tau(  44) = (  0.0000000  0.7500000  0.3933156  )
        45        In     tau(  45) = (  0.5359158  0.4975832  0.3288829  )
        46        In     tau(  46) = (  0.9664954  0.5000766  0.4428567  )
        47        In     tau(  47) = (  0.2512482  0.5345362  0.3857462  )
        48        In     tau(  48) = (  0.7487518  0.9654638  0.3857462  )
        49        In     tau(  49) = (  0.5000000  0.2500000  0.3933156  )
        50        In     tau(  50) = (  0.5000000  0.7500000  0.4923028  )
        51        O      tau(  51) = (  0.8898594  0.6544561  0.4730812  )
        52        O      tau(  52) = (  0.1101406  0.8455439  0.4730812  )
        53        O      tau(  53) = (  0.5990545  0.6573799  0.3005637  )
        54        O      tau(  54) = (  0.4009455  0.8426201  0.3005637  )
        55        O      tau(  55) = (  0.8822894  0.8896449  0.4207116  )
        56        O      tau(  56) = (  0.8821677  0.1099288  0.4647641  )
        57        O      tau(  57) = (  0.1177106  0.6103551  0.4207116  )
        58        O      tau(  58) = (  0.1178323  0.3900712  0.4647641  )
        59        O      tau(  59) = (  0.6544156  0.8822241  0.4748231  )
        60        O      tau(  60) = (  0.8162413  0.8970601  0.2984346  )
        61        O      tau(  61) = (  0.6539096  0.1176714  0.4109696  )
        62        O      tau(  62) = (  0.8451045  0.1166175  0.3609394  )
        63        O      tau(  63) = (  0.6103649  0.8450780  0.4129033  )
        64        O      tau(  64) = (  0.3896351  0.6549220  0.4129033  )
        65        O      tau(  65) = (  0.8890697  0.8434806  0.3583430  )
        66        O      tau(  66) = (  0.1109303  0.6565194  0.3583430  )
        67        O      tau(  67) = (  0.6178323  0.6099288  0.4647641  )
        68        O      tau(  68) = (  0.6177106  0.3896449  0.4207116  )
        69        O      tau(  69) = (  0.3821677  0.8900712  0.4647641  )
        70        O      tau(  70) = (  0.3822894  0.1103551  0.4207116  )
        71        O      tau(  71) = (  0.8460904  0.6176714  0.4109696  )
        72        O      tau(  72) = (  0.6548955  0.6166175  0.3609394  )
        73        O      tau(  73) = (  0.8455844  0.3822241  0.4748231  )
        74        O      tau(  74) = (  0.6837587  0.3970601  0.2984346  )
        75        In     tau(  75) = (  0.2497252  0.2500434  0.5570960  )
        76        In     tau(  76) = (  0.7502748  0.2499566  0.5570960  )
        77        In     tau(  77) = (  0.2524557  0.2525461  0.6713798  )
        78        In     tau(  78) = (  0.2502748  0.7500434  0.5570960  )
        79        In     tau(  79) = (  0.4640842  0.5024168  0.6711171  )
        80        In     tau(  80) = (  0.0335046  0.4999234  0.5571433  )
        81        In     tau(  81) = (  0.7487518  0.4654638  0.6142538  )
        82        In     tau(  82) = (  0.2512482  0.0345362  0.6142538  )
        83        In     tau(  83) = (  0.5000000  0.7500000  0.6066844  )
        84        In     tau(  84) = (  0.5000000  0.2500000  0.5076972  )
        85        In     tau(  85) = (  0.0359158  0.0024168  0.6711171  )
        86        In     tau(  86) = (  0.4664954 -0.0000766  0.5571433  )
        87        In     tau(  87) = (  0.7500000  0.0334367  0.5000000  )
        88        In     tau(  88) = (  0.2500000  0.4665633  0.5000000  )
        89        In     tau(  89) = (  0.0000000  0.7500000  0.5076972  )
        90        In     tau(  90) = (  0.0000000  0.2500000  0.6066844  )
        91        O      tau(  91) = (  0.3896351  0.1549220  0.5870967  )
        92        O      tau(  92) = (  0.6103649  0.3450780  0.5870967  )
        93        O      tau(  93) = (  0.1109303  0.1565194  0.6416570  )
        94        O      tau(  94) = (  0.8890697  0.3434806  0.6416570  )
        95        O      tau(  95) = (  0.3821677  0.3900712  0.5352359  )
        96        O      tau(  96) = (  0.3822894  0.6103551  0.5792884  )
        97        O      tau(  97) = (  0.6178323  0.1099288  0.5352359  )
        98        O      tau(  98) = (  0.6177106  0.8896449  0.5792884  )
        99        O      tau(  99) = (  0.1539096  0.3823286  0.5890304  )
       100        O      tau( 100) = (  0.3451045  0.3833825  0.6390606  )
       101        O      tau( 101) = (  0.1544156  0.6177759  0.5251769  )
       102        O      tau( 102) = (  0.3162413  0.6029399  0.7015654  )
       103        O      tau( 103) = (  0.1101406  0.3455439  0.5269188  )
       104        O      tau( 104) = (  0.8898594  0.1544561  0.5269188  )
       105        O      tau( 105) = (  0.4009455  0.3426201  0.6994363  )
       106        O      tau( 106) = (  0.5990545  0.1573799  0.6994363  )
       107        O      tau( 107) = (  0.1177106  0.1103551  0.5792884  )
       108        O      tau( 108) = (  0.1178323  0.8900712  0.5352359  )
       109        O      tau( 109) = (  0.8822894  0.3896449  0.5792884  )
       110        O      tau( 110) = (  0.8821677  0.6099288  0.5352359  )
       111        O      tau( 111) = (  0.3455844  0.1177759  0.5251769  )
       112        O      tau( 112) = (  0.1837587  0.1029399  0.7015654  )
       113        O      tau( 113) = (  0.3460904  0.8823286  0.5890304  )
       114        O      tau( 114) = (  0.1548955  0.8833825  0.6390606  )
       115        In     tau( 115) = (  0.7524557  0.7474539  0.6713798  )
       116        In     tau( 116) = (  0.2475443  0.7525461  0.6713798  )
       117        In     tau( 117) = (  0.7497252  0.7499566  0.5570960  )
       118        In     tau( 118) = (  0.7475443  0.2474539  0.6713798  )
       119        In     tau( 119) = (  0.9664954  0.0000766  0.5571433  )
       120        In     tau( 120) = (  0.5359158 -0.0024168  0.6711171  )
       121        In     tau( 121) = (  0.2500000  0.9665633  0.5000000  )
       122        In     tau( 122) = (  0.7500000  0.5334367  0.5000000  )
       123        In     tau( 123) = (  0.0000000  0.7500000  0.6217061  )
       124        In     tau( 124) = (  0.5335046  0.5000766  0.5571433  )
       125        In     tau( 125) = (  0.9640842  0.4975832  0.6711171  )
       126        In     tau( 126) = (  0.2487518  0.5345362  0.6142538  )
       127        In     tau( 127) = (  0.7512482  0.9654638  0.6142538  )
       128        In     tau( 128) = (  0.5000000  0.2500000  0.6217061  )
       129        O      tau( 129) = (  0.9009455  0.6573799  0.6994363  )
       130        O      tau( 130) = (  0.0990545  0.8426201  0.6994363  )
       131        O      tau( 131) = (  0.6101406  0.6544561  0.5269188  )
       132        O      tau( 132) = (  0.3898594  0.8455439  0.5269188  )
       133        O      tau( 133) = (  0.8837086  0.8896110  0.6491156  )
       134        O      tau( 134) = (  0.8810388  0.1060833  0.6931077  )
       135        O      tau( 135) = (  0.1162914  0.6103890  0.6491156  )
       136        O      tau( 136) = (  0.1189612  0.3939167  0.6931077  )
       137        O      tau( 137) = (  0.6837587  0.8970601  0.7015654  )
       138        O      tau( 138) = (  0.8455844  0.8822241  0.5251769  )
       139        O      tau( 139) = (  0.6548955  0.1166175  0.6390606  )
       140        O      tau( 140) = (  0.8460904  0.1176714  0.5890304  )
       141        O      tau( 141) = (  0.6109303  0.8434806  0.6416570  )
       142        O      tau( 142) = (  0.3890697  0.6565194  0.6416570  )
       143        O      tau( 143) = (  0.8896351  0.8450780  0.5870967  )
       144        O      tau( 144) = (  0.1103649  0.6549220  0.5870967  )
       145        O      tau( 145) = (  0.6189612  0.6060833  0.6931077  )
       146        O      tau( 146) = (  0.6162914  0.3896110  0.6491156  )
       147        O      tau( 147) = (  0.3810388  0.8939167  0.6931077  )
       148        O      tau( 148) = (  0.3837086  0.1103890  0.6491156  )
       149        O      tau( 149) = (  0.8451045  0.6166175  0.6390606  )
       150        O      tau( 150) = (  0.6539096  0.6176714  0.5890304  )
       151        O      tau( 151) = (  0.8162413  0.3970601  0.7015654  )
       152        O      tau( 152) = (  0.6544156  0.3822241  0.5251769  )
       153        H      tau( 153) = (  0.3222976  0.4635757  0.3002922  )
       154        H      tau( 154) = (  0.6777024  0.0364243  0.3002922  )
       155        H      tau( 155) = (  0.1357120  0.6469753  0.2828353  )
       156        H      tau( 156) = (  0.1377726  0.3799015  0.2828868  )
       157        H      tau( 157) = (  0.8622274  0.1200985  0.2828868  )
       158        H      tau( 158) = (  0.1777024  0.9635757  0.3002922  )
       159        H      tau( 159) = (  0.8222976  0.5364243  0.3002922  )
       160        H      tau( 160) = (  0.3642880  0.1469753  0.2828353  )
       161        H      tau( 161) = (  0.6377726  0.6200985  0.2828868  )
       162        H      tau( 162) = (  0.3622274  0.8799015  0.2828868  )
       163        H      tau( 163) = (  0.8642880  0.8530247  0.2828353  )
       164        H      tau( 164) = (  0.6357120  0.3530247  0.2828353  )
       165        H      tau( 165) = (  0.3642880  0.6469753  0.7171647  )
       166        H      tau( 166) = (  0.3622274  0.3799015  0.7171132  )
       167        H      tau( 167) = (  0.6377726  0.1200985  0.7171132  )
       168        H      tau( 168) = (  0.1357120  0.1469753  0.7171647  )
       169        H      tau( 169) = (  0.8622274  0.6200985  0.7171132  )
       170        H      tau( 170) = (  0.1377726  0.8799015  0.7171132  )
       171        H      tau( 171) = (  0.8222976  0.0364243  0.6997078  )
       172        H      tau( 172) = (  0.1777024  0.4635757  0.6997078  )
       173        H      tau( 173) = (  0.6357120  0.8530247  0.7171647  )
       174        H      tau( 174) = (  0.6777024  0.5364243  0.6997078  )
       175        H      tau( 175) = (  0.3222976  0.9635757  0.6997078  )
       176        H      tau( 176) = (  0.8642880  0.3530247  0.7171647  )

     number of k points=     4
                       cart. coord. in units 2pi/alat
        k(    1) = (   0.0000000   0.0000000   0.0000000), wk =   0.2222222
        k(    2) = (   0.0000000   0.3336381   0.0000000), wk =   0.4444444
        k(    3) = (   0.3333333   0.0000000   0.0000000), wk =   0.4444444
        k(    4) = (   0.3333333   0.3336381   0.0000000), wk =   0.8888889

                       cryst. coord.
        k(    1) = (   0.0000000   0.0000000   0.0000000), wk =   0.2222222
        k(    2) = (   0.0000000   0.3333333   0.0000000), wk =   0.4444444
        k(    3) = (   0.3333333   0.0000000   0.0000000), wk =   0.4444444
        k(    4) = (   0.3333333   0.3333333   0.0000000), wk =   0.8888889

     Dense  grid:  7413139 G-vectors     FFT dimensions: ( 150, 150, 648)

     Smooth grid:  2620949 G-vectors     FFT dimensions: ( 108, 108, 480)

     Dynamical RAM for                 wfc:     283.27 MB

     Dynamical RAM for     wfc (w. buffer):     849.82 MB

     Dynamical RAM for           str. fact:      28.28 MB

     Dynamical RAM for           local pot:       0.00 MB

     Dynamical RAM for          nlocal pot:     759.84 MB

     Dynamical RAM for                qrad:       5.74 MB

     Dynamical RAM for          rho,v,vnew:      56.09 MB

     Dynamical RAM for               rhoin:      18.70 MB

     Dynamical RAM for            rho*nmix:     150.82 MB

     Dynamical RAM for           G-vectors:      37.01 MB

     Dynamical RAM for          h,s,v(r/c):       9.39 MB

     Dynamical RAM for          <psi|beta>:      18.93 MB

     Dynamical RAM for                 psi:     566.55 MB

     Dynamical RAM for                hpsi:     566.55 MB

     Dynamical RAM for                spsi:     566.55 MB

     Dynamical RAM for      wfcinit/wfcrot:     577.14 MB

     Dynamical RAM for           addusdens:    1333.80 MB

     Dynamical RAM for          addusforce:    2229.66 MB

     Dynamical RAM for         addusstress:     949.68 MB

     Estimated static dynamical RAM per process >       1.80 GB

     Estimated max dynamical RAM per process >       4.12 GB

     Estimated total dynamical RAM >      97.14 GB

     Initial potential from superposition of free atoms

     starting charge    1327.7914, renormalised to    1328.0000

     negative rho (up, down):  1.715E-03 0.000E+00
     Starting wfcs are  912 randomized atomic wfcs
     Checking if some PAW data can be deallocated... 
       PAW data deallocated on   13 nodes for type:  1
       PAW data deallocated on    7 nodes for type:  2
       PAW data deallocated on   20 nodes for type:  3

     total cpu time spent up to now is      153.6 secs

     per-process dynamical memory:  1964.3 Mb

     Self-consistent Calculation

     iteration #  1     ecut=    71.00 Ry     beta= 0.20
     Davidson diagonalization with overlap

---- Real-time Memory Report at c_bands before calling an iterative solver
          2392 MiB given to the printing process from OS
          1918 MiB allocation reported by mallinfo(arena+hblkhd)
        158881 MiB available memory on the node where the printing process lives
------------------
     ethr =  1.00E-02,  avg # of iterations =  2.0

     negative rho (up, down):  4.914E-04 0.000E+00

     total cpu time spent up to now is      500.1 secs

     total energy              =  -27038.81531225 Ry
     estimated scf accuracy    <      46.75818142 Ry

     iteration #  2     ecut=    71.00 Ry     beta= 0.20
     Davidson diagonalization with overlap

---- Real-time Memory Report at c_bands before calling an iterative solver
          3654 MiB given to the printing process from OS
          1975 MiB allocation reported by mallinfo(arena+hblkhd)
        163124 MiB available memory on the node where the printing process lives
------------------
     ethr =  3.52E-03,  avg # of iterations =  1.2

     negative rho (up, down):  7.632E-04 0.000E+00

     total cpu time spent up to now is      809.0 secs

     total energy              =  -27024.53404341 Ry
     estimated scf accuracy    <      30.19344462 Ry

     iteration #  3     ecut=    71.00 Ry     beta= 0.20
     Davidson diagonalization with overlap

---- Real-time Memory Report at c_bands before calling an iterative solver
          3671 MiB given to the printing process from OS
          1982 MiB allocation reported by mallinfo(arena+hblkhd)
        160822 MiB available memory on the node where the printing process lives
------------------
     ethr =  2.27E-03,  avg # of iterations =  4.2

     negative rho (up, down):  1.275E-04 0.000E+00

     total cpu time spent up to now is     1340.3 secs

     total energy              =  -27034.41759670 Ry
     estimated scf accuracy    <       1.49430443 Ry

     iteration #  4     ecut=    71.00 Ry     beta= 0.20
     Davidson diagonalization with overlap

---- Real-time Memory Report at c_bands before calling an iterative solver
          3766 MiB given to the printing process from OS
          1989 MiB allocation reported by mallinfo(arena+hblkhd)
        135010 MiB available memory on the node where the printing process lives
------------------
     ethr =  1.13E-04,  avg # of iterations =  7.8

     negative rho (up, down):  1.837E-06 0.000E+00

     total cpu time spent up to now is     1974.6 secs

     total energy              =  -27035.04063281 Ry
     estimated scf accuracy    <       2.45780189 Ry

     iteration #  5     ecut=    71.00 Ry     beta= 0.20
     Davidson diagonalization with overlap

---- Real-time Memory Report at c_bands before calling an iterative solver
          3807 MiB given to the printing process from OS
          1996 MiB allocation reported by mallinfo(arena+hblkhd)
        126365 MiB available memory on the node where the printing process lives
------------------
     ethr =  1.13E-04,  avg # of iterations =  6.0

     negative rho (up, down):  1.557E-06 0.000E+00

     total cpu time spent up to now is     2736.3 secs

     total energy              =  -27034.87036083 Ry
     estimated scf accuracy    <       9.54475231 Ry

     iteration #  6     ecut=    71.00 Ry     beta= 0.20
     Davidson diagonalization with overlap

---- Real-time Memory Report at c_bands before calling an iterative solver
          3807 MiB given to the printing process from OS
          2003 MiB allocation reported by mallinfo(arena+hblkhd)
        106520 MiB available memory on the node where the printing process lives
------------------
     ethr =  1.13E-04,  avg # of iterations =  6.0

     negative rho (up, down):  2.070E-07 0.000E+00

     total cpu time spent up to now is     3390.0 secs

     total energy              =  -27035.50917870 Ry
     estimated scf accuracy    <       0.94300754 Ry

     iteration #  7     ecut=    71.00 Ry     beta= 0.20
     Davidson diagonalization with overlap

---- Real-time Memory Report at c_bands before calling an iterative solver
          3807 MiB given to the printing process from OS
          2010 MiB allocation reported by mallinfo(arena+hblkhd)
        117599 MiB available memory on the node where the printing process lives
------------------
     ethr =  7.10E-05,  avg # of iterations =  5.0

     total cpu time spent up to now is     3758.3 secs

     total energy              =  -27035.59093026 Ry
     estimated scf accuracy    <       0.32810433 Ry

     iteration #  8     ecut=    71.00 Ry     beta= 0.20
     Davidson diagonalization with overlap

---- Real-time Memory Report at c_bands before calling an iterative solver
          3807 MiB given to the printing process from OS
          2017 MiB allocation reported by mallinfo(arena+hblkhd)
        135070 MiB available memory on the node where the printing process lives
------------------
     ethr =  2.47E-05,  avg # of iterations =  6.0

     total cpu time spent up to now is     4195.4 secs

     total energy              =  -27035.68976029 Ry
     estimated scf accuracy    <       0.14277648 Ry

     iteration #  9     ecut=    71.00 Ry     beta= 0.20
     Davidson diagonalization with overlap

---- Real-time Memory Report at c_bands before calling an iterative solver
          3807 MiB given to the printing process from OS
          2024 MiB allocation reported by mallinfo(arena+hblkhd)
        138103 MiB available memory on the node where the printing process lives
------------------
     ethr =  1.08E-05,  avg # of iterations =  4.2

     negative rho (up, down):  8.977E-05 0.000E+00

     total cpu time spent up to now is     4589.7 secs

     total energy              =  -27035.70381595 Ry
     estimated scf accuracy    <       0.18510103 Ry

     iteration # 10     ecut=    71.00 Ry     beta= 0.20
     Davidson diagonalization with overlap

---- Real-time Memory Report at c_bands before calling an iterative solver
          3807 MiB given to the printing process from OS
          2032 MiB allocation reported by mallinfo(arena+hblkhd)
        135969 MiB available memory on the node where the printing process lives
------------------
     ethr =  1.08E-05,  avg # of iterations =  2.0

     negative rho (up, down):  4.381E-02 0.000E+00

     total cpu time spent up to now is     4934.7 secs

     total energy              =  -27035.69831803 Ry
     estimated scf accuracy    <       0.19663448 Ry

     iteration # 11     ecut=    71.00 Ry     beta= 0.20
     Davidson diagonalization with overlap

---- Real-time Memory Report at c_bands before calling an iterative solver
          3807 MiB given to the printing process from OS
          2032 MiB allocation reported by mallinfo(arena+hblkhd)
        143413 MiB available memory on the node where the printing process lives
------------------
     ethr =  1.08E-05,  avg # of iterations =  8.5

     negative rho (up, down):  5.778E-02 0.000E+00

     total cpu time spent up to now is     5316.3 secs

     total energy              =  -27035.71188932 Ry
     estimated scf accuracy    <       0.16331424 Ry

     iteration # 12     ecut=    71.00 Ry     beta= 0.20
     Davidson diagonalization with overlap

---- Real-time Memory Report at c_bands before calling an iterative solver
          3807 MiB given to the printing process from OS
          2032 MiB allocation reported by mallinfo(arena+hblkhd)
        151517 MiB available memory on the node where the printing process lives
------------------
     ethr =  1.08E-05,  avg # of iterations =  2.0

     negative rho (up, down):  1.247E-02 0.000E+00

     total cpu time spent up to now is     5657.8 secs

     total energy              =  -27035.66275105 Ry
     estimated scf accuracy    <       0.18219240 Ry

     iteration # 13     ecut=    71.00 Ry     beta= 0.20
     Davidson diagonalization with overlap

---- Real-time Memory Report at c_bands before calling an iterative solver
          3807 MiB given to the printing process from OS
          2032 MiB allocation reported by mallinfo(arena+hblkhd)
        170781 MiB available memory on the node where the printing process lives
------------------
     ethr =  1.08E-05,  avg # of iterations =  2.0

     negative rho (up, down):  2.115E-01 0.000E+00

     total cpu time spent up to now is     6024.1 secs

     total energy              =  -27035.62742425 Ry
     estimated scf accuracy    <       0.08652858 Ry

     iteration # 14     ecut=    71.00 Ry     beta= 0.20
     Davidson diagonalization with overlap

---- Real-time Memory Report at c_bands before calling an iterative solver
          3807 MiB given to the printing process from OS
          2032 MiB allocation reported by mallinfo(arena+hblkhd)
        171981 MiB available memory on the node where the printing process lives
------------------
     c_bands:  1 eigenvalues not converged
     ethr =  6.52E-06,  avg # of iterations = 19.0

     negative rho (up, down):  1.455E-01 0.000E+00

     total cpu time spent up to now is     6863.6 secs

     total energy              =  -27035.69780248 Ry
     estimated scf accuracy    <       0.30452211 Ry

     iteration # 15     ecut=    71.00 Ry     beta= 0.20
     Davidson diagonalization with overlap

---- Real-time Memory Report at c_bands before calling an iterative solver
          3840 MiB given to the printing process from OS
          2032 MiB allocation reported by mallinfo(arena+hblkhd)
        187702 MiB available memory on the node where the printing process lives
------------------
     ethr =  6.52E-06,  avg # of iterations =  2.0

     negative rho (up, down):  1.204E-01 0.000E+00

     total cpu time spent up to now is     7223.2 secs

     total energy              =  -27035.75738000 Ry
     estimated scf accuracy    <       0.19025240 Ry

     iteration # 16     ecut=    71.00 Ry     beta= 0.20
     Davidson diagonalization with overlap

---- Real-time Memory Report at c_bands before calling an iterative solver
          3840 MiB given to the printing process from OS
          2032 MiB allocation reported by mallinfo(arena+hblkhd)
        184309 MiB available memory on the node where the printing process lives
------------------
     ethr =  6.52E-06,  avg # of iterations =  6.0

     negative rho (up, down):  8.238E-02 0.000E+00

     total cpu time spent up to now is     7579.7 secs

     total energy              =  -27035.67597974 Ry
     estimated scf accuracy    <       0.30495936 Ry

     iteration # 17     ecut=    71.00 Ry     beta= 0.20
     Davidson diagonalization with overlap

---- Real-time Memory Report at c_bands before calling an iterative solver
          3840 MiB given to the printing process from OS
          2032 MiB allocation reported by mallinfo(arena+hblkhd)
        174564 MiB available memory on the node where the printing process lives
------------------
     ethr =  6.52E-06,  avg # of iterations =  4.0

     negative rho (up, down):  9.414E-02 0.000E+00

     total cpu time spent up to now is     7959.6 secs

     total energy              =  -27035.72596020 Ry
     estimated scf accuracy    <       0.15439286 Ry

     iteration # 18     ecut=    71.00 Ry     beta= 0.20
     Davidson diagonalization with overlap

---- Real-time Memory Report at c_bands before calling an iterative solver
          3840 MiB given to the printing process from OS
          2032 MiB allocation reported by mallinfo(arena+hblkhd)
        168066 MiB available memory on the node where the printing process lives
------------------
     ethr =  6.52E-06,  avg # of iterations =  1.2

     negative rho (up, down):  1.143E-01 0.000E+00

     total cpu time spent up to now is     8288.0 secs

     total energy              =  -27035.75975704 Ry
     estimated scf accuracy    <       0.23090955 Ry

     iteration # 19     ecut=    71.00 Ry     beta= 0.20
     Davidson diagonalization with overlap

---- Real-time Memory Report at c_bands before calling an iterative solver
          3840 MiB given to the printing process from OS
          2032 MiB allocation reported by mallinfo(arena+hblkhd)
        155038 MiB available memory on the node where the printing process lives
------------------
     ethr =  6.52E-06,  avg # of iterations =  1.2

     negative rho (up, down):  1.589E-01 0.000E+00

     total cpu time spent up to now is     8615.5 secs

     total energy              =  -27035.76535878 Ry
     estimated scf accuracy    <       0.29685499 Ry

     iteration # 20     ecut=    71.00 Ry     beta= 0.20
     Davidson diagonalization with overlap

---- Real-time Memory Report at c_bands before calling an iterative solver
          3840 MiB given to the printing process from OS
          2032 MiB allocation reported by mallinfo(arena+hblkhd)
        145409 MiB available memory on the node where the printing process lives
------------------
     ethr =  6.52E-06,  avg # of iterations =  7.5

     negative rho (up, down):  1.479E-01 0.000E+00

     total cpu time spent up to now is     8987.2 secs

     total energy              =  -27035.76260455 Ry
     estimated scf accuracy    <       0.33211776 Ry

     iteration # 21     ecut=    71.00 Ry     beta= 0.20
     Davidson diagonalization with overlap

---- Real-time Memory Report at c_bands before calling an iterative solver
          3840 MiB given to the printing process from OS
          2032 MiB allocation reported by mallinfo(arena+hblkhd)
        134326 MiB available memory on the node where the printing process lives
------------------
     ethr =  6.52E-06,  avg # of iterations =  1.0

     negative rho (up, down):  1.399E-01 0.000E+00

     total cpu time spent up to now is     9317.0 secs

     total energy              =  -27035.79081179 Ry
     estimated scf accuracy    <       0.33880264 Ry

     iteration # 22     ecut=    71.00 Ry     beta= 0.20
     Davidson diagonalization with overlap

---- Real-time Memory Report at c_bands before calling an iterative solver
          3840 MiB given to the printing process from OS
          2032 MiB allocation reported by mallinfo(arena+hblkhd)
        133105 MiB available memory on the node where the printing process lives
------------------
     ethr =  6.52E-06,  avg # of iterations =  2.0

     negative rho (up, down):  7.144E-02 0.000E+00

     total cpu time spent up to now is     9695.2 secs

     total energy              =  -27035.54474973 Ry
     estimated scf accuracy    <       0.43644799 Ry

     iteration # 23     ecut=    71.00 Ry     beta= 0.20
     Davidson diagonalization with overlap

---- Real-time Memory Report at c_bands before calling an iterative solver
          3840 MiB given to the printing process from OS
          2032 MiB allocation reported by mallinfo(arena+hblkhd)
        137743 MiB available memory on the node where the printing process lives
------------------
     ethr =  6.52E-06,  avg # of iterations = 10.5

     negative rho (up, down):  1.145E-01 0.000E+00

     total cpu time spent up to now is    10513.9 secs

     total energy              =  -27035.62439288 Ry
     estimated scf accuracy    <       0.15130919 Ry

     iteration # 24     ecut=    71.00 Ry     beta= 0.20
     Davidson diagonalization with overlap

---- Real-time Memory Report at c_bands before calling an iterative solver
          3840 MiB given to the printing process from OS
          2032 MiB allocation reported by mallinfo(arena+hblkhd)
        132737 MiB available memory on the node where the printing process lives
------------------
     ethr =  6.52E-06,  avg # of iterations =  6.2

     negative rho (up, down):  1.196E-01 0.000E+00

     total cpu time spent up to now is    11322.5 secs

     total energy              =  -27035.68756005 Ry
     estimated scf accuracy    <       0.22186265 Ry

     iteration # 25     ecut=    71.00 Ry     beta= 0.20
     Davidson diagonalization with overlap

---- Real-time Memory Report at c_bands before calling an iterative solver
          3840 MiB given to the printing process from OS
          2032 MiB allocation reported by mallinfo(arena+hblkhd)
        137253 MiB available memory on the node where the printing process lives
------------------
     ethr =  6.52E-06,  avg # of iterations =  1.0

     negative rho (up, down):  1.213E-01 0.000E+00

     total cpu time spent up to now is    11640.1 secs

     total energy              =  -27035.60216709 Ry
     estimated scf accuracy    <       0.13363302 Ry

     iteration # 26     ecut=    71.00 Ry     beta= 0.20
     Davidson diagonalization with overlap

---- Real-time Memory Report at c_bands before calling an iterative solver
          3840 MiB given to the printing process from OS
          2032 MiB allocation reported by mallinfo(arena+hblkhd)
        142784 MiB available memory on the node where the printing process lives
------------------
     ethr =  6.52E-06,  avg # of iterations =  6.8

     negative rho (up, down):  1.621E-01 0.000E+00

     total cpu time spent up to now is    12465.5 secs

     total energy              =  -27035.65774986 Ry
     estimated scf accuracy    <       0.29633871 Ry

     iteration # 27     ecut=    71.00 Ry     beta= 0.20
     Davidson diagonalization with overlap

---- Real-time Memory Report at c_bands before calling an iterative solver
          3843 MiB given to the printing process from OS
          2032 MiB allocation reported by mallinfo(arena+hblkhd)
        171145 MiB available memory on the node where the printing process lives
------------------
     ethr =  6.52E-06,  avg # of iterations =  2.0

     negative rho (up, down):  2.456E-01 0.000E+00

     total cpu time spent up to now is    12891.5 secs

     total energy              =  -27035.62130799 Ry
     estimated scf accuracy    <       0.12166820 Ry

     iteration # 28     ecut=    71.00 Ry     beta= 0.20
     Davidson diagonalization with overlap

---- Real-time Memory Report at c_bands before calling an iterative solver
          3843 MiB given to the printing process from OS
          2032 MiB allocation reported by mallinfo(arena+hblkhd)
        181057 MiB available memory on the node where the printing process lives
------------------
     ethr =  6.52E-06,  avg # of iterations = 13.0

     negative rho (up, down):  1.873E-01 0.000E+00

     total cpu time spent up to now is    13547.8 secs

     total energy              =  -27035.65843410 Ry
     estimated scf accuracy    <       0.04490001 Ry

     iteration # 29     ecut=    71.00 Ry     beta= 0.20
     Davidson diagonalization with overlap

---- Real-time Memory Report at c_bands before calling an iterative solver
          3849 MiB given to the printing process from OS
          2032 MiB allocation reported by mallinfo(arena+hblkhd)
        182921 MiB available memory on the node where the printing process lives
------------------
     ethr =  3.38E-06,  avg # of iterations =  9.5

     negative rho (up, down):  1.254E-01 0.000E+00

     total cpu time spent up to now is    14182.0 secs

     total energy              =  -27035.66515683 Ry
     estimated scf accuracy    <       0.04024064 Ry

     iteration # 30     ecut=    71.00 Ry     beta= 0.20
     Davidson diagonalization with overlap

---- Real-time Memory Report at c_bands before calling an iterative solver
          3849 MiB given to the printing process from OS
          2032 MiB allocation reported by mallinfo(arena+hblkhd)
        158375 MiB available memory on the node where the printing process lives
------------------
     ethr =  3.03E-06,  avg # of iterations =  2.0

     negative rho (up, down):  1.145E-01 0.000E+00

     total cpu time spent up to now is    14541.7 secs

     total energy              =  -27035.66163659 Ry
     estimated scf accuracy    <       0.01610748 Ry

     iteration # 31     ecut=    71.00 Ry     beta= 0.20
     Davidson diagonalization with overlap

---- Real-time Memory Report at c_bands before calling an iterative solver
          3849 MiB given to the printing process from OS
          2032 MiB allocation reported by mallinfo(arena+hblkhd)
        163172 MiB available memory on the node where the printing process lives
------------------
     c_bands:  1 eigenvalues not converged
     ethr =  1.21E-06,  avg # of iterations = 16.0

     negative rho (up, down):  8.065E-02 0.000E+00

     total cpu time spent up to now is    15035.8 secs

     total energy              =  -27035.66571618 Ry
     estimated scf accuracy    <       0.00629502 Ry

     iteration # 32     ecut=    71.00 Ry     beta= 0.20
     Davidson diagonalization with overlap

---- Real-time Memory Report at c_bands before calling an iterative solver
          3849 MiB given to the printing process from OS
          2032 MiB allocation reported by mallinfo(arena+hblkhd)
        156805 MiB available memory on the node where the printing process lives
------------------
     ethr =  4.74E-07,  avg # of iterations =  4.2

     negative rho (up, down):  3.358E-02 0.000E+00

     total cpu time spent up to now is    15471.4 secs

     total energy              =  -27035.66604060 Ry
     estimated scf accuracy    <       0.00508571 Ry

     iteration # 33     ecut=    71.00 Ry     beta= 0.20
     Davidson diagonalization with overlap

---- Real-time Memory Report at c_bands before calling an iterative solver
          3849 MiB given to the printing process from OS
          2032 MiB allocation reported by mallinfo(arena+hblkhd)
        155029 MiB available memory on the node where the printing process lives
------------------
     ethr =  3.83E-07,  avg # of iterations = 12.2

     negative rho (up, down):  5.663E-02 0.000E+00

     total cpu time spent up to now is    16107.8 secs

     total energy              =  -27035.66400572 Ry
     estimated scf accuracy    <       0.01261855 Ry

     iteration # 34     ecut=    71.00 Ry     beta= 0.20
     Davidson diagonalization with overlap

---- Real-time Memory Report at c_bands before calling an iterative solver
          3849 MiB given to the printing process from OS
          2032 MiB allocation reported by mallinfo(arena+hblkhd)
        145256 MiB available memory on the node where the printing process lives
------------------
     ethr =  3.83E-07,  avg # of iterations =  5.5

     negative rho (up, down):  5.765E-02 0.000E+00

     total cpu time spent up to now is    16557.8 secs

     total energy              =  -27035.66276102 Ry
     estimated scf accuracy    <       0.00439542 Ry

     iteration # 35     ecut=    71.00 Ry     beta= 0.20
     Davidson diagonalization with overlap

---- Real-time Memory Report at c_bands before calling an iterative solver
          3849 MiB given to the printing process from OS
          2032 MiB allocation reported by mallinfo(arena+hblkhd)
        133092 MiB available memory on the node where the printing process lives
------------------
     ethr =  3.31E-07,  avg # of iterations =  5.0

     negative rho (up, down):  3.226E-02 0.000E+00

     total cpu time spent up to now is    17236.4 secs

     total energy              =  -27035.66215891 Ry
     estimated scf accuracy    <       0.00648210 Ry

     iteration # 36     ecut=    71.00 Ry     beta= 0.20
     Davidson diagonalization with overlap

---- Real-time Memory Report at c_bands before calling an iterative solver
          3849 MiB given to the printing process from OS
          2032 MiB allocation reported by mallinfo(arena+hblkhd)
        111995 MiB available memory on the node where the printing process lives
------------------
     ethr =  3.31E-07,  avg # of iterations =  6.8

     negative rho (up, down):  1.487E-02 0.000E+00

     total cpu time spent up to now is    18026.8 secs

     total energy              =  -27035.66158690 Ry
     estimated scf accuracy    <       0.01371443 Ry

     iteration # 37     ecut=    71.00 Ry     beta= 0.20
     Davidson diagonalization with overlap

---- Real-time Memory Report at c_bands before calling an iterative solver
          3849 MiB given to the printing process from OS
          2032 MiB allocation reported by mallinfo(arena+hblkhd)
        119442 MiB available memory on the node where the printing process lives
------------------
     ethr =  3.31E-07,  avg # of iterations =  6.0

     negative rho (up, down):  1.509E-02 0.000E+00

     total cpu time spent up to now is    18787.8 secs

     total energy              =  -27035.66535431 Ry
     estimated scf accuracy    <       0.00087986 Ry

     iteration # 38     ecut=    71.00 Ry     beta= 0.20
     Davidson diagonalization with overlap

---- Real-time Memory Report at c_bands before calling an iterative solver
          3849 MiB given to the printing process from OS
          2032 MiB allocation reported by mallinfo(arena+hblkhd)
        135864 MiB available memory on the node where the printing process lives
------------------
     ethr =  6.63E-08,  avg # of iterations =  5.5

     negative rho (up, down):  1.682E-02 0.000E+00

     total cpu time spent up to now is    19192.8 secs

     total energy              =  -27035.66517746 Ry
     estimated scf accuracy    <       0.00118466 Ry

     iteration # 39     ecut=    71.00 Ry     beta= 0.20
     Davidson diagonalization with overlap

---- Real-time Memory Report at c_bands before calling an iterative solver
          3849 MiB given to the printing process from OS
          2032 MiB allocation reported by mallinfo(arena+hblkhd)
        135488 MiB available memory on the node where the printing process lives
------------------
     ethr =  6.63E-08,  avg # of iterations =  2.0

     negative rho (up, down):  1.326E-02 0.000E+00

     total cpu time spent up to now is    19585.3 secs

     total energy              =  -27035.66481136 Ry
     estimated scf accuracy    <       0.00072397 Ry

     iteration # 40     ecut=    71.00 Ry     beta= 0.20
     Davidson diagonalization with overlap

---- Real-time Memory Report at c_bands before calling an iterative solver
          3849 MiB given to the printing process from OS
          2032 MiB allocation reported by mallinfo(arena+hblkhd)
        136607 MiB available memory on the node where the printing process lives
------------------
     ethr =  5.45E-08,  avg # of iterations =  2.0

     negative rho (up, down):  1.386E-02 0.000E+00

     total cpu time spent up to now is    19996.4 secs

     total energy              =  -27035.66488006 Ry
     estimated scf accuracy    <       0.00019166 Ry

     iteration # 41     ecut=    71.00 Ry     beta= 0.20
     Davidson diagonalization with overlap

---- Real-time Memory Report at c_bands before calling an iterative solver
          3849 MiB given to the printing process from OS
          2032 MiB allocation reported by mallinfo(arena+hblkhd)
        151279 MiB available memory on the node where the printing process lives
------------------
     ethr =  1.44E-08,  avg # of iterations =  3.8

     negative rho (up, down):  1.017E-02 0.000E+00

     total cpu time spent up to now is    20440.0 secs

     total energy              =  -27035.66507333 Ry
     estimated scf accuracy    <       0.00023547 Ry

     iteration # 42     ecut=    71.00 Ry     beta= 0.20
     Davidson diagonalization with overlap

---- Real-time Memory Report at c_bands before calling an iterative solver
          3849 MiB given to the printing process from OS
          2032 MiB allocation reported by mallinfo(arena+hblkhd)
        154750 MiB available memory on the node where the printing process lives
------------------
     ethr =  1.44E-08,  avg # of iterations =  5.0

     negative rho (up, down):  1.559E-02 0.000E+00

     total cpu time spent up to now is    21045.6 secs

     total energy              =  -27035.66470983 Ry
     estimated scf accuracy    <       0.00078255 Ry

     iteration # 43     ecut=    71.00 Ry     beta= 0.20
     Davidson diagonalization with overlap

---- Real-time Memory Report at c_bands before calling an iterative solver
          3849 MiB given to the printing process from OS
          2032 MiB allocation reported by mallinfo(arena+hblkhd)
        156958 MiB available memory on the node where the printing process lives
------------------
     ethr =  1.44E-08,  avg # of iterations =  6.2

     negative rho (up, down):  1.375E-02 0.000E+00

     total cpu time spent up to now is    21863.2 secs

     total energy              =  -27035.66499229 Ry
     estimated scf accuracy    <       0.00048393 Ry

     iteration # 44     ecut=    71.00 Ry     beta= 0.20
     Davidson diagonalization with overlap

---- Real-time Memory Report at c_bands before calling an iterative solver
          3849 MiB given to the printing process from OS
          2032 MiB allocation reported by mallinfo(arena+hblkhd)
        154931 MiB available memory on the node where the printing process lives
------------------
     ethr =  1.44E-08,  avg # of iterations =  1.0

     negative rho (up, down):  9.665E-03 0.000E+00

     total cpu time spent up to now is    22181.7 secs

     total energy              =  -27035.66491999 Ry
     estimated scf accuracy    <       0.00031537 Ry

     iteration # 45     ecut=    71.00 Ry     beta= 0.20
     Davidson diagonalization with overlap

---- Real-time Memory Report at c_bands before calling an iterative solver
          3849 MiB given to the printing process from OS
          2032 MiB allocation reported by mallinfo(arena+hblkhd)
        154843 MiB available memory on the node where the printing process lives
------------------
     ethr =  1.44E-08,  avg # of iterations =  6.5

     negative rho (up, down):  7.377E-03 0.000E+00

     total cpu time spent up to now is    22685.3 secs

     total energy              =  -27035.66496003 Ry
     estimated scf accuracy    <       0.00007148 Ry

     iteration # 46     ecut=    71.00 Ry     beta= 0.20
     Davidson diagonalization with overlap

---- Real-time Memory Report at c_bands before calling an iterative solver
          3849 MiB given to the printing process from OS
          2032 MiB allocation reported by mallinfo(arena+hblkhd)
        137728 MiB available memory on the node where the printing process lives
------------------
     ethr =  5.38E-09,  avg # of iterations =  6.5

     negative rho (up, down):  7.187E-03 0.000E+00

     total cpu time spent up to now is    23068.0 secs

     total energy              =  -27035.66496765 Ry
     estimated scf accuracy    <       0.00005267 Ry

     iteration # 47     ecut=    71.00 Ry     beta= 0.20
     Davidson diagonalization with overlap

---- Real-time Memory Report at c_bands before calling an iterative solver
          3849 MiB given to the printing process from OS
          2032 MiB allocation reported by mallinfo(arena+hblkhd)
        140513 MiB available memory on the node where the printing process lives
------------------
     ethr =  3.97E-09,  avg # of iterations =  5.5

     negative rho (up, down):  7.506E-03 0.000E+00

     total cpu time spent up to now is    23570.6 secs

     total energy              =  -27035.66496824 Ry
     estimated scf accuracy    <       0.00009383 Ry

     iteration # 48     ecut=    71.00 Ry     beta= 0.20
     Davidson diagonalization with overlap

---- Real-time Memory Report at c_bands before calling an iterative solver
          3849 MiB given to the printing process from OS
          2032 MiB allocation reported by mallinfo(arena+hblkhd)
         90813 MiB available memory on the node where the printing process lives
------------------
     ethr =  3.97E-09,  avg # of iterations =  2.0

     negative rho (up, down):  6.207E-03 0.000E+00

     total cpu time spent up to now is    23944.5 secs

     total energy              =  -27035.66494312 Ry
     estimated scf accuracy    <       0.00004696 Ry

     iteration # 49     ecut=    71.00 Ry     beta= 0.20
     Davidson diagonalization with overlap

---- Real-time Memory Report at c_bands before calling an iterative solver
          3849 MiB given to the printing process from OS
          2032 MiB allocation reported by mallinfo(arena+hblkhd)
        114667 MiB available memory on the node where the printing process lives
------------------
     ethr =  3.54E-09,  avg # of iterations =  9.2

     negative rho (up, down):  5.981E-03 0.000E+00

     total cpu time spent up to now is    24687.2 secs

     total energy              =  -27035.66487576 Ry
     estimated scf accuracy    <       0.00048632 Ry

     iteration # 50     ecut=    71.00 Ry     beta= 0.20
     Davidson diagonalization with overlap

---- Real-time Memory Report at c_bands before calling an iterative solver
          3849 MiB given to the printing process from OS
          2032 MiB allocation reported by mallinfo(arena+hblkhd)
         69050 MiB available memory on the node where the printing process lives
------------------
     ethr =  3.54E-09,  avg # of iterations =  6.2

     negative rho (up, down):  5.715E-03 0.000E+00

     total cpu time spent up to now is    25401.0 secs

     total energy              =  -27035.66494147 Ry
     estimated scf accuracy    <       0.00002037 Ry

     iteration # 51     ecut=    71.00 Ry     beta= 0.20
     Davidson diagonalization with overlap

---- Real-time Memory Report at c_bands before calling an iterative solver
          3849 MiB given to the printing process from OS
          2032 MiB allocation reported by mallinfo(arena+hblkhd)
         75027 MiB available memory on the node where the printing process lives
------------------
     ethr =  1.53E-09,  avg # of iterations =  2.0

     negative rho (up, down):  5.696E-03 0.000E+00

     total cpu time spent up to now is    25739.1 secs

     total energy              =  -27035.66493760 Ry
     estimated scf accuracy    <       0.00002128 Ry

     iteration # 52     ecut=    71.00 Ry     beta= 0.20
     Davidson diagonalization with overlap

---- Real-time Memory Report at c_bands before calling an iterative solver
          3849 MiB given to the printing process from OS
          2032 MiB allocation reported by mallinfo(arena+hblkhd)
         71424 MiB available memory on the node where the printing process lives
------------------
     ethr =  1.53E-09,  avg # of iterations =  2.0

     negative rho (up, down):  5.863E-03 0.000E+00

     total cpu time spent up to now is    26103.7 secs

     total energy              =  -27035.66493559 Ry
     estimated scf accuracy    <       0.00001441 Ry

     iteration # 53     ecut=    71.00 Ry     beta= 0.20
     Davidson diagonalization with overlap

---- Real-time Memory Report at c_bands before calling an iterative solver
          3849 MiB given to the printing process from OS
          2032 MiB allocation reported by mallinfo(arena+hblkhd)
         61155 MiB available memory on the node where the printing process lives
------------------
     ethr =  1.09E-09,  avg # of iterations =  7.0

     negative rho (up, down):  4.736E-03 0.000E+00

     total cpu time spent up to now is    26816.4 secs

     total energy              =  -27035.66492710 Ry
     estimated scf accuracy    <       0.00004126 Ry

     iteration # 54     ecut=    71.00 Ry     beta= 0.20
     Davidson diagonalization with overlap

---- Real-time Memory Report at c_bands before calling an iterative solver
          3849 MiB given to the printing process from OS
          2032 MiB allocation reported by mallinfo(arena+hblkhd)
         85791 MiB available memory on the node where the printing process lives
------------------
     ethr =  1.09E-09,  avg # of iterations =  5.0

     negative rho (up, down):  2.820E-03 0.000E+00

     total cpu time spent up to now is    27229.9 secs

     total energy              =  -27035.66491391 Ry
     estimated scf accuracy    <       0.00001530 Ry

     iteration # 55     ecut=    71.00 Ry     beta= 0.20
     Davidson diagonalization with overlap

---- Real-time Memory Report at c_bands before calling an iterative solver
          3849 MiB given to the printing process from OS
          2032 MiB allocation reported by mallinfo(arena+hblkhd)
         80521 MiB available memory on the node where the printing process lives
------------------
     ethr =  1.09E-09,  avg # of iterations =  6.8

     negative rho (up, down):  3.044E-03 0.000E+00

     total cpu time spent up to now is    27968.5 secs

     total energy              =  -27035.66492624 Ry
     estimated scf accuracy    <       0.00003465 Ry

     iteration # 56     ecut=    71.00 Ry     beta= 0.20
     Davidson diagonalization with overlap

---- Real-time Memory Report at c_bands before calling an iterative solver
          3849 MiB given to the printing process from OS
          2032 MiB allocation reported by mallinfo(arena+hblkhd)
         80396 MiB available memory on the node where the printing process lives
------------------
     ethr =  1.09E-09,  avg # of iterations =  1.5

     negative rho (up, down):  2.941E-03 0.000E+00

     total cpu time spent up to now is    28279.7 secs

     total energy              =  -27035.66491326 Ry
     estimated scf accuracy    <       0.00001756 Ry

     iteration # 57     ecut=    71.00 Ry     beta= 0.20
     Davidson diagonalization with overlap

---- Real-time Memory Report at c_bands before calling an iterative solver
          3849 MiB given to the printing process from OS
          2032 MiB allocation reported by mallinfo(arena+hblkhd)
         86311 MiB available memory on the node where the printing process lives
------------------
     ethr =  1.09E-09,  avg # of iterations =  6.0

     negative rho (up, down):  2.277E-03 0.000E+00

     total cpu time spent up to now is    28984.5 secs

     total energy              =  -27035.66491760 Ry
     estimated scf accuracy    <       0.00002206 Ry

     iteration # 58     ecut=    71.00 Ry     beta= 0.20
     Davidson diagonalization with overlap

---- Real-time Memory Report at c_bands before calling an iterative solver
          3849 MiB given to the printing process from OS
          2032 MiB allocation reported by mallinfo(arena+hblkhd)
         71415 MiB available memory on the node where the printing process lives
------------------
     ethr =  1.09E-09,  avg # of iterations =  2.5

     negative rho (up, down):  2.277E-03 0.000E+00

     total cpu time spent up to now is    29377.9 secs

     total energy              =  -27035.66491860 Ry
     estimated scf accuracy    <       0.00000324 Ry

     iteration # 59     ecut=    71.00 Ry     beta= 0.20
     Davidson diagonalization with overlap

---- Real-time Memory Report at c_bands before calling an iterative solver
          3849 MiB given to the printing process from OS
          2032 MiB allocation reported by mallinfo(arena+hblkhd)
         58057 MiB available memory on the node where the printing process lives
------------------
     ethr =  2.44E-10,  avg # of iterations =  5.0

     negative rho (up, down):  2.357E-03 0.000E+00

     total cpu time spent up to now is    30026.1 secs

     total energy              =  -27035.66492096 Ry
     estimated scf accuracy    <       0.00000415 Ry

     iteration # 60     ecut=    71.00 Ry     beta= 0.20
     Davidson diagonalization with overlap

---- Real-time Memory Report at c_bands before calling an iterative solver
          3849 MiB given to the printing process from OS
          2032 MiB allocation reported by mallinfo(arena+hblkhd)
         45050 MiB available memory on the node where the printing process lives
------------------
     ethr =  2.44E-10,  avg # of iterations =  4.2

     negative rho (up, down):  2.362E-03 0.000E+00

     total cpu time spent up to now is    30589.8 secs

     total energy              =  -27035.66492252 Ry
     estimated scf accuracy    <       0.00000078 Ry

     iteration # 61     ecut=    71.00 Ry     beta= 0.20
     Davidson diagonalization with overlap

---- Real-time Memory Report at c_bands before calling an iterative solver
          3849 MiB given to the printing process from OS
          2032 MiB allocation reported by mallinfo(arena+hblkhd)
         49392 MiB available memory on the node where the printing process lives
------------------
     ethr =  5.91E-11,  avg # of iterations =  5.2

     negative rho (up, down):  2.212E-03 0.000E+00

     total cpu time spent up to now is    30937.8 secs

     total energy              =  -27035.66492225 Ry
     estimated scf accuracy    <       0.00000116 Ry

     iteration # 62     ecut=    71.00 Ry     beta= 0.20
     Davidson diagonalization with overlap

---- Real-time Memory Report at c_bands before calling an iterative solver
          3849 MiB given to the printing process from OS
          2032 MiB allocation reported by mallinfo(arena+hblkhd)
         59807 MiB available memory on the node where the printing process lives
------------------
     ethr =  5.91E-11,  avg # of iterations =  2.0

     negative rho (up, down):  2.174E-03 0.000E+00

     total cpu time spent up to now is    31277.6 secs

     total energy              =  -27035.66492219 Ry
     estimated scf accuracy    <       0.00000041 Ry

     iteration # 63     ecut=    71.00 Ry     beta= 0.20
     Davidson diagonalization with overlap

---- Real-time Memory Report at c_bands before calling an iterative solver
          3849 MiB given to the printing process from OS
          2032 MiB allocation reported by mallinfo(arena+hblkhd)
         62010 MiB available memory on the node where the printing process lives
------------------
     ethr =  3.11E-11,  avg # of iterations =  4.5

     negative rho (up, down):  2.158E-03 0.000E+00

     total cpu time spent up to now is    31688.9 secs

     total energy              =  -27035.66492223 Ry
     estimated scf accuracy    <       0.00000012 Ry

     iteration # 64     ecut=    71.00 Ry     beta= 0.20
     Davidson diagonalization with overlap

---- Real-time Memory Report at c_bands before calling an iterative solver
          3849 MiB given to the printing process from OS
          2032 MiB allocation reported by mallinfo(arena+hblkhd)
         46051 MiB available memory on the node where the printing process lives
------------------
     ethr =  9.16E-12,  avg # of iterations =  5.0

     negative rho (up, down):  2.137E-03 0.000E+00

     total cpu time spent up to now is    32262.1 secs

     total energy              =  -27035.66492228 Ry
     estimated scf accuracy    <       0.00000003 Ry

     iteration # 65     ecut=    71.00 Ry     beta= 0.20
     Davidson diagonalization with overlap

---- Real-time Memory Report at c_bands before calling an iterative solver
          3849 MiB given to the printing process from OS
          2032 MiB allocation reported by mallinfo(arena+hblkhd)
         40396 MiB available memory on the node where the printing process lives
------------------
     ethr =  2.40E-12,  avg # of iterations =  5.0

     negative rho (up, down):  2.106E-03 0.000E+00

     total cpu time spent up to now is    32792.1 secs

     total energy              =  -27035.66492222 Ry
     estimated scf accuracy    <       0.00000007 Ry

     iteration # 66     ecut=    71.00 Ry     beta= 0.20
     Davidson diagonalization with overlap

---- Real-time Memory Report at c_bands before calling an iterative solver
          3849 MiB given to the printing process from OS
          2032 MiB allocation reported by mallinfo(arena+hblkhd)
         44578 MiB available memory on the node where the printing process lives
------------------
     ethr =  2.40E-12,  avg # of iterations =  6.0

     negative rho (up, down):  2.094E-03 0.000E+00

     total cpu time spent up to now is    33558.0 secs

     total energy              =  -27035.66492226 Ry
     estimated scf accuracy    <       0.00000013 Ry

     iteration # 67     ecut=    71.00 Ry     beta= 0.20
     Davidson diagonalization with overlap

---- Real-time Memory Report at c_bands before calling an iterative solver
          3849 MiB given to the printing process from OS
          2032 MiB allocation reported by mallinfo(arena+hblkhd)
         48851 MiB available memory on the node where the printing process lives
------------------
     ethr =  2.40E-12,  avg # of iterations =  2.0

     negative rho (up, down):  2.094E-03 0.000E+00

     total cpu time spent up to now is    33902.1 secs

     total energy              =  -27035.66492224 Ry
     estimated scf accuracy    <       0.00000009 Ry

     iteration # 68     ecut=    71.00 Ry     beta= 0.20
     Davidson diagonalization with overlap

---- Real-time Memory Report at c_bands before calling an iterative solver
          3849 MiB given to the printing process from OS
          2032 MiB allocation reported by mallinfo(arena+hblkhd)
         50585 MiB available memory on the node where the printing process lives
------------------
     ethr =  2.40E-12,  avg # of iterations =  5.2

     negative rho (up, down):  2.107E-03 0.000E+00

     total cpu time spent up to now is    34348.4 secs

     total energy              =  -27035.66492225 Ry
     estimated scf accuracy    <       0.00000003 Ry

     iteration # 69     ecut=    71.00 Ry     beta= 0.20
     Davidson diagonalization with overlap

---- Real-time Memory Report at c_bands before calling an iterative solver
          3849 MiB given to the printing process from OS
          2032 MiB allocation reported by mallinfo(arena+hblkhd)
         59638 MiB available memory on the node where the printing process lives
------------------
     ethr =  2.40E-12,  avg # of iterations =  1.5

     negative rho (up, down):  2.108E-03 0.000E+00

     total cpu time spent up to now is    34679.5 secs

     total energy              =  -27035.66492223 Ry
     estimated scf accuracy    <       0.00000003 Ry

     iteration # 70     ecut=    71.00 Ry     beta= 0.20
     Davidson diagonalization with overlap

---- Real-time Memory Report at c_bands before calling an iterative solver
          3849 MiB given to the printing process from OS
          2032 MiB allocation reported by mallinfo(arena+hblkhd)
         60376 MiB available memory on the node where the printing process lives
------------------
     ethr =  2.40E-12,  avg # of iterations =  2.0

     negative rho (up, down):  2.109E-03 0.000E+00

     total cpu time spent up to now is    35051.2 secs

     total energy              =  -27035.66492223 Ry
     estimated scf accuracy    <          9.7E-09 Ry

     iteration # 71     ecut=    71.00 Ry     beta= 0.20
     Davidson diagonalization with overlap

---- Real-time Memory Report at c_bands before calling an iterative solver
          3849 MiB given to the printing process from OS
          2032 MiB allocation reported by mallinfo(arena+hblkhd)
         62030 MiB available memory on the node where the printing process lives
------------------
     ethr =  7.33E-13,  avg # of iterations =  4.2

     negative rho (up, down):  2.119E-03 0.000E+00

     total cpu time spent up to now is    35416.8 secs

     total energy              =  -27035.66492223 Ry
     estimated scf accuracy    <          8.5E-09 Ry

     iteration # 72     ecut=    71.00 Ry     beta= 0.20
     Davidson diagonalization with overlap

---- Real-time Memory Report at c_bands before calling an iterative solver
          3849 MiB given to the printing process from OS
          2032 MiB allocation reported by mallinfo(arena+hblkhd)
         56717 MiB available memory on the node where the printing process lives
------------------
     ethr =  6.37E-13,  avg # of iterations =  2.0

     negative rho (up, down):  2.123E-03 0.000E+00

     total cpu time spent up to now is    35766.6 secs

     total energy              =  -27035.66492223 Ry
     estimated scf accuracy    <          8.7E-09 Ry

     iteration # 73     ecut=    71.00 Ry     beta= 0.20
     Davidson diagonalization with overlap

---- Real-time Memory Report at c_bands before calling an iterative solver
          3849 MiB given to the printing process from OS
          2032 MiB allocation reported by mallinfo(arena+hblkhd)
         69493 MiB available memory on the node where the printing process lives
------------------
     ethr =  6.37E-13,  avg # of iterations =  5.2

     negative rho (up, down):  2.112E-03 0.000E+00

     total cpu time spent up to now is    36151.9 secs

     total energy              =  -27035.66492225 Ry
     estimated scf accuracy    <          3.5E-09 Ry

     iteration # 74     ecut=    71.00 Ry     beta= 0.20
     Davidson diagonalization with overlap

---- Real-time Memory Report at c_bands before calling an iterative solver
          3849 MiB given to the printing process from OS
          2032 MiB allocation reported by mallinfo(arena+hblkhd)
         71583 MiB available memory on the node where the printing process lives
------------------
     ethr =  2.60E-13,  avg # of iterations =  6.0

     negative rho (up, down):  2.107E-03 0.000E+00

     total cpu time spent up to now is    36874.7 secs

     total energy              =  -27035.66492225 Ry
     estimated scf accuracy    <       0.00000001 Ry

     iteration # 75     ecut=    71.00 Ry     beta= 0.20
     Davidson diagonalization with overlap

---- Real-time Memory Report at c_bands before calling an iterative solver
          3849 MiB given to the printing process from OS
          2032 MiB allocation reported by mallinfo(arena+hblkhd)
         72719 MiB available memory on the node where the printing process lives
------------------
     ethr =  2.60E-13,  avg # of iterations =  6.5

     negative rho (up, down):  2.103E-03 0.000E+00

     total cpu time spent up to now is    37576.6 secs

     total energy              =  -27035.66492225 Ry
     estimated scf accuracy    <          1.7E-09 Ry

     iteration # 76     ecut=    71.00 Ry     beta= 0.20
     Davidson diagonalization with overlap

---- Real-time Memory Report at c_bands before calling an iterative solver
          3849 MiB given to the printing process from OS
          2032 MiB allocation reported by mallinfo(arena+hblkhd)
         78507 MiB available memory on the node where the printing process lives
------------------
     ethr =  1.28E-13,  avg # of iterations =  2.0

     negative rho (up, down):  2.107E-03 0.000E+00

     total cpu time spent up to now is    37971.1 secs

     End of self-consistent calculation

          k = 0.0000 0.0000 0.0000 (327585 PWs)   bands (ev):

   -18.2608 -18.2608 -18.1465 -18.1465 -18.1180 -18.1180 -18.0703 -18.0703
   -17.9186 -17.9186 -17.8538 -17.8538 -17.8261 -17.8261 -17.7686 -17.7686
   -17.7676 -17.7676 -17.7429 -17.7429 -17.6797 -17.6797 -17.6717 -17.6717
   -17.3302 -17.1971 -16.9777 -16.9720 -16.9622 -16.9221 -16.8825 -16.8823
   -16.8733 -16.8653 -16.8512 -16.8472 -16.8285 -16.7920 -16.7827 -16.7775
   -16.7605 -16.7530 -16.7515 -16.7474 -16.7431 -16.7409 -16.7390 -16.7378
   -16.7300 -16.7062 -16.6855 -16.6712 -16.6548 -16.6128 -16.5990 -16.5923
   -16.5729 -16.5593 -16.5329 -16.5308 -16.5263 -16.5213 -16.5104 -16.5079
   -16.4847 -16.4833 -16.4811 -16.4807 -16.4805 -16.4717 -16.4601 -16.4600
   -16.4535 -16.4494 -16.4469 -16.4402 -16.4392 -16.4233 -16.4197 -16.4050
   -16.3882 -16.3879 -16.3797 -16.3728 -16.3556 -16.3530 -16.3379 -16.3259
   -16.3211 -16.3050 -16.3046 -16.2917 -16.2890 -16.2851 -16.2067 -16.1462
   -12.3996 -12.3989 -12.3974 -12.3746 -12.3690 -12.3682 -12.3592 -12.3591
   -12.3499 -12.3495 -12.3423 -12.3414 -12.3395 -12.3387 -12.3384 -12.3341
   -12.3329 -12.3277 -12.3276 -12.3260 -12.3241 -12.3211 -12.3206 -12.3171
   -12.3169 -12.3160 -12.3120 -12.3110 -12.3089 -12.3079 -12.3059 -12.3053
   -12.3031 -12.3001 -12.2992 -12.2990 -12.2975 -12.2959 -12.2910 -12.2910
   -12.2833 -12.2792 -12.2770 -12.2751 -12.2739 -12.2713 -12.2683 -12.2669
   -12.2668 -12.2640 -12.2612 -12.2609 -12.2593 -12.2590 -12.2542 -12.2529
   -12.2508 -12.2498 -12.2482 -12.2481 -12.2465 -12.2464 -12.2451 -12.2449
   -12.2439 -12.2390 -12.2389 -12.2382 -12.2356 -12.2337 -12.2336 -12.2302
   -12.2295 -12.2285 -12.2282 -12.2273 -12.2260 -12.2256 -12.2197 -12.2194
   -12.2168 -12.2167 -12.2164 -12.2147 -12.2142 -12.2108 -12.2101 -12.2094
   -12.2041 -12.2034 -12.2021 -12.1989 -12.1974 -12.1966 -12.1963 -12.1940
   -12.1934 -12.1921 -12.1902 -12.1895 -12.1839 -12.1802 -12.1783 -12.1755
   -12.1709 -12.1689 -12.1658 -12.1619 -12.1612 -12.1605 -12.1563 -12.1550
   -12.1549 -12.1548 -12.1525 -12.1493 -12.1473 -12.1443 -12.1402 -12.1363
   -12.1349 -12.1331 -12.1293 -12.1259 -12.1259 -12.1249 -12.1248 -12.1247
   -12.1226 -12.1194 -12.1174 -12.1174 -12.1154 -12.1141 -12.1133 -12.1125
   -12.1091 -12.1087 -12.1072 -12.1069 -12.1061 -12.1060 -12.1031 -12.0992
   -12.0963 -12.0961 -12.0958 -12.0948 -12.0946 -12.0937 -12.0934 -12.0933
   -12.0912 -12.0886 -12.0865 -12.0851 -12.0842 -12.0804 -12.0770 -12.0764
   -12.0727 -12.0715 -12.0702 -12.0672 -12.0666 -12.0639 -12.0638 -12.0625
   -12.0592 -12.0584 -12.0558 -12.0536 -12.0479 -12.0444 -12.0384 -12.0383
   -12.0382 -12.0372 -12.0356 -12.0352 -12.0319 -12.0277 -12.0223 -12.0209
   -12.0200 -12.0167 -12.0136 -12.0096 -12.0087 -12.0057 -12.0051 -12.0032
   -12.0013 -12.0010 -12.0000 -11.9985 -11.9980 -11.9972 -11.9964 -11.9934
   -11.9886 -11.9853 -11.9847 -11.9847 -11.9843 -11.9805 -11.9791 -11.9785
   -11.9769 -11.9738 -11.9727 -11.9714 -11.9682 -11.9652 -11.9650 -11.9625
   -11.9619 -11.9618 -11.9595 -11.9573 -11.9475 -11.9464 -11.9423 -11.9420
   -11.9382 -11.9332 -11.9326 -11.9245 -11.9155 -11.9053 -11.8837 -11.8567
   -11.8533 -11.8436 -11.8351 -11.8318 -11.8317 -11.8309 -11.7904 -11.7817
   -11.7545 -11.7266 -11.7199 -11.7127 -11.6939 -11.6897 -11.6147 -11.6069
   -11.5803 -11.5656 -11.5470 -11.5314 -11.5304 -11.5228 -11.4942 -11.4600
   -11.3961 -11.3880 -11.3796 -11.3790 -11.3738 -11.3671 -11.3582 -11.3535
   -11.3464 -11.3314 -11.3308 -11.3062 -11.2907 -11.2830 -11.2702 -11.2692
   -11.2669 -11.2433 -11.1427 -11.1141 -11.0996 -11.0062 -11.0000 -10.9998
    -5.8377  -5.8377  -5.6722  -5.6721  -5.6631  -5.6631  -5.6497  -5.6462
    -5.5193  -5.5186  -5.4420  -5.4402  -5.3785  -5.3784  -5.3632  -5.3548
    -5.1824  -5.1794  -5.0530  -4.9912  -4.9890  -4.9557  -4.9471  -4.9205
    -4.8666  -4.7968  -4.7829  -4.7748  -4.7446  -4.7212  -4.7127  -4.7127
    -4.6964  -4.6709  -4.6512  -4.6410  -4.6251  -4.6085  -4.5776  -4.5539
    -4.4767  -4.3844  -4.3681  -4.3249  -4.3193  -4.2809  -4.2481  -4.2371
    -4.2330  -4.2269  -4.2000  -4.1694  -4.1575  -4.1474  -4.1464  -4.0992
    -4.0702  -4.0411  -3.9770  -3.9106  -3.8258  -3.7807  -3.7781  -3.7363
    -3.6923  -3.6733  -3.6578  -3.6353  -3.5556  -3.5444  -3.5267  -3.5210
    -3.5177  -3.4890  -3.4487  -3.4309  -3.4177  -3.4148  -3.3993  -3.3857
    -3.3613  -3.3252  -3.2820  -3.2557  -3.2517  -3.1885  -3.1620  -3.1370
    -3.0864  -3.0521  -3.0407  -3.0259  -3.0034  -2.9954  -2.9599  -2.9572
    -2.9413  -2.9313  -2.9304  -2.7896  -2.7752  -2.7725  -2.7722  -2.7694
    -2.7626  -2.7506  -2.7126  -2.6914  -2.6393  -2.6289  -2.6100  -2.5720
    -2.5589  -2.5588  -2.5047  -2.4432  -2.4354  -2.4304  -2.4269  -2.4258
    -2.3867  -2.3743  -2.3601  -2.3140  -2.2696  -2.2668  -2.2175  -2.1388
    -2.1370  -2.1273  -2.0860  -2.0848  -2.0729  -2.0648  -2.0143  -1.9872
    -1.9797  -1.9737  -1.9709  -1.9616  -1.9535  -1.9411  -1.9192  -1.9071
    -1.9035  -1.8951  -1.8499  -1.7987  -1.7916  -1.7847  -1.7695  -1.7650
    -1.7605  -1.7056  -1.6930  -1.6871  -1.6817  -1.6699  -1.6655  -1.6233
    -1.6014  -1.5931  -1.5923  -1.5897  -1.5831  -1.5593  -1.5539  -1.5340
    -1.5175  -1.5072  -1.5057  -1.5025  -1.5021  -1.5009  -1.4914  -1.4665
    -1.4563  -1.4447  -1.4038  -1.3748  -1.3569  -1.3560  -1.3085  -1.3040
    -1.3012  -1.3003  -1.2935  -1.2620  -1.2248  -1.2193  -1.2041  -1.1888
    -1.1635  -1.1535  -1.1523  -1.1395  -1.1327  -1.1053  -1.1009  -1.0743
    -1.0407  -0.9914  -0.9840  -0.9813  -0.9769  -0.9733  -0.9684  -0.9358
    -0.9062  -0.9033  -0.8569  -0.8276  -0.8176  -0.8020  -0.7984  -0.7933
    -0.7697  -0.7529  -0.7318  -0.7265  -0.7084  -0.6597  -0.6172  -0.6119
    -0.5858  -0.5724  -0.5608  -0.5588  -0.5574  -0.5216  -0.5215  -0.5183
    -0.4954  -0.4863  -0.4805  -0.4763  -0.4698  -0.4517  -0.4391  -0.4352
    -0.4196  -0.4059  -0.3752  -0.3751  -0.3495  -0.3480  -0.3162  -0.3127
    -0.3031  -0.3004  -0.2992  -0.2902  -0.2756  -0.2525  -0.2479  -0.2479
    -0.2477  -0.2398  -0.2388  -0.2223  -0.2208  -0.2095  -0.2024  -0.1887
    -0.1873  -0.1867  -0.1824  -0.1751  -0.1661  -0.1627  -0.1552  -0.1539
    -0.1534  -0.1519  -0.1334  -0.1308  -0.1164  -0.0967  -0.0954  -0.0825
    -0.0628  -0.0432  -0.0243  -0.0030   0.0062   0.0251   0.0381   0.0475
     1.2713   1.9905   2.7974   3.5927   4.0053   4.0189   4.0258   4.0394
     4.2873   4.3199   4.3261   4.3399   4.3522   4.6943   4.7335   4.7681

     occupation numbers 
     1.0000   1.0000   1.0000   1.0000   1.0000   1.0000   1.0000   1.0000
     1.0000   1.0000   1.0000   1.0000   1.0000   1.0000   1.0000   1.0000
     1.0000   1.0000   1.0000   1.0000   1.0000   1.0000   1.0000   1.0000
     1.0000   1.0000   1.0000   1.0000   1.0000   1.0000   1.0000   1.0000
     1.0000   1.0000   1.0000   1.0000   1.0000   1.0000   1.0000   1.0000
     1.0000   1.0000   1.0000   1.0000   1.0000   1.0000   1.0000   1.0000
     1.0000   1.0000   1.0000   1.0000   1.0000   1.0000   1.0000   1.0000
     1.0000   1.0000   1.0000   1.0000   1.0000   1.0000   1.0000   1.0000
     1.0000   1.0000   1.0000   1.0000   1.0000   1.0000   1.0000   1.0000
     1.0000   1.0000   1.0000   1.0000   1.0000   1.0000   1.0000   1.0000
     1.0000   1.0000   1.0000   1.0000   1.0000   1.0000   1.0000   1.0000
     1.0000   1.0000   1.0000   1.0000   1.0000   1.0000   1.0000   1.0000
     1.0000   1.0000   1.0000   1.0000   1.0000   1.0000   1.0000   1.0000
     1.0000   1.0000   1.0000   1.0000   1.0000   1.0000   1.0000   1.0000
     1.0000   1.0000   1.0000   1.0000   1.0000   1.0000   1.0000   1.0000
     1.0000   1.0000   1.0000   1.0000   1.0000   1.0000   1.0000   1.0000
     1.0000   1.0000   1.0000   1.0000   1.0000   1.0000   1.0000   1.0000
     1.0000   1.0000   1.0000   1.0000   1.0000   1.0000   1.0000   1.0000
     1.0000   1.0000   1.0000   1.0000   1.0000   1.0000   1.0000   1.0000
     1.0000   1.0000   1.0000   1.0000   1.0000   1.0000   1.0000   1.0000
     1.0000   1.0000   1.0000   1.0000   1.0000   1.0000   1.0000   1.0000
     1.0000   1.0000   1.0000   1.0000   1.0000   1.0000   1.0000   1.0000
     1.0000   1.0000   1.0000   1.0000   1.0000   1.0000   1.0000   1.0000
     1.0000   1.0000   1.0000   1.0000   1.0000   1.0000   1.0000   1.0000
     1.0000   1.0000   1.0000   1.0000   1.0000   1.0000   1.0000   1.0000
     1.0000   1.0000   1.0000   1.0000   1.0000   1.0000   1.0000   1.0000
     1.0000   1.0000   1.0000   1.0000   1.0000   1.0000   1.0000   1.0000
     1.0000   1.0000   1.0000   1.0000   1.0000   1.0000   1.0000   1.0000
     1.0000   1.0000   1.0000   1.0000   1.0000   1.0000   1.0000   1.0000
     1.0000   1.0000   1.0000   1.0000   1.0000   1.0000   1.0000   1.0000
     1.0000   1.0000   1.0000   1.0000   1.0000   1.0000   1.0000   1.0000
     1.0000   1.0000   1.0000   1.0000   1.0000   1.0000   1.0000   1.0000
     1.0000   1.0000   1.0000   1.0000   1.0000   1.0000   1.0000   1.0000
     1.0000   1.0000   1.0000   1.0000   1.0000   1.0000   1.0000   1.0000
     1.0000   1.0000   1.0000   1.0000   1.0000   1.0000   1.0000   1.0000
     1.0000   1.0000   1.0000   1.0000   1.0000   1.0000   1.0000   1.0000
     1.0000   1.0000   1.0000   1.0000   1.0000   1.0000   1.0000   1.0000
     1.0000   1.0000   1.0000   1.0000   1.0000   1.0000   1.0000   1.0000
     1.0000   1.0000   1.0000   1.0000   1.0000   1.0000   1.0000   1.0000
     1.0000   1.0000   1.0000   1.0000   1.0000   1.0000   1.0000   1.0000
     1.0000   1.0000   1.0000   1.0000   1.0000   1.0000   1.0000   1.0000
     1.0000   1.0000   1.0000   1.0000   1.0000   1.0000   1.0000   1.0000
     1.0000   1.0000   1.0000   1.0000   1.0000   1.0000   1.0000   1.0000
     1.0000   1.0000   1.0000   1.0000   1.0000   1.0000   1.0000   1.0000
     1.0000   1.0000   1.0000   1.0000   1.0000   1.0000   1.0000   1.0000
     1.0000   1.0000   1.0000   1.0000   1.0000   1.0000   1.0000   1.0000
     1.0000   1.0000   1.0000   1.0000   1.0000   1.0000   1.0000   1.0000
     1.0000   1.0000   1.0000   1.0000   1.0000   1.0000   1.0000   1.0000
     1.0000   1.0000   1.0000   1.0000   1.0000   1.0000   1.0000   1.0000
     1.0000   1.0000   1.0000   1.0000   1.0000   1.0000   1.0000   1.0000
     1.0000   1.0000   1.0000   1.0000   1.0000   1.0000   1.0000   1.0000
     1.0000   1.0000   1.0000   1.0000   1.0000   1.0000   1.0000   1.0000
     1.0000   1.0000   1.0000   1.0000   1.0000   1.0000   1.0000   1.0000
     1.0000   1.0000   1.0000   1.0000   1.0000   1.0000   1.0000   1.0000
     1.0000   1.0000   1.0000   1.0000   1.0000   1.0000   1.0000   1.0000
     1.0000   1.0000   1.0000   1.0000   1.0000   1.0000   1.0000   1.0000
     1.0000   1.0000   1.0000   1.0000   1.0000   1.0000   1.0000   1.0000
     1.0000   1.0000   1.0000   1.0000   1.0000   1.0000   1.0000   1.0000
     1.0000   1.0000   1.0000   1.0000   1.0000   1.0000   1.0000   1.0000
     1.0000   1.0000   1.0000   1.0000   1.0000   1.0000   1.0000   1.0000
     1.0000   1.0000   1.0000   1.0000   1.0000   1.0000   1.0000   1.0000
     1.0000   1.0000   1.0000   1.0000   1.0000   1.0000   1.0000   1.0000
     1.0000   1.0000   1.0000   1.0000   1.0000   1.0000   1.0000   1.0000
     1.0000   1.0000   1.0000   1.0000   1.0000   1.0000   1.0000   1.0000
     1.0000   1.0000   1.0000   1.0000   1.0000   1.0000   1.0000   1.0000
     1.0000   1.0000   1.0000   1.0000   1.0000   1.0000   1.0000   1.0000
     1.0000   1.0000   1.0000   1.0000   1.0000   1.0000   1.0000   1.0000
     1.0000   1.0000   1.0000   1.0000   1.0000   1.0000   1.0000   1.0000
     1.0000   1.0000   1.0000   1.0000   1.0000   1.0000   1.0000   1.0000
     1.0000   1.0000   1.0000   1.0000   1.0000   1.0000   1.0000   1.0000
     1.0000   1.0000   1.0000   1.0000   1.0000   1.0000   1.0000   1.0000
     1.0000   1.0000   1.0000   1.0000   1.0000   1.0000   1.0000   1.0000
     1.0000   1.0000   1.0000   1.0000   1.0000   1.0000   1.0000   1.0000
     1.0000   1.0000   1.0000   1.0000   1.0000   1.0000   1.0000   1.0000
     1.0000   1.0000   1.0000   1.0000   1.0000   1.0000   1.0000   1.0000
     1.0000   1.0000   1.0000   1.0000   1.0000   1.0000   1.0000   1.0000
     1.0000   1.0000   1.0000   1.0000   1.0000   1.0000   1.0000   1.0000
     1.0000   1.0000   1.0000   1.0000   1.0000   1.0000   1.0000   1.0000
     1.0000   1.0000   1.0000   1.0000   1.0000   1.0000   1.0000   1.0000
     1.0000   1.0000   1.0000   1.0000   1.0000   1.0000   1.0000   1.0000
     1.0000   1.0000   1.0000   1.0000   1.0000   1.0000   1.0000   1.0000
     1.0000   1.0000   1.0000   1.0000   1.0000   1.0000   1.0000   1.0000
     1.0000   1.0000   1.0000   1.0000   1.0000   1.0000   1.0000   1.0000
     0.0000   0.0000   0.0000   0.0000   0.0000   0.0000   0.0000   0.0000
     0.0000   0.0000   0.0000   0.0000   0.0000   0.0000   0.0000   0.0000

          k = 0.0000 0.3336 0.0000 (327620 PWs)   bands (ev):

   -18.2332 -18.2332 -18.1654 -18.1654 -18.1306 -18.1306 -18.0934 -18.0934
   -17.8827 -17.8827 -17.8414 -17.8414 -17.8304 -17.8304 -17.7866 -17.7866
   -17.7578 -17.7578 -17.7456 -17.7456 -17.6815 -17.6815 -17.6769 -17.6769
   -17.2770 -17.1541 -17.1307 -17.0376 -16.9579 -16.9399 -16.9043 -16.8864
   -16.8761 -16.8725 -16.8328 -16.8285 -16.8177 -16.7980 -16.7941 -16.7891
   -16.7858 -16.7615 -16.7333 -16.7323 -16.7200 -16.7189 -16.7072 -16.6932
   -16.6719 -16.6695 -16.6526 -16.6427 -16.6114 -16.6073 -16.6001 -16.5866
   -16.5779 -16.5542 -16.5495 -16.5494 -16.5492 -16.5273 -16.5255 -16.5215
   -16.5175 -16.4976 -16.4853 -16.4801 -16.4765 -16.4763 -16.4624 -16.4582
   -16.4574 -16.4552 -16.4435 -16.4318 -16.4293 -16.4206 -16.4202 -16.4196
   -16.4172 -16.4026 -16.3943 -16.3805 -16.3518 -16.3337 -16.3319 -16.3264
   -16.3133 -16.3120 -16.3120 -16.2930 -16.2775 -16.2381 -16.2267 -16.1719
   -12.3827 -12.3827 -12.3818 -12.3704 -12.3570 -12.3523 -12.3508 -12.3489
   -12.3485 -12.3434 -12.3434 -12.3401 -12.3369 -12.3358 -12.3335 -12.3335
   -12.3314 -12.3278 -12.3274 -12.3248 -12.3243 -12.3224 -12.3199 -12.3195
   -12.3191 -12.3183 -12.3143 -12.3135 -12.3125 -12.3096 -12.3078 -12.3041
   -12.3033 -12.2956 -12.2955 -12.2922 -12.2907 -12.2905 -12.2890 -12.2890
   -12.2877 -12.2873 -12.2871 -12.2851 -12.2816 -12.2814 -12.2792 -12.2734
   -12.2716 -12.2699 -12.2686 -12.2677 -12.2649 -12.2628 -12.2615 -12.2596
   -12.2577 -12.2527 -12.2481 -12.2478 -12.2473 -12.2470 -12.2454 -12.2443
   -12.2405 -12.2401 -12.2375 -12.2357 -12.2329 -12.2326 -12.2321 -12.2302
   -12.2299 -12.2297 -12.2263 -12.2262 -12.2260 -12.2236 -12.2217 -12.2200
   -12.2199 -12.2176 -12.2166 -12.2153 -12.2124 -12.2102 -12.2099 -12.2095
   -12.2093 -12.2042 -12.2008 -12.1999 -12.1990 -12.1985 -12.1934 -12.1914
   -12.1885 -12.1872 -12.1868 -12.1854 -12.1841 -12.1826 -12.1815 -12.1799
   -12.1780 -12.1768 -12.1745 -12.1715 -12.1693 -12.1676 -12.1652 -12.1647
   -12.1637 -12.1592 -12.1584 -12.1576 -12.1546 -12.1520 -12.1500 -12.1472
   -12.1471 -12.1397 -12.1343 -12.1337 -12.1314 -12.1313 -12.1296 -12.1291
   -12.1273 -12.1267 -12.1237 -12.1232 -12.1227 -12.1211 -12.1204 -12.1145
   -12.1130 -12.1055 -12.1047 -12.1045 -12.1030 -12.1018 -12.1001 -12.0994
   -12.0993 -12.0964 -12.0945 -12.0917 -12.0897 -12.0886 -12.0845 -12.0834
   -12.0823 -12.0822 -12.0809 -12.0787 -12.0748 -12.0733 -12.0716 -12.0712
   -12.0697 -12.0686 -12.0656 -12.0655 -12.0624 -12.0605 -12.0569 -12.0568
   -12.0498 -12.0487 -12.0484 -12.0470 -12.0385 -12.0354 -12.0343 -12.0343
   -12.0278 -12.0278 -12.0270 -12.0262 -12.0245 -12.0215 -12.0215 -12.0205
   -12.0178 -12.0156 -12.0142 -12.0101 -12.0090 -12.0090 -12.0075 -12.0056
   -12.0035 -12.0007 -11.9980 -11.9961 -11.9949 -11.9945 -11.9929 -11.9908
   -11.9877 -11.9869 -11.9851 -11.9849 -11.9837 -11.9823 -11.9815 -11.9810
   -11.9786 -11.9773 -11.9768 -11.9764 -11.9730 -11.9725 -11.9706 -11.9690
   -11.9609 -11.9570 -11.9566 -11.9529 -11.9507 -11.9475 -11.9472 -11.9460
   -11.9431 -11.9339 -11.9267 -11.9217 -11.9211 -11.9017 -11.8984 -11.8860
   -11.8660 -11.8471 -11.8417 -11.8117 -11.8108 -11.7805 -11.7729 -11.7605
   -11.7507 -11.7233 -11.7167 -11.6952 -11.6807 -11.6784 -11.6583 -11.6418
   -11.6057 -11.5561 -11.5472 -11.5349 -11.5241 -11.5058 -11.4885 -11.4772
   -11.4656 -11.4354 -11.4134 -11.4072 -11.4070 -11.3660 -11.3547 -11.3440
   -11.3317 -11.3269 -11.3019 -11.2947 -11.2744 -11.2712 -11.2196 -11.2052
   -11.2039 -11.1913 -11.1295 -11.1257 -11.1121 -11.0598 -11.0530 -11.0324
    -5.8137  -5.8134  -5.7454  -5.7444  -5.6691  -5.6691  -5.6565  -5.6558
    -5.5008  -5.4986  -5.4687  -5.4663  -5.3075  -5.3062  -5.3058  -5.3018
    -5.0753  -5.0714  -4.9968  -4.9715  -4.9338  -4.9200  -4.9060  -4.8626
    -4.8572  -4.8350  -4.8000  -4.7970  -4.7923  -4.7918  -4.7741  -4.7235
    -4.7201  -4.6621  -4.6422  -4.6091  -4.5990  -4.5763  -4.5637  -4.5314
    -4.4908  -4.4890  -4.4821  -4.4322  -4.4228  -4.4007  -4.3954  -4.3381
    -4.3199  -4.2942  -4.2826  -4.2391  -4.2341  -4.1999  -4.0939  -4.0936
    -4.0884  -4.0850  -3.9327  -3.8259  -3.8226  -3.7898  -3.7601  -3.7497
    -3.7197  -3.7132  -3.7041  -3.6876  -3.6335  -3.6021  -3.5797  -3.5019
    -3.4866  -3.4391  -3.4142  -3.3943  -3.3508  -3.3297  -3.3269  -3.2592
    -3.2528  -3.2504  -3.1946  -3.1943  -3.1838  -3.0832  -3.0762  -3.0393
    -3.0231  -2.9951  -2.9848  -2.9696  -2.9591  -2.9552  -2.9464  -2.9250
    -2.9060  -2.8704  -2.8523  -2.8122  -2.7897  -2.7881  -2.7495  -2.7262
    -2.6967  -2.6941  -2.6816  -2.6393  -2.6101  -2.5805  -2.5797  -2.5651
    -2.5202  -2.5190  -2.4847  -2.4600  -2.4598  -2.4512  -2.4421  -2.3895
    -2.3550  -2.3476  -2.3389  -2.3006  -2.2942  -2.2841  -2.2720  -2.2231
    -2.2159  -2.1945  -2.1762  -2.1538  -2.1389  -2.0980  -2.0883  -2.0785
    -2.0473  -2.0415  -2.0347  -2.0075  -1.9771  -1.9699  -1.9625  -1.9558
    -1.9499  -1.9026  -1.8615  -1.8497  -1.8442  -1.8228  -1.8052  -1.7911
    -1.7874  -1.7819  -1.7505  -1.7480  -1.7303  -1.7248  -1.6756  -1.6693
    -1.6332  -1.6050  -1.5973  -1.5731  -1.5663  -1.5548  -1.5433  -1.5268
    -1.5252  -1.5091  -1.4880  -1.4813  -1.4789  -1.4109  -1.4064  -1.4052
    -1.3951  -1.3719  -1.3710  -1.3488  -1.3160  -1.3120  -1.3038  -1.2750
    -1.2649  -1.2582  -1.2438  -1.2311  -1.2263  -1.2160  -1.1918  -1.1688
    -1.1631  -1.1444  -1.1364  -1.0988  -1.0862  -1.0599  -1.0436  -1.0350
    -0.9913  -0.9779  -0.9702  -0.9667  -0.9388  -0.9317  -0.9251  -0.9174
    -0.8897  -0.8771  -0.8365  -0.8357  -0.8333  -0.8184  -0.7970  -0.7949
    -0.7914  -0.7836  -0.7574  -0.7330  -0.7115  -0.7035  -0.6917  -0.6860
    -0.6682  -0.6400  -0.6343  -0.6262  -0.6095  -0.6063  -0.5515  -0.5457
    -0.5450  -0.5247  -0.5168  -0.5046  -0.4821  -0.4696  -0.4610  -0.4346
    -0.4312  -0.4039  -0.4035  -0.4008  -0.3812  -0.3640  -0.3617  -0.3504
    -0.3105  -0.3091  -0.3065  -0.3045  -0.2923  -0.2906  -0.2855  -0.2813
    -0.2464  -0.2408  -0.2358  -0.2280  -0.2263  -0.2253  -0.2251  -0.1988
    -0.1961  -0.1918  -0.1855  -0.1765  -0.1653  -0.1582  -0.1513  -0.1436
    -0.1169  -0.1087  -0.0994  -0.0957  -0.0946  -0.0895  -0.0843  -0.0823
    -0.0745  -0.0334  -0.0285  -0.0202   0.0079   0.0149   0.0184   0.0402
     1.8694   2.4306   2.9364   3.1287   3.3429   3.8518   3.8786   4.2288
     4.2553   4.4568   4.4883   4.4892   4.5107   4.7315   4.7822   4.8165

     occupation numbers 
     1.0000   1.0000   1.0000   1.0000   1.0000   1.0000   1.0000   1.0000
     1.0000   1.0000   1.0000   1.0000   1.0000   1.0000   1.0000   1.0000
     1.0000   1.0000   1.0000   1.0000   1.0000   1.0000   1.0000   1.0000
     1.0000   1.0000   1.0000   1.0000   1.0000   1.0000   1.0000   1.0000
     1.0000   1.0000   1.0000   1.0000   1.0000   1.0000   1.0000   1.0000
     1.0000   1.0000   1.0000   1.0000   1.0000   1.0000   1.0000   1.0000
     1.0000   1.0000   1.0000   1.0000   1.0000   1.0000   1.0000   1.0000
     1.0000   1.0000   1.0000   1.0000   1.0000   1.0000   1.0000   1.0000
     1.0000   1.0000   1.0000   1.0000   1.0000   1.0000   1.0000   1.0000
     1.0000   1.0000   1.0000   1.0000   1.0000   1.0000   1.0000   1.0000
     1.0000   1.0000   1.0000   1.0000   1.0000   1.0000   1.0000   1.0000
     1.0000   1.0000   1.0000   1.0000   1.0000   1.0000   1.0000   1.0000
     1.0000   1.0000   1.0000   1.0000   1.0000   1.0000   1.0000   1.0000
     1.0000   1.0000   1.0000   1.0000   1.0000   1.0000   1.0000   1.0000
     1.0000   1.0000   1.0000   1.0000   1.0000   1.0000   1.0000   1.0000
     1.0000   1.0000   1.0000   1.0000   1.0000   1.0000   1.0000   1.0000
     1.0000   1.0000   1.0000   1.0000   1.0000   1.0000   1.0000   1.0000
     1.0000   1.0000   1.0000   1.0000   1.0000   1.0000   1.0000   1.0000
     1.0000   1.0000   1.0000   1.0000   1.0000   1.0000   1.0000   1.0000
     1.0000   1.0000   1.0000   1.0000   1.0000   1.0000   1.0000   1.0000
     1.0000   1.0000   1.0000   1.0000   1.0000   1.0000   1.0000   1.0000
     1.0000   1.0000   1.0000   1.0000   1.0000   1.0000   1.0000   1.0000
     1.0000   1.0000   1.0000   1.0000   1.0000   1.0000   1.0000   1.0000
     1.0000   1.0000   1.0000   1.0000   1.0000   1.0000   1.0000   1.0000
     1.0000   1.0000   1.0000   1.0000   1.0000   1.0000   1.0000   1.0000
     1.0000   1.0000   1.0000   1.0000   1.0000   1.0000   1.0000   1.0000
     1.0000   1.0000   1.0000   1.0000   1.0000   1.0000   1.0000   1.0000
     1.0000   1.0000   1.0000   1.0000   1.0000   1.0000   1.0000   1.0000
     1.0000   1.0000   1.0000   1.0000   1.0000   1.0000   1.0000   1.0000
     1.0000   1.0000   1.0000   1.0000   1.0000   1.0000   1.0000   1.0000
     1.0000   1.0000   1.0000   1.0000   1.0000   1.0000   1.0000   1.0000
     1.0000   1.0000   1.0000   1.0000   1.0000   1.0000   1.0000   1.0000
     1.0000   1.0000   1.0000   1.0000   1.0000   1.0000   1.0000   1.0000
     1.0000   1.0000   1.0000   1.0000   1.0000   1.0000   1.0000   1.0000
     1.0000   1.0000   1.0000   1.0000   1.0000   1.0000   1.0000   1.0000
     1.0000   1.0000   1.0000   1.0000   1.0000   1.0000   1.0000   1.0000
     1.0000   1.0000   1.0000   1.0000   1.0000   1.0000   1.0000   1.0000
     1.0000   1.0000   1.0000   1.0000   1.0000   1.0000   1.0000   1.0000
     1.0000   1.0000   1.0000   1.0000   1.0000   1.0000   1.0000   1.0000
     1.0000   1.0000   1.0000   1.0000   1.0000   1.0000   1.0000   1.0000
     1.0000   1.0000   1.0000   1.0000   1.0000   1.0000   1.0000   1.0000
     1.0000   1.0000   1.0000   1.0000   1.0000   1.0000   1.0000   1.0000
     1.0000   1.0000   1.0000   1.0000   1.0000   1.0000   1.0000   1.0000
     1.0000   1.0000   1.0000   1.0000   1.0000   1.0000   1.0000   1.0000
     1.0000   1.0000   1.0000   1.0000   1.0000   1.0000   1.0000   1.0000
     1.0000   1.0000   1.0000   1.0000   1.0000   1.0000   1.0000   1.0000
     1.0000   1.0000   1.0000   1.0000   1.0000   1.0000   1.0000   1.0000
     1.0000   1.0000   1.0000   1.0000   1.0000   1.0000   1.0000   1.0000
     1.0000   1.0000   1.0000   1.0000   1.0000   1.0000   1.0000   1.0000
     1.0000   1.0000   1.0000   1.0000   1.0000   1.0000   1.0000   1.0000
     1.0000   1.0000   1.0000   1.0000   1.0000   1.0000   1.0000   1.0000
     1.0000   1.0000   1.0000   1.0000   1.0000   1.0000   1.0000   1.0000
     1.0000   1.0000   1.0000   1.0000   1.0000   1.0000   1.0000   1.0000
     1.0000   1.0000   1.0000   1.0000   1.0000   1.0000   1.0000   1.0000
     1.0000   1.0000   1.0000   1.0000   1.0000   1.0000   1.0000   1.0000
     1.0000   1.0000   1.0000   1.0000   1.0000   1.0000   1.0000   1.0000
     1.0000   1.0000   1.0000   1.0000   1.0000   1.0000   1.0000   1.0000
     1.0000   1.0000   1.0000   1.0000   1.0000   1.0000   1.0000   1.0000
     1.0000   1.0000   1.0000   1.0000   1.0000   1.0000   1.0000   1.0000
     1.0000   1.0000   1.0000   1.0000   1.0000   1.0000   1.0000   1.0000
     1.0000   1.0000   1.0000   1.0000   1.0000   1.0000   1.0000   1.0000
     1.0000   1.0000   1.0000   1.0000   1.0000   1.0000   1.0000   1.0000
     1.0000   1.0000   1.0000   1.0000   1.0000   1.0000   1.0000   1.0000
     1.0000   1.0000   1.0000   1.0000   1.0000   1.0000   1.0000   1.0000
     1.0000   1.0000   1.0000   1.0000   1.0000   1.0000   1.0000   1.0000
     1.0000   1.0000   1.0000   1.0000   1.0000   1.0000   1.0000   1.0000
     1.0000   1.0000   1.0000   1.0000   1.0000   1.0000   1.0000   1.0000
     1.0000   1.0000   1.0000   1.0000   1.0000   1.0000   1.0000   1.0000
     1.0000   1.0000   1.0000   1.0000   1.0000   1.0000   1.0000   1.0000
     1.0000   1.0000   1.0000   1.0000   1.0000   1.0000   1.0000   1.0000
     1.0000   1.0000   1.0000   1.0000   1.0000   1.0000   1.0000   1.0000
     1.0000   1.0000   1.0000   1.0000   1.0000   1.0000   1.0000   1.0000
     1.0000   1.0000   1.0000   1.0000   1.0000   1.0000   1.0000   1.0000
     1.0000   1.0000   1.0000   1.0000   1.0000   1.0000   1.0000   1.0000
     1.0000   1.0000   1.0000   1.0000   1.0000   1.0000   1.0000   1.0000
     1.0000   1.0000   1.0000   1.0000   1.0000   1.0000   1.0000   1.0000
     1.0000   1.0000   1.0000   1.0000   1.0000   1.0000   1.0000   1.0000
     1.0000   1.0000   1.0000   1.0000   1.0000   1.0000   1.0000   1.0000
     1.0000   1.0000   1.0000   1.0000   1.0000   1.0000   1.0000   1.0000
     1.0000   1.0000   1.0000   1.0000   1.0000   1.0000   1.0000   1.0000
     1.0000   1.0000   1.0000   1.0000   1.0000   1.0000   1.0000   1.0000
     1.0000   1.0000   1.0000   1.0000   1.0000   1.0000   1.0000   1.0000
     1.0000   1.0000   1.0000   1.0000   1.0000   1.0000   1.0000   1.0000
     0.0000   0.0000   0.0000   0.0000   0.0000   0.0000   0.0000   0.0000
     0.0000   0.0000   0.0000   0.0000   0.0000   0.0000   0.0000   0.0000

          k = 0.3333 0.0000 0.0000 (327628 PWs)   bands (ev):

   -18.2373 -18.2373 -18.1820 -18.1820 -18.1068 -18.1068 -18.0825 -18.0825
   -17.9013 -17.9013 -17.8705 -17.8705 -17.8038 -17.8038 -17.7671 -17.7671
   -17.7596 -17.7596 -17.7553 -17.7553 -17.6814 -17.6814 -17.6770 -17.6770
   -17.2768 -17.1532 -17.1294 -17.0321 -16.9491 -16.9417 -16.9042 -16.8740
   -16.8694 -16.8648 -16.8606 -16.8591 -16.8357 -16.8182 -16.8076 -16.7891
   -16.7714 -16.7572 -16.7472 -16.7242 -16.7217 -16.7200 -16.6923 -16.6774
   -16.6647 -16.6469 -16.6382 -16.6378 -16.6336 -16.6141 -16.6098 -16.5921
   -16.5678 -16.5626 -16.5487 -16.5342 -16.5182 -16.5173 -16.5164 -16.5137
   -16.5111 -16.5107 -16.4894 -16.4842 -16.4764 -16.4701 -16.4655 -16.4616
   -16.4573 -16.4550 -16.4537 -16.4523 -16.4378 -16.4300 -16.4243 -16.4053
   -16.3993 -16.3973 -16.3929 -16.3917 -16.3524 -16.3475 -16.3380 -16.3257
   -16.3194 -16.3156 -16.3076 -16.2932 -16.2743 -16.2330 -16.2256 -16.1705
   -12.3853 -12.3818 -12.3798 -12.3629 -12.3597 -12.3567 -12.3559 -12.3537
   -12.3491 -12.3430 -12.3416 -12.3390 -12.3366 -12.3334 -12.3317 -12.3298
   -12.3284 -12.3279 -12.3277 -12.3272 -12.3264 -12.3235 -12.3225 -12.3212
   -12.3186 -12.3137 -12.3135 -12.3104 -12.3097 -12.3097 -12.3093 -12.3085
   -12.3061 -12.3052 -12.3014 -12.2993 -12.2969 -12.2937 -12.2907 -12.2903
   -12.2900 -12.2866 -12.2852 -12.2829 -12.2828 -12.2808 -12.2801 -12.2761
   -12.2710 -12.2703 -12.2681 -12.2670 -12.2661 -12.2619 -12.2609 -12.2606
   -12.2587 -12.2546 -12.2507 -12.2475 -12.2463 -12.2433 -12.2399 -12.2393
   -12.2390 -12.2365 -12.2352 -12.2348 -12.2341 -12.2324 -12.2323 -12.2304
   -12.2300 -12.2277 -12.2270 -12.2269 -12.2254 -12.2247 -12.2212 -12.2203
   -12.2194 -12.2168 -12.2155 -12.2130 -12.2119 -12.2110 -12.2105 -12.2066
   -12.2061 -12.2002 -12.1998 -12.1998 -12.1988 -12.1976 -12.1968 -12.1921
   -12.1898 -12.1897 -12.1897 -12.1891 -12.1877 -12.1819 -12.1816 -12.1813
   -12.1809 -12.1800 -12.1774 -12.1732 -12.1711 -12.1682 -12.1669 -12.1664
   -12.1599 -12.1523 -12.1504 -12.1486 -12.1474 -12.1461 -12.1448 -12.1419
   -12.1397 -12.1388 -12.1368 -12.1324 -12.1320 -12.1316 -12.1287 -12.1278
   -12.1264 -12.1233 -12.1211 -12.1208 -12.1176 -12.1165 -12.1116 -12.1094
   -12.1073 -12.1063 -12.1059 -12.1031 -12.1023 -12.1011 -12.0999 -12.0985
   -12.0964 -12.0955 -12.0951 -12.0939 -12.0917 -12.0906 -12.0904 -12.0875
   -12.0871 -12.0824 -12.0811 -12.0803 -12.0785 -12.0740 -12.0727 -12.0721
   -12.0684 -12.0679 -12.0635 -12.0629 -12.0611 -12.0590 -12.0578 -12.0540
   -12.0511 -12.0504 -12.0497 -12.0467 -12.0455 -12.0445 -12.0424 -12.0380
   -12.0344 -12.0342 -12.0271 -12.0247 -12.0230 -12.0217 -12.0193 -12.0172
   -12.0172 -12.0129 -12.0129 -12.0113 -12.0093 -12.0085 -12.0082 -12.0017
   -12.0013 -11.9991 -11.9990 -11.9978 -11.9933 -11.9932 -11.9914 -11.9910
   -11.9898 -11.9875 -11.9851 -11.9838 -11.9833 -11.9826 -11.9814 -11.9796
   -11.9784 -11.9750 -11.9746 -11.9734 -11.9722 -11.9709 -11.9695 -11.9670
   -11.9617 -11.9608 -11.9605 -11.9544 -11.9519 -11.9505 -11.9502 -11.9369
   -11.9360 -11.9352 -11.9231 -11.9228 -11.9157 -11.9099 -11.8995 -11.8761
   -11.8434 -11.8423 -11.8382 -11.8360 -11.8259 -11.7832 -11.7697 -11.7690
   -11.7673 -11.7563 -11.7498 -11.6865 -11.6847 -11.6552 -11.6511 -11.6363
   -11.6120 -11.5756 -11.5674 -11.5553 -11.5426 -11.4807 -11.4799 -11.4650
   -11.4358 -11.4158 -11.4081 -11.4063 -11.3782 -11.3563 -11.3543 -11.3355
   -11.3266 -11.3078 -11.3036 -11.3000 -11.2754 -11.2673 -11.2647 -11.2436
   -11.2006 -11.1510 -11.1313 -11.1305 -11.1247 -11.0627 -11.0492 -11.0386
    -5.8058  -5.8055  -5.7254  -5.7248  -5.6687  -5.6681  -5.6518  -5.6502
    -5.5270  -5.5256  -5.4892  -5.4871  -5.3159  -5.3158  -5.2939  -5.2910
    -5.0658  -5.0651  -4.9866  -4.9811  -4.9628  -4.9500  -4.8648  -4.8526
    -4.8372  -4.8169  -4.8051  -4.8011  -4.7874  -4.7744  -4.7209  -4.7185
    -4.6913  -4.6880  -4.6598  -4.6294  -4.6274  -4.5812  -4.5811  -4.5267
    -4.5237  -4.5048  -4.4982  -4.4655  -4.4244  -4.3906  -4.3879  -4.3335
    -4.2638  -4.2599  -4.2149  -4.1954  -4.1577  -4.1374  -4.1200  -4.0940
    -4.0284  -4.0164  -4.0139  -4.0138  -3.9226  -3.9125  -3.8648  -3.8295
    -3.8222  -3.7288  -3.6701  -3.6465  -3.5523  -3.5358  -3.5165  -3.4857
    -3.4539  -3.4435  -3.4289  -3.3789  -3.3720  -3.3437  -3.3117  -3.3044
    -3.2822  -3.2279  -3.1826  -3.1626  -3.1472  -3.1356  -3.0940  -3.0443
    -3.0184  -3.0092  -2.9978  -2.9779  -2.9272  -2.9150  -2.9115  -2.8937
    -2.8925  -2.8683  -2.8414  -2.8210  -2.7864  -2.7842  -2.7486  -2.7084
    -2.7057  -2.6673  -2.6383  -2.6353  -2.6231  -2.6133  -2.5725  -2.5625
    -2.5517  -2.5312  -2.5188  -2.4973  -2.4971  -2.4632  -2.4259  -2.4007
    -2.3685  -2.3458  -2.3435  -2.3233  -2.2737  -2.2426  -2.2358  -2.2204
    -2.2184  -2.1984  -2.1609  -2.1362  -2.1300  -2.1264  -2.0157  -2.0117
    -2.0032  -1.9986  -1.9919  -1.9504  -1.9263  -1.9142  -1.9122  -1.9089
    -1.8842  -1.8795  -1.8774  -1.8634  -1.8452  -1.8293  -1.8275  -1.8153
    -1.8110  -1.7484  -1.7352  -1.7236  -1.7221  -1.6956  -1.6946  -1.6922
    -1.6893  -1.6514  -1.6233  -1.6045  -1.6024  -1.5813  -1.5705  -1.5632
    -1.5626  -1.5066  -1.5013  -1.4851  -1.4735  -1.4474  -1.4372  -1.4272
    -1.4271  -1.4175  -1.4156  -1.3891  -1.3292  -1.3133  -1.3121  -1.2904
    -1.2878  -1.2735  -1.2617  -1.2553  -1.2242  -1.1906  -1.1843  -1.1647
    -1.1071  -1.1045  -1.0990  -1.0989  -1.0894  -1.0831  -1.0810  -1.0513
    -1.0147  -1.0043  -0.9964  -0.9840  -0.9576  -0.9210  -0.9201  -0.9079
    -0.8706  -0.8637  -0.8543  -0.8526  -0.8519  -0.8047  -0.8032  -0.8005
    -0.7738  -0.7617  -0.7419  -0.7309  -0.7014  -0.6974  -0.6795  -0.6702
    -0.6347  -0.6260  -0.6138  -0.6004  -0.5673  -0.5549  -0.5516  -0.5365
    -0.5301  -0.5208  -0.5134  -0.4903  -0.4724  -0.4706  -0.4605  -0.4458
    -0.4358  -0.4161  -0.4140  -0.4124  -0.3962  -0.3817  -0.3682  -0.3623
    -0.3620  -0.3537  -0.3414  -0.3232  -0.3027  -0.2952  -0.2733  -0.2681
    -0.2565  -0.2408  -0.2306  -0.2293  -0.2245  -0.2217  -0.2117  -0.2086
    -0.1966  -0.1939  -0.1834  -0.1683  -0.1600  -0.1550  -0.1515  -0.1439
    -0.1341  -0.1131  -0.1066  -0.1043  -0.1040  -0.0792  -0.0607  -0.0596
    -0.0507  -0.0434  -0.0156  -0.0091   0.0110   0.0157   0.0266   0.0446
     1.8691   2.4303   2.9351   3.1289   3.3395   3.8479   3.8785   4.2350
     4.2579   4.4631   4.4636   4.5200   4.5341   4.7470   4.7565   4.8226

     occupation numbers 
     1.0000   1.0000   1.0000   1.0000   1.0000   1.0000   1.0000   1.0000
     1.0000   1.0000   1.0000   1.0000   1.0000   1.0000   1.0000   1.0000
     1.0000   1.0000   1.0000   1.0000   1.0000   1.0000   1.0000   1.0000
     1.0000   1.0000   1.0000   1.0000   1.0000   1.0000   1.0000   1.0000
     1.0000   1.0000   1.0000   1.0000   1.0000   1.0000   1.0000   1.0000
     1.0000   1.0000   1.0000   1.0000   1.0000   1.0000   1.0000   1.0000
     1.0000   1.0000   1.0000   1.0000   1.0000   1.0000   1.0000   1.0000
     1.0000   1.0000   1.0000   1.0000   1.0000   1.0000   1.0000   1.0000
     1.0000   1.0000   1.0000   1.0000   1.0000   1.0000   1.0000   1.0000
     1.0000   1.0000   1.0000   1.0000   1.0000   1.0000   1.0000   1.0000
     1.0000   1.0000   1.0000   1.0000   1.0000   1.0000   1.0000   1.0000
     1.0000   1.0000   1.0000   1.0000   1.0000   1.0000   1.0000   1.0000
     1.0000   1.0000   1.0000   1.0000   1.0000   1.0000   1.0000   1.0000
     1.0000   1.0000   1.0000   1.0000   1.0000   1.0000   1.0000   1.0000
     1.0000   1.0000   1.0000   1.0000   1.0000   1.0000   1.0000   1.0000
     1.0000   1.0000   1.0000   1.0000   1.0000   1.0000   1.0000   1.0000
     1.0000   1.0000   1.0000   1.0000   1.0000   1.0000   1.0000   1.0000
     1.0000   1.0000   1.0000   1.0000   1.0000   1.0000   1.0000   1.0000
     1.0000   1.0000   1.0000   1.0000   1.0000   1.0000   1.0000   1.0000
     1.0000   1.0000   1.0000   1.0000   1.0000   1.0000   1.0000   1.0000
     1.0000   1.0000   1.0000   1.0000   1.0000   1.0000   1.0000   1.0000
     1.0000   1.0000   1.0000   1.0000   1.0000   1.0000   1.0000   1.0000
     1.0000   1.0000   1.0000   1.0000   1.0000   1.0000   1.0000   1.0000
     1.0000   1.0000   1.0000   1.0000   1.0000   1.0000   1.0000   1.0000
     1.0000   1.0000   1.0000   1.0000   1.0000   1.0000   1.0000   1.0000
     1.0000   1.0000   1.0000   1.0000   1.0000   1.0000   1.0000   1.0000
     1.0000   1.0000   1.0000   1.0000   1.0000   1.0000   1.0000   1.0000
     1.0000   1.0000   1.0000   1.0000   1.0000   1.0000   1.0000   1.0000
     1.0000   1.0000   1.0000   1.0000   1.0000   1.0000   1.0000   1.0000
     1.0000   1.0000   1.0000   1.0000   1.0000   1.0000   1.0000   1.0000
     1.0000   1.0000   1.0000   1.0000   1.0000   1.0000   1.0000   1.0000
     1.0000   1.0000   1.0000   1.0000   1.0000   1.0000   1.0000   1.0000
     1.0000   1.0000   1.0000   1.0000   1.0000   1.0000   1.0000   1.0000
     1.0000   1.0000   1.0000   1.0000   1.0000   1.0000   1.0000   1.0000
     1.0000   1.0000   1.0000   1.0000   1.0000   1.0000   1.0000   1.0000
     1.0000   1.0000   1.0000   1.0000   1.0000   1.0000   1.0000   1.0000
     1.0000   1.0000   1.0000   1.0000   1.0000   1.0000   1.0000   1.0000
     1.0000   1.0000   1.0000   1.0000   1.0000   1.0000   1.0000   1.0000
     1.0000   1.0000   1.0000   1.0000   1.0000   1.0000   1.0000   1.0000
     1.0000   1.0000   1.0000   1.0000   1.0000   1.0000   1.0000   1.0000
     1.0000   1.0000   1.0000   1.0000   1.0000   1.0000   1.0000   1.0000
     1.0000   1.0000   1.0000   1.0000   1.0000   1.0000   1.0000   1.0000
     1.0000   1.0000   1.0000   1.0000   1.0000   1.0000   1.0000   1.0000
     1.0000   1.0000   1.0000   1.0000   1.0000   1.0000   1.0000   1.0000
     1.0000   1.0000   1.0000   1.0000   1.0000   1.0000   1.0000   1.0000
     1.0000   1.0000   1.0000   1.0000   1.0000   1.0000   1.0000   1.0000
     1.0000   1.0000   1.0000   1.0000   1.0000   1.0000   1.0000   1.0000
     1.0000   1.0000   1.0000   1.0000   1.0000   1.0000   1.0000   1.0000
     1.0000   1.0000   1.0000   1.0000   1.0000   1.0000   1.0000   1.0000
     1.0000   1.0000   1.0000   1.0000   1.0000   1.0000   1.0000   1.0000
     1.0000   1.0000   1.0000   1.0000   1.0000   1.0000   1.0000   1.0000
     1.0000   1.0000   1.0000   1.0000   1.0000   1.0000   1.0000   1.0000
     1.0000   1.0000   1.0000   1.0000   1.0000   1.0000   1.0000   1.0000
     1.0000   1.0000   1.0000   1.0000   1.0000   1.0000   1.0000   1.0000
     1.0000   1.0000   1.0000   1.0000   1.0000   1.0000   1.0000   1.0000
     1.0000   1.0000   1.0000   1.0000   1.0000   1.0000   1.0000   1.0000
     1.0000   1.0000   1.0000   1.0000   1.0000   1.0000   1.0000   1.0000
     1.0000   1.0000   1.0000   1.0000   1.0000   1.0000   1.0000   1.0000
     1.0000   1.0000   1.0000   1.0000   1.0000   1.0000   1.0000   1.0000
     1.0000   1.0000   1.0000   1.0000   1.0000   1.0000   1.0000   1.0000
     1.0000   1.0000   1.0000   1.0000   1.0000   1.0000   1.0000   1.0000
     1.0000   1.0000   1.0000   1.0000   1.0000   1.0000   1.0000   1.0000
     1.0000   1.0000   1.0000   1.0000   1.0000   1.0000   1.0000   1.0000
     1.0000   1.0000   1.0000   1.0000   1.0000   1.0000   1.0000   1.0000
     1.0000   1.0000   1.0000   1.0000   1.0000   1.0000   1.0000   1.0000
     1.0000   1.0000   1.0000   1.0000   1.0000   1.0000   1.0000   1.0000
     1.0000   1.0000   1.0000   1.0000   1.0000   1.0000   1.0000   1.0000
     1.0000   1.0000   1.0000   1.0000   1.0000   1.0000   1.0000   1.0000
     1.0000   1.0000   1.0000   1.0000   1.0000   1.0000   1.0000   1.0000
     1.0000   1.0000   1.0000   1.0000   1.0000   1.0000   1.0000   1.0000
     1.0000   1.0000   1.0000   1.0000   1.0000   1.0000   1.0000   1.0000
     1.0000   1.0000   1.0000   1.0000   1.0000   1.0000   1.0000   1.0000
     1.0000   1.0000   1.0000   1.0000   1.0000   1.0000   1.0000   1.0000
     1.0000   1.0000   1.0000   1.0000   1.0000   1.0000   1.0000   1.0000
     1.0000   1.0000   1.0000   1.0000   1.0000   1.0000   1.0000   1.0000
     1.0000   1.0000   1.0000   1.0000   1.0000   1.0000   1.0000   1.0000
     1.0000   1.0000   1.0000   1.0000   1.0000   1.0000   1.0000   1.0000
     1.0000   1.0000   1.0000   1.0000   1.0000   1.0000   1.0000   1.0000
     1.0000   1.0000   1.0000   1.0000   1.0000   1.0000   1.0000   1.0000
     1.0000   1.0000   1.0000   1.0000   1.0000   1.0000   1.0000   1.0000
     1.0000   1.0000   1.0000   1.0000   1.0000   1.0000   1.0000   1.0000
     1.0000   1.0000   1.0000   1.0000   1.0000   1.0000   1.0000   1.0000
     1.0000   1.0000   1.0000   1.0000   1.0000   1.0000   1.0000   1.0000
     0.0000   0.0000   0.0000   0.0000   0.0000   0.0000   0.0000   0.0000
     0.0000   0.0000   0.0000   0.0000   0.0000   0.0000   0.0000   0.0000

          k = 0.3333 0.3336 0.0000 (327656 PWs)   bands (ev):

   -18.2118 -18.2118 -18.1620 -18.1620 -18.1495 -18.1495 -18.1138 -18.1138
   -17.8656 -17.8656 -17.8406 -17.8406 -17.8188 -17.8188 -17.7895 -17.7895
   -17.7594 -17.7594 -17.7543 -17.7543 -17.6817 -17.6817 -17.6786 -17.6786
   -17.2274 -17.1142 -17.0917 -17.0911 -17.0087 -17.0050 -16.9871 -16.9375
   -16.9268 -16.8871 -16.8657 -16.8578 -16.7914 -16.7712 -16.7696 -16.7581
   -16.7248 -16.7182 -16.7179 -16.7002 -16.6832 -16.6773 -16.6718 -16.6689
   -16.6620 -16.6505 -16.6473 -16.6326 -16.6231 -16.6019 -16.5970 -16.5898
   -16.5787 -16.5586 -16.5457 -16.5439 -16.5304 -16.5247 -16.5240 -16.5183
   -16.5156 -16.5026 -16.4967 -16.4935 -16.4850 -16.4799 -16.4775 -16.4742
   -16.4647 -16.4624 -16.4528 -16.4507 -16.4427 -16.4411 -16.4377 -16.4285
   -16.4174 -16.4162 -16.4126 -16.4083 -16.3358 -16.3243 -16.3210 -16.3195
   -16.3046 -16.3003 -16.2890 -16.2813 -16.2568 -16.2510 -16.2413 -16.1938
   -12.3798 -12.3713 -12.3663 -12.3630 -12.3594 -12.3576 -12.3519 -12.3517
   -12.3496 -12.3481 -12.3477 -12.3462 -12.3457 -12.3408 -12.3408 -12.3394
   -12.3366 -12.3345 -12.3336 -12.3328 -12.3293 -12.3274 -12.3253 -12.3247
   -12.3214 -12.3202 -12.3175 -12.3146 -12.3126 -12.3098 -12.3049 -12.3033
   -12.3015 -12.2989 -12.2983 -12.2978 -12.2945 -12.2936 -12.2922 -12.2896
   -12.2874 -12.2833 -12.2811 -12.2802 -12.2794 -12.2792 -12.2751 -12.2748
   -12.2735 -12.2691 -12.2681 -12.2638 -12.2634 -12.2581 -12.2558 -12.2548
   -12.2531 -12.2488 -12.2484 -12.2472 -12.2448 -12.2446 -12.2427 -12.2409
   -12.2378 -12.2369 -12.2350 -12.2345 -12.2333 -12.2307 -12.2306 -12.2299
   -12.2280 -12.2268 -12.2264 -12.2257 -12.2249 -12.2232 -12.2217 -12.2205
   -12.2201 -12.2195 -12.2167 -12.2165 -12.2156 -12.2128 -12.2111 -12.2089
   -12.2083 -12.2074 -12.2067 -12.2054 -12.2035 -12.2029 -12.1983 -12.1957
   -12.1955 -12.1936 -12.1928 -12.1906 -12.1880 -12.1875 -12.1842 -12.1823
   -12.1812 -12.1781 -12.1754 -12.1732 -12.1718 -12.1700 -12.1697 -12.1682
   -12.1631 -12.1578 -12.1558 -12.1515 -12.1463 -12.1439 -12.1420 -12.1418
   -12.1389 -12.1371 -12.1365 -12.1330 -12.1322 -12.1318 -12.1310 -12.1286
   -12.1266 -12.1235 -12.1209 -12.1181 -12.1169 -12.1160 -12.1134 -12.1132
   -12.1110 -12.1091 -12.1062 -12.1060 -12.1033 -12.1030 -12.1016 -12.0976
   -12.0962 -12.0960 -12.0948 -12.0943 -12.0907 -12.0891 -12.0872 -12.0843
   -12.0801 -12.0781 -12.0776 -12.0764 -12.0757 -12.0734 -12.0732 -12.0709
   -12.0664 -12.0646 -12.0644 -12.0628 -12.0613 -12.0607 -12.0581 -12.0552
   -12.0519 -12.0495 -12.0445 -12.0426 -12.0425 -12.0357 -12.0346 -12.0326
   -12.0318 -12.0289 -12.0243 -12.0234 -12.0199 -12.0189 -12.0179 -12.0179
   -12.0148 -12.0123 -12.0111 -12.0068 -12.0058 -12.0054 -12.0034 -12.0017
   -11.9999 -11.9991 -11.9985 -11.9975 -11.9958 -11.9955 -11.9930 -11.9923
   -11.9896 -11.9873 -11.9856 -11.9850 -11.9832 -11.9802 -11.9785 -11.9783
   -11.9765 -11.9763 -11.9738 -11.9727 -11.9684 -11.9680 -11.9649 -11.9646
   -11.9590 -11.9588 -11.9572 -11.9567 -11.9507 -11.9444 -11.9383 -11.9354
   -11.9219 -11.9105 -11.9096 -11.9033 -11.8981 -11.8887 -11.8758 -11.8654
   -11.8548 -11.8454 -11.8295 -11.8272 -11.8137 -11.8072 -11.7952 -11.7870
   -11.7749 -11.7620 -11.7573 -11.7396 -11.7028 -11.6917 -11.6738 -11.6501
   -11.6487 -11.6008 -11.6002 -11.5814 -11.5336 -11.5047 -11.4890 -11.4772
   -11.4605 -11.4045 -11.3720 -11.3650 -11.3473 -11.3468 -11.3254 -11.3234
   -11.3091 -11.2829 -11.2717 -11.2696 -11.2576 -11.2376 -11.2343 -11.2142
   -11.2098 -11.1644 -11.1630 -11.1494 -11.1266 -11.0951 -11.0943 -11.0725
    -5.7902  -5.7901  -5.7484  -5.7477  -5.6925  -5.6923  -5.6777  -5.6772
    -5.4978  -5.4962  -5.4804  -5.4803  -5.2772  -5.2766  -5.2676  -5.2661
    -4.9919  -4.9903  -4.9409  -4.9369  -4.8766  -4.8624  -4.8589  -4.8276
    -4.8191  -4.8010  -4.7962  -4.7751  -4.7470  -4.7402  -4.7329  -4.7181
    -4.6992  -4.6847  -4.6765  -4.6505  -4.6318  -4.6153  -4.5810  -4.5443
    -4.5392  -4.4897  -4.4800  -4.4413  -4.4338  -4.4298  -4.4243  -4.4014
    -4.4006  -4.3562  -4.3535  -4.3160  -4.3129  -4.3004  -4.2643  -4.2582
    -4.1707  -4.1421  -4.1161  -4.1028  -3.9903  -3.9599  -3.9491  -3.8444
    -3.7369  -3.6468  -3.6294  -3.5943  -3.4737  -3.4493  -3.4421  -3.4112
    -3.3712  -3.3624  -3.3340  -3.3299  -3.2714  -3.2514  -3.2274  -3.2249
    -3.1932  -3.1577  -3.1574  -3.1345  -3.1046  -3.0442  -3.0440  -2.9976
    -2.9636  -2.9527  -2.9318  -2.9266  -2.8950  -2.8848  -2.8652  -2.8459
    -2.8439  -2.8210  -2.7952  -2.7717  -2.7562  -2.7465  -2.7292  -2.7289
    -2.7020  -2.6716  -2.6545  -2.6375  -2.6263  -2.6184  -2.5863  -2.5809
    -2.5675  -2.5504  -2.5450  -2.4768  -2.4660  -2.4416  -2.4287  -2.3942
    -2.3683  -2.3650  -2.3360  -2.3087  -2.2999  -2.2810  -2.2807  -2.2194
    -2.2164  -2.2110  -2.1711  -2.1575  -2.1456  -2.1380  -2.0836  -2.0831
    -2.0654  -2.0480  -2.0468  -2.0390  -1.9980  -1.9821  -1.9709  -1.9373
    -1.9111  -1.8797  -1.8633  -1.8632  -1.8406  -1.8350  -1.8205  -1.8070
    -1.8048  -1.7902  -1.7896  -1.7798  -1.7649  -1.7286  -1.7094  -1.7051
    -1.6972  -1.6761  -1.6515  -1.6343  -1.6314  -1.6230  -1.5790  -1.5550
    -1.5485  -1.5123  -1.5098  -1.4714  -1.4454  -1.4307  -1.4223  -1.3815
    -1.3682  -1.3566  -1.3239  -1.3166  -1.2814  -1.2701  -1.2636  -1.2437
    -1.2399  -1.2105  -1.2071  -1.1938  -1.1894  -1.1698  -1.1543  -1.1527
    -1.1307  -1.1089  -1.1089  -1.0894  -1.0831  -1.0623  -1.0586  -1.0337
    -1.0285  -1.0101  -0.9943  -0.9632  -0.9562  -0.9429  -0.9378  -0.9212
    -0.9064  -0.9050  -0.8849  -0.8733  -0.8619  -0.8521  -0.8501  -0.8154
    -0.8128  -0.7859  -0.7686  -0.7459  -0.7377  -0.7347  -0.7213  -0.7068
    -0.6840  -0.6765  -0.6674  -0.6500  -0.6112  -0.5946  -0.5935  -0.5723
    -0.5701  -0.5697  -0.5386  -0.5281  -0.4998  -0.4936  -0.4840  -0.4724
    -0.4692  -0.4450  -0.4356  -0.4222  -0.4175  -0.4029  -0.4012  -0.3902
    -0.3813  -0.3699  -0.3680  -0.3456  -0.3283  -0.3277  -0.3081  -0.2981
    -0.2751  -0.2627  -0.2547  -0.2514  -0.2403  -0.2200  -0.2175  -0.2033
    -0.1658  -0.1612  -0.1490  -0.1316  -0.1140  -0.1046  -0.0971  -0.0902
    -0.0754  -0.0740  -0.0714  -0.0617  -0.0486  -0.0376  -0.0370  -0.0355
    -0.0328  -0.0229  -0.0224  -0.0158  -0.0070  -0.0027   0.0133   0.0339
     2.3230   2.7934   3.2462   3.2481   3.4111   3.5968   3.6005   3.9553
     4.0642   4.0771   4.0863   4.2092   4.5542   4.5977   4.6144   4.6593

     occupation numbers 
     1.0000   1.0000   1.0000   1.0000   1.0000   1.0000   1.0000   1.0000
     1.0000   1.0000   1.0000   1.0000   1.0000   1.0000   1.0000   1.0000
     1.0000   1.0000   1.0000   1.0000   1.0000   1.0000   1.0000   1.0000
     1.0000   1.0000   1.0000   1.0000   1.0000   1.0000   1.0000   1.0000
     1.0000   1.0000   1.0000   1.0000   1.0000   1.0000   1.0000   1.0000
     1.0000   1.0000   1.0000   1.0000   1.0000   1.0000   1.0000   1.0000
     1.0000   1.0000   1.0000   1.0000   1.0000   1.0000   1.0000   1.0000
     1.0000   1.0000   1.0000   1.0000   1.0000   1.0000   1.0000   1.0000
     1.0000   1.0000   1.0000   1.0000   1.0000   1.0000   1.0000   1.0000
     1.0000   1.0000   1.0000   1.0000   1.0000   1.0000   1.0000   1.0000
     1.0000   1.0000   1.0000   1.0000   1.0000   1.0000   1.0000   1.0000
     1.0000   1.0000   1.0000   1.0000   1.0000   1.0000   1.0000   1.0000
     1.0000   1.0000   1.0000   1.0000   1.0000   1.0000   1.0000   1.0000
     1.0000   1.0000   1.0000   1.0000   1.0000   1.0000   1.0000   1.0000
     1.0000   1.0000   1.0000   1.0000   1.0000   1.0000   1.0000   1.0000
     1.0000   1.0000   1.0000   1.0000   1.0000   1.0000   1.0000   1.0000
     1.0000   1.0000   1.0000   1.0000   1.0000   1.0000   1.0000   1.0000
     1.0000   1.0000   1.0000   1.0000   1.0000   1.0000   1.0000   1.0000
     1.0000   1.0000   1.0000   1.0000   1.0000   1.0000   1.0000   1.0000
     1.0000   1.0000   1.0000   1.0000   1.0000   1.0000   1.0000   1.0000
     1.0000   1.0000   1.0000   1.0000   1.0000   1.0000   1.0000   1.0000
     1.0000   1.0000   1.0000   1.0000   1.0000   1.0000   1.0000   1.0000
     1.0000   1.0000   1.0000   1.0000   1.0000   1.0000   1.0000   1.0000
     1.0000   1.0000   1.0000   1.0000   1.0000   1.0000   1.0000   1.0000
     1.0000   1.0000   1.0000   1.0000   1.0000   1.0000   1.0000   1.0000
     1.0000   1.0000   1.0000   1.0000   1.0000   1.0000   1.0000   1.0000
     1.0000   1.0000   1.0000   1.0000   1.0000   1.0000   1.0000   1.0000
     1.0000   1.0000   1.0000   1.0000   1.0000   1.0000   1.0000   1.0000
     1.0000   1.0000   1.0000   1.0000   1.0000   1.0000   1.0000   1.0000
     1.0000   1.0000   1.0000   1.0000   1.0000   1.0000   1.0000   1.0000
     1.0000   1.0000   1.0000   1.0000   1.0000   1.0000   1.0000   1.0000
     1.0000   1.0000   1.0000   1.0000   1.0000   1.0000   1.0000   1.0000
     1.0000   1.0000   1.0000   1.0000   1.0000   1.0000   1.0000   1.0000
     1.0000   1.0000   1.0000   1.0000   1.0000   1.0000   1.0000   1.0000
     1.0000   1.0000   1.0000   1.0000   1.0000   1.0000   1.0000   1.0000
     1.0000   1.0000   1.0000   1.0000   1.0000   1.0000   1.0000   1.0000
     1.0000   1.0000   1.0000   1.0000   1.0000   1.0000   1.0000   1.0000
     1.0000   1.0000   1.0000   1.0000   1.0000   1.0000   1.0000   1.0000
     1.0000   1.0000   1.0000   1.0000   1.0000   1.0000   1.0000   1.0000
     1.0000   1.0000   1.0000   1.0000   1.0000   1.0000   1.0000   1.0000
     1.0000   1.0000   1.0000   1.0000   1.0000   1.0000   1.0000   1.0000
     1.0000   1.0000   1.0000   1.0000   1.0000   1.0000   1.0000   1.0000
     1.0000   1.0000   1.0000   1.0000   1.0000   1.0000   1.0000   1.0000
     1.0000   1.0000   1.0000   1.0000   1.0000   1.0000   1.0000   1.0000
     1.0000   1.0000   1.0000   1.0000   1.0000   1.0000   1.0000   1.0000
     1.0000   1.0000   1.0000   1.0000   1.0000   1.0000   1.0000   1.0000
     1.0000   1.0000   1.0000   1.0000   1.0000   1.0000   1.0000   1.0000
     1.0000   1.0000   1.0000   1.0000   1.0000   1.0000   1.0000   1.0000
     1.0000   1.0000   1.0000   1.0000   1.0000   1.0000   1.0000   1.0000
     1.0000   1.0000   1.0000   1.0000   1.0000   1.0000   1.0000   1.0000
     1.0000   1.0000   1.0000   1.0000   1.0000   1.0000   1.0000   1.0000
     1.0000   1.0000   1.0000   1.0000   1.0000   1.0000   1.0000   1.0000
     1.0000   1.0000   1.0000   1.0000   1.0000   1.0000   1.0000   1.0000
     1.0000   1.0000   1.0000   1.0000   1.0000   1.0000   1.0000   1.0000
     1.0000   1.0000   1.0000   1.0000   1.0000   1.0000   1.0000   1.0000
     1.0000   1.0000   1.0000   1.0000   1.0000   1.0000   1.0000   1.0000
     1.0000   1.0000   1.0000   1.0000   1.0000   1.0000   1.0000   1.0000
     1.0000   1.0000   1.0000   1.0000   1.0000   1.0000   1.0000   1.0000
     1.0000   1.0000   1.0000   1.0000   1.0000   1.0000   1.0000   1.0000
     1.0000   1.0000   1.0000   1.0000   1.0000   1.0000   1.0000   1.0000
     1.0000   1.0000   1.0000   1.0000   1.0000   1.0000   1.0000   1.0000
     1.0000   1.0000   1.0000   1.0000   1.0000   1.0000   1.0000   1.0000
     1.0000   1.0000   1.0000   1.0000   1.0000   1.0000   1.0000   1.0000
     1.0000   1.0000   1.0000   1.0000   1.0000   1.0000   1.0000   1.0000
     1.0000   1.0000   1.0000   1.0000   1.0000   1.0000   1.0000   1.0000
     1.0000   1.0000   1.0000   1.0000   1.0000   1.0000   1.0000   1.0000
     1.0000   1.0000   1.0000   1.0000   1.0000   1.0000   1.0000   1.0000
     1.0000   1.0000   1.0000   1.0000   1.0000   1.0000   1.0000   1.0000
     1.0000   1.0000   1.0000   1.0000   1.0000   1.0000   1.0000   1.0000
     1.0000   1.0000   1.0000   1.0000   1.0000   1.0000   1.0000   1.0000
     1.0000   1.0000   1.0000   1.0000   1.0000   1.0000   1.0000   1.0000
     1.0000   1.0000   1.0000   1.0000   1.0000   1.0000   1.0000   1.0000
     1.0000   1.0000   1.0000   1.0000   1.0000   1.0000   1.0000   1.0000
     1.0000   1.0000   1.0000   1.0000   1.0000   1.0000   1.0000   1.0000
     1.0000   1.0000   1.0000   1.0000   1.0000   1.0000   1.0000   1.0000
     1.0000   1.0000   1.0000   1.0000   1.0000   1.0000   1.0000   1.0000
     1.0000   1.0000   1.0000   1.0000   1.0000   1.0000   1.0000   1.0000
     1.0000   1.0000   1.0000   1.0000   1.0000   1.0000   1.0000   1.0000
     1.0000   1.0000   1.0000   1.0000   1.0000   1.0000   1.0000   1.0000
     1.0000   1.0000   1.0000   1.0000   1.0000   1.0000   1.0000   1.0000
     1.0000   1.0000   1.0000   1.0000   1.0000   1.0000   1.0000   1.0000
     1.0000   1.0000   1.0000   1.0000   1.0000   1.0000   1.0000   1.0000
     1.0000   1.0000   1.0000   1.0000   1.0000   1.0000   1.0000   1.0000
     0.0000   0.0000   0.0000   0.0000   0.0000   0.0000   0.0000   0.0000
     0.0000   0.0000   0.0000   0.0000   0.0000   0.0000   0.0000   0.0000

     highest occupied, lowest unoccupied level (ev):     0.0475    1.2713

!    total energy              =  -27035.66492227 Ry
     total all-electron energy =   -673235.702639 Ry
     estimated scf accuracy    <          4.3E-10 Ry

     The total energy is the sum of the following terms:
     one-electron contribution = -272838.06894029 Ry
     hartree contribution      =  137216.08086297 Ry
     xc contribution           =   -3329.72164898 Ry
     ewald contribution        =  128104.25312711 Ry
     one-center paw contrib.   =  -16188.20832307 Ry
      -> PAW hartree energy AE =     760.90647775 Ry
      -> PAW hartree energy PS =    -757.62016930 Ry
      -> PAW xc energy AE      =   -2549.39576475 Ry
      -> PAW xc energy PS      =     365.01388576 Ry
      -> total E_H with PAW    =  137219.36717141 Ry
      -> total E_XC with PAW   =   -5514.10352798 Ry

     convergence has been achieved in  76 iterations

     negative rho (up, down):  2.107E-03 0.000E+00

     Forces acting on atoms (cartesian axes, Ry/au):

     atom    1 type  1   force =    -0.00002292   -0.00022288   -0.00004379
     atom    2 type  1   force =     0.00002292    0.00022288   -0.00004379
     atom    3 type  1   force =     0.00008401    0.00050651    0.00001961
     atom    4 type  1   force =     0.00002292   -0.00022288   -0.00004379
     atom    5 type  1   force =     0.00023501    0.00001828    0.00015189
     atom    6 type  1   force =     0.00009713   -0.00013816   -0.00010621
     atom    7 type  1   force =    -0.00003346   -0.00010566    0.00045166
     atom    8 type  1   force =     0.00003346    0.00010566    0.00045166
     atom    9 type  1   force =     0.00000000    0.00000000   -0.00067321
     atom   10 type  1   force =    -0.00023501    0.00001828    0.00015189
     atom   11 type  1   force =    -0.00009713   -0.00013816   -0.00010621
     atom   12 type  1   force =     0.00000000    0.00000000   -0.00067321
     atom   13 type  2   force =     0.00016448    0.00035075    0.00001622
     atom   14 type  2   force =    -0.00016448   -0.00035075    0.00001622
     atom   15 type  2   force =    -0.00052118   -0.00014838   -0.00007013
     atom   16 type  2   force =     0.00052118    0.00014838   -0.00007013
     atom   17 type  2   force =     0.00066873   -0.00028505    0.00004200
     atom   18 type  2   force =     0.00046083    0.00010272   -0.00041407
     atom   19 type  2   force =    -0.00066873    0.00028505    0.00004200
     atom   20 type  2   force =    -0.00046083   -0.00010272   -0.00041407
     atom   21 type  2   force =    -0.00019653   -0.00010318    0.00035188
     atom   22 type  2   force =     0.00027285    0.00033389    0.00014911
     atom   23 type  2   force =     0.00078341   -0.00035154    0.00071907
     atom   24 type  2   force =     0.00022536    0.00004794   -0.00024005
     atom   25 type  2   force =     0.00001788   -0.00026697    0.00071349
     atom   26 type  2   force =    -0.00001788    0.00026697    0.00071349
     atom   27 type  2   force =    -0.00000506    0.00007621    0.00050983
     atom   28 type  2   force =     0.00000506   -0.00007621    0.00050983
     atom   29 type  2   force =    -0.00046083    0.00010272   -0.00041407
     atom   30 type  2   force =    -0.00066873   -0.00028505    0.00004200
     atom   31 type  2   force =     0.00046083   -0.00010272   -0.00041407
     atom   32 type  2   force =     0.00066873    0.00028505    0.00004200
     atom   33 type  2   force =    -0.00078341   -0.00035154    0.00071907
     atom   34 type  2   force =    -0.00022536    0.00004794   -0.00024005
     atom   35 type  2   force =     0.00019653   -0.00010318    0.00035188
     atom   36 type  2   force =    -0.00027285    0.00033389    0.00014911
     atom   37 type  1   force =     0.00008401   -0.00050651    0.00001961
     atom   38 type  1   force =    -0.00008401    0.00050651    0.00001961
     atom   39 type  1   force =    -0.00002292    0.00022288   -0.00004379
     atom   40 type  1   force =    -0.00008401   -0.00050651    0.00001961
     atom   41 type  1   force =    -0.00009713    0.00013816   -0.00010621
     atom   42 type  1   force =    -0.00023501   -0.00001828    0.00015189
     atom   43 type  1   force =     0.00000000    0.00000000   -0.00068462
     atom   44 type  1   force =     0.00000000    0.00000000   -0.00014211
     atom   45 type  1   force =     0.00009713    0.00013816   -0.00010621
     atom   46 type  1   force =     0.00023501   -0.00001828    0.00015189
     atom   47 type  1   force =    -0.00003346    0.00010566    0.00045166
     atom   48 type  1   force =     0.00003346   -0.00010566    0.00045166
     atom   49 type  1   force =     0.00000000    0.00000000   -0.00014211
     atom   50 type  1   force =     0.00000000    0.00000000   -0.00068462
     atom   51 type  2   force =    -0.00000506   -0.00007621    0.00050983
     atom   52 type  2   force =     0.00000506    0.00007621    0.00050983
     atom   53 type  2   force =     0.00001788    0.00026697    0.00071349
     atom   54 type  2   force =    -0.00001788   -0.00026697    0.00071349
     atom   55 type  2   force =     0.00003764    0.00041136    0.00055119
     atom   56 type  2   force =     0.00033289   -0.00007687   -0.00013608
     atom   57 type  2   force =    -0.00003764   -0.00041136    0.00055119
     atom   58 type  2   force =    -0.00033289    0.00007687   -0.00013608
     atom   59 type  2   force =    -0.00022536   -0.00004794   -0.00024005
     atom   60 type  2   force =    -0.00078341    0.00035154    0.00071907
     atom   61 type  2   force =    -0.00027285   -0.00033389    0.00014911
     atom   62 type  2   force =     0.00019653    0.00010318    0.00035188
     atom   63 type  2   force =    -0.00052118    0.00014838   -0.00007013
     atom   64 type  2   force =     0.00052118   -0.00014838   -0.00007013
     atom   65 type  2   force =     0.00016448   -0.00035075    0.00001622
     atom   66 type  2   force =    -0.00016448    0.00035075    0.00001622
     atom   67 type  2   force =    -0.00033289   -0.00007687   -0.00013608
     atom   68 type  2   force =    -0.00003764    0.00041136    0.00055119
     atom   69 type  2   force =     0.00033289    0.00007687   -0.00013608
     atom   70 type  2   force =     0.00003764   -0.00041136    0.00055119
     atom   71 type  2   force =     0.00027285   -0.00033389    0.00014911
     atom   72 type  2   force =    -0.00019653    0.00010318    0.00035188
     atom   73 type  2   force =     0.00022536   -0.00004794   -0.00024005
     atom   74 type  2   force =     0.00078341    0.00035154    0.00071907
     atom   75 type  1   force =    -0.00008401    0.00050651   -0.00001961
     atom   76 type  1   force =     0.00008401   -0.00050651   -0.00001961
     atom   77 type  1   force =     0.00002292   -0.00022288    0.00004379
     atom   78 type  1   force =     0.00008401    0.00050651   -0.00001961
     atom   79 type  1   force =    -0.00009713   -0.00013816    0.00010621
     atom   80 type  1   force =    -0.00023501    0.00001828   -0.00015189
     atom   81 type  1   force =     0.00003346   -0.00010566   -0.00045166
     atom   82 type  1   force =    -0.00003346    0.00010566   -0.00045166
     atom   83 type  1   force =     0.00000000    0.00000000    0.00014211
     atom   84 type  1   force =     0.00000000    0.00000000    0.00068462
     atom   85 type  1   force =     0.00009713   -0.00013816    0.00010621
     atom   86 type  1   force =     0.00023501    0.00001828   -0.00015189
     atom   87 type  1   force =     0.00000000    0.00086311    0.00000000
     atom   88 type  1   force =     0.00000000   -0.00086311    0.00000000
     atom   89 type  1   force =     0.00000000    0.00000000    0.00068462
     atom   90 type  1   force =     0.00000000    0.00000000    0.00014211
     atom   91 type  2   force =     0.00052118   -0.00014838    0.00007013
     atom   92 type  2   force =    -0.00052118    0.00014838    0.00007013
     atom   93 type  2   force =    -0.00016448    0.00035075   -0.00001622
     atom   94 type  2   force =     0.00016448   -0.00035075   -0.00001622
     atom   95 type  2   force =     0.00033289    0.00007687    0.00013608
     atom   96 type  2   force =     0.00003764   -0.00041136   -0.00055119
     atom   97 type  2   force =    -0.00033289   -0.00007687    0.00013608
     atom   98 type  2   force =    -0.00003764    0.00041136   -0.00055119
     atom   99 type  2   force =    -0.00027285    0.00033389   -0.00014911
     atom  100 type  2   force =     0.00019653   -0.00010318   -0.00035188
     atom  101 type  2   force =    -0.00022536    0.00004794    0.00024005
     atom  102 type  2   force =    -0.00078341   -0.00035154   -0.00071907
     atom  103 type  2   force =     0.00000506    0.00007621   -0.00050983
     atom  104 type  2   force =    -0.00000506   -0.00007621   -0.00050983
     atom  105 type  2   force =    -0.00001788   -0.00026697   -0.00071349
     atom  106 type  2   force =     0.00001788    0.00026697   -0.00071349
     atom  107 type  2   force =    -0.00003764   -0.00041136   -0.00055119
     atom  108 type  2   force =    -0.00033289    0.00007687    0.00013608
     atom  109 type  2   force =     0.00003764    0.00041136   -0.00055119
     atom  110 type  2   force =     0.00033289   -0.00007687    0.00013608
     atom  111 type  2   force =     0.00022536    0.00004794    0.00024005
     atom  112 type  2   force =     0.00078341   -0.00035154   -0.00071907
     atom  113 type  2   force =     0.00027285    0.00033389   -0.00014911
     atom  114 type  2   force =    -0.00019653   -0.00010318   -0.00035188
     atom  115 type  1   force =     0.00002292    0.00022288    0.00004379
     atom  116 type  1   force =    -0.00002292   -0.00022288    0.00004379
     atom  117 type  1   force =    -0.00008401   -0.00050651   -0.00001961
     atom  118 type  1   force =    -0.00002292    0.00022288    0.00004379
     atom  119 type  1   force =     0.00023501   -0.00001828   -0.00015189
     atom  120 type  1   force =     0.00009713    0.00013816    0.00010621
     atom  121 type  1   force =     0.00000000   -0.00086311    0.00000000
     atom  122 type  1   force =     0.00000000    0.00086311    0.00000000
     atom  123 type  1   force =     0.00000000    0.00000000    0.00067321
     atom  124 type  1   force =    -0.00023501   -0.00001828   -0.00015189
     atom  125 type  1   force =    -0.00009713    0.00013816    0.00010621
     atom  126 type  1   force =     0.00003346    0.00010566   -0.00045166
     atom  127 type  1   force =    -0.00003346   -0.00010566   -0.00045166
     atom  128 type  1   force =     0.00000000    0.00000000    0.00067321
     atom  129 type  2   force =    -0.00001788    0.00026697   -0.00071349
     atom  130 type  2   force =     0.00001788   -0.00026697   -0.00071349
     atom  131 type  2   force =     0.00000506   -0.00007621   -0.00050983
     atom  132 type  2   force =    -0.00000506    0.00007621   -0.00050983
     atom  133 type  2   force =     0.00046083   -0.00010272    0.00041407
     atom  134 type  2   force =     0.00066873    0.00028505   -0.00004200
     atom  135 type  2   force =    -0.00046083    0.00010272    0.00041407
     atom  136 type  2   force =    -0.00066873   -0.00028505   -0.00004200
     atom  137 type  2   force =     0.00078341    0.00035154   -0.00071907
     atom  138 type  2   force =     0.00022536   -0.00004794    0.00024005
     atom  139 type  2   force =    -0.00019653    0.00010318   -0.00035188
     atom  140 type  2   force =     0.00027285   -0.00033389   -0.00014911
     atom  141 type  2   force =    -0.00016448   -0.00035075   -0.00001622
     atom  142 type  2   force =     0.00016448    0.00035075   -0.00001622
     atom  143 type  2   force =     0.00052118    0.00014838    0.00007013
     atom  144 type  2   force =    -0.00052118   -0.00014838    0.00007013
     atom  145 type  2   force =    -0.00066873    0.00028505   -0.00004200
     atom  146 type  2   force =    -0.00046083   -0.00010272    0.00041407
     atom  147 type  2   force =     0.00066873   -0.00028505   -0.00004200
     atom  148 type  2   force =     0.00046083    0.00010272    0.00041407
     atom  149 type  2   force =     0.00019653    0.00010318   -0.00035188
     atom  150 type  2   force =    -0.00027285   -0.00033389   -0.00014911
     atom  151 type  2   force =    -0.00078341    0.00035154   -0.00071907
     atom  152 type  2   force =    -0.00022536   -0.00004794    0.00024005
     atom  153 type  3   force =    -0.00007558    0.00004982    0.00005921
     atom  154 type  3   force =     0.00007558   -0.00004982    0.00005921
     atom  155 type  3   force =    -0.00007550   -0.00018536   -0.00037764
     atom  156 type  3   force =    -0.00005102    0.00007290   -0.00035555
     atom  157 type  3   force =     0.00005102   -0.00007290   -0.00035555
     atom  158 type  3   force =     0.00007558    0.00004982    0.00005921
     atom  159 type  3   force =    -0.00007558   -0.00004982    0.00005921
     atom  160 type  3   force =     0.00007550   -0.00018536   -0.00037764
     atom  161 type  3   force =    -0.00005102   -0.00007290   -0.00035555
     atom  162 type  3   force =     0.00005102    0.00007290   -0.00035555
     atom  163 type  3   force =     0.00007550    0.00018536   -0.00037764
     atom  164 type  3   force =    -0.00007550    0.00018536   -0.00037764
     atom  165 type  3   force =     0.00007550   -0.00018536    0.00037764
     atom  166 type  3   force =     0.00005102    0.00007290    0.00035555
     atom  167 type  3   force =    -0.00005102   -0.00007290    0.00035555
     atom  168 type  3   force =    -0.00007550   -0.00018536    0.00037764
     atom  169 type  3   force =     0.00005102   -0.00007290    0.00035555
     atom  170 type  3   force =    -0.00005102    0.00007290    0.00035555
     atom  171 type  3   force =    -0.00007558   -0.00004982   -0.00005921
     atom  172 type  3   force =     0.00007558    0.00004982   -0.00005921
     atom  173 type  3   force =    -0.00007550    0.00018536    0.00037764
     atom  174 type  3   force =     0.00007558   -0.00004982   -0.00005921
     atom  175 type  3   force =    -0.00007558    0.00004982   -0.00005921
     atom  176 type  3   force =     0.00007550    0.00018536    0.00037764
     The non-local contrib.  to forces
     atom    1 type  1   force =     0.03157900    0.01910012   -0.00189046
     atom    2 type  1   force =    -0.03157900   -0.01910012   -0.00189046
     atom    3 type  1   force =     0.00394097   -0.00016778    0.00240733
     atom    4 type  1   force =    -0.03157900    0.01910012   -0.00189046
     atom    5 type  1   force =    -0.02100310   -0.00175206    0.00185396
     atom    6 type  1   force =     0.01761933    0.05908137   -0.01841263
     atom    7 type  1   force =    -0.01471862   -0.03347506    0.00207922
     atom    8 type  1   force =     0.01471862    0.03347506    0.00207922
     atom    9 type  1   force =     0.00000000    0.00000000   -0.01751831
     atom   10 type  1   force =     0.02100310   -0.00175206    0.00185396
     atom   11 type  1   force =    -0.01761933    0.05908137   -0.01841263
     atom   12 type  1   force =     0.00000000    0.00000000   -0.01751831
     atom   13 type  2   force =    -0.04450751   -0.07165101    0.01486957
     atom   14 type  2   force =     0.04450751    0.07165101    0.01486957
     atom   15 type  2   force =     0.08371686   -0.04258735   -0.06172031
     atom   16 type  2   force =    -0.08371686    0.04258735   -0.06172031
     atom   17 type  2   force =    -0.91229754    1.25766561    0.07465396
     atom   18 type  2   force =     0.04764090    0.08671884    0.09341719
     atom   19 type  2   force =     0.91229754   -1.25766561    0.07465396
     atom   20 type  2   force =    -0.04764090   -0.08671884    0.09341719
     atom   21 type  2   force =    -0.01348857    0.06767850   -0.09826173
     atom   22 type  2   force =     0.05051640    0.06214932    0.08244884
     atom   23 type  2   force =    -0.99315468    1.05888901   -0.74443932
     atom   24 type  2   force =     0.03636467   -0.06171120   -0.07147754
     atom   25 type  2   force =     1.11656656    1.03195621   -0.83682209
     atom   26 type  2   force =    -1.11656656   -1.03195621   -0.83682209
     atom   27 type  2   force =    -0.07784115    0.03548286    0.05847014
     atom   28 type  2   force =     0.07784115   -0.03548286    0.05847014
     atom   29 type  2   force =    -0.04764090    0.08671884    0.09341719
     atom   30 type  2   force =     0.91229754    1.25766561    0.07465396
     atom   31 type  2   force =     0.04764090   -0.08671884    0.09341719
     atom   32 type  2   force =    -0.91229754   -1.25766561    0.07465396
     atom   33 type  2   force =     0.99315468    1.05888901   -0.74443932
     atom   34 type  2   force =    -0.03636467   -0.06171120   -0.07147754
     atom   35 type  2   force =     0.01348857    0.06767850   -0.09826173
     atom   36 type  2   force =    -0.05051640    0.06214932    0.08244884
     atom   37 type  1   force =     0.00394097    0.00016778    0.00240733
     atom   38 type  1   force =    -0.00394097   -0.00016778    0.00240733
     atom   39 type  1   force =     0.03157900   -0.01910012   -0.00189046
     atom   40 type  1   force =    -0.00394097    0.00016778    0.00240733
     atom   41 type  1   force =    -0.01761933   -0.05908137   -0.01841263
     atom   42 type  1   force =     0.02100310    0.00175206    0.00185396
     atom   43 type  1   force =     0.00000000    0.00000000   -0.02656403
     atom   44 type  1   force =     0.00000000    0.00000000    0.00964964
     atom   45 type  1   force =     0.01761933   -0.05908137   -0.01841263
     atom   46 type  1   force =    -0.02100310    0.00175206    0.00185396
     atom   47 type  1   force =    -0.01471862    0.03347506    0.00207922
     atom   48 type  1   force =     0.01471862   -0.03347506    0.00207922
     atom   49 type  1   force =     0.00000000    0.00000000    0.00964964
     atom   50 type  1   force =     0.00000000    0.00000000   -0.02656403
     atom   51 type  2   force =    -0.07784115   -0.03548286    0.05847014
     atom   52 type  2   force =     0.07784115    0.03548286    0.05847014
     atom   53 type  2   force =     1.11656656   -1.03195621   -0.83682209
     atom   54 type  2   force =    -1.11656656    1.03195621   -0.83682209
     atom   55 type  2   force =     0.05770658   -0.07950706   -0.04602987
     atom   56 type  2   force =     0.06504416    0.07119295    0.03962910
     atom   57 type  2   force =    -0.05770658    0.07950706   -0.04602987
     atom   58 type  2   force =    -0.06504416   -0.07119295    0.03962910
     atom   59 type  2   force =    -0.03636467    0.06171120   -0.07147754
     atom   60 type  2   force =     0.99315468   -1.05888901   -0.74443932
     atom   61 type  2   force =    -0.05051640   -0.06214932    0.08244884
     atom   62 type  2   force =     0.01348857   -0.06767850   -0.09826173
     atom   63 type  2   force =     0.08371686    0.04258735   -0.06172031
     atom   64 type  2   force =    -0.08371686   -0.04258735   -0.06172031
     atom   65 type  2   force =    -0.04450751    0.07165101    0.01486957
     atom   66 type  2   force =     0.04450751   -0.07165101    0.01486957
     atom   67 type  2   force =    -0.06504416    0.07119295    0.03962910
     atom   68 type  2   force =    -0.05770658   -0.07950706   -0.04602987
     atom   69 type  2   force =     0.06504416   -0.07119295    0.03962910
     atom   70 type  2   force =     0.05770658    0.07950706   -0.04602987
     atom   71 type  2   force =     0.05051640   -0.06214932    0.08244884
     atom   72 type  2   force =    -0.01348857   -0.06767850   -0.09826173
     atom   73 type  2   force =     0.03636467    0.06171120   -0.07147754
     atom   74 type  2   force =    -0.99315468   -1.05888901   -0.74443932
     atom   75 type  1   force =    -0.00394097   -0.00016778   -0.00240733
     atom   76 type  1   force =     0.00394097    0.00016778   -0.00240733
     atom   77 type  1   force =    -0.03157900    0.01910012    0.00189046
     atom   78 type  1   force =     0.00394097   -0.00016778   -0.00240733
     atom   79 type  1   force =    -0.01761933    0.05908137    0.01841263
     atom   80 type  1   force =     0.02100310   -0.00175206   -0.00185396
     atom   81 type  1   force =     0.01471862   -0.03347506   -0.00207922
     atom   82 type  1   force =    -0.01471862    0.03347506   -0.00207922
     atom   83 type  1   force =     0.00000000    0.00000000   -0.00964964
     atom   84 type  1   force =     0.00000000    0.00000000    0.02656403
     atom   85 type  1   force =     0.01761933    0.05908137    0.01841263
     atom   86 type  1   force =    -0.02100310   -0.00175206   -0.00185396
     atom   87 type  1   force =     0.00000000    0.03100494    0.00000000
     atom   88 type  1   force =     0.00000000   -0.03100494    0.00000000
     atom   89 type  1   force =     0.00000000    0.00000000    0.02656403
     atom   90 type  1   force =     0.00000000    0.00000000   -0.00964964
     atom   91 type  2   force =    -0.08371686   -0.04258735    0.06172031
     atom   92 type  2   force =     0.08371686    0.04258735    0.06172031
     atom   93 type  2   force =     0.04450751   -0.07165101   -0.01486957
     atom   94 type  2   force =    -0.04450751    0.07165101   -0.01486957
     atom   95 type  2   force =     0.06504416   -0.07119295   -0.03962910
     atom   96 type  2   force =     0.05770658    0.07950706    0.04602987
     atom   97 type  2   force =    -0.06504416    0.07119295   -0.03962910
     atom   98 type  2   force =    -0.05770658   -0.07950706    0.04602987
     atom   99 type  2   force =    -0.05051640    0.06214932   -0.08244884
     atom  100 type  2   force =     0.01348857    0.06767850    0.09826173
     atom  101 type  2   force =    -0.03636467   -0.06171120    0.07147754
     atom  102 type  2   force =     0.99315468    1.05888901    0.74443932
     atom  103 type  2   force =     0.07784115    0.03548286   -0.05847014
     atom  104 type  2   force =    -0.07784115   -0.03548286   -0.05847014
     atom  105 type  2   force =    -1.11656656    1.03195621    0.83682209
     atom  106 type  2   force =     1.11656656   -1.03195621    0.83682209
     atom  107 type  2   force =    -0.05770658    0.07950706    0.04602987
     atom  108 type  2   force =    -0.06504416   -0.07119295   -0.03962910
     atom  109 type  2   force =     0.05770658   -0.07950706    0.04602987
     atom  110 type  2   force =     0.06504416    0.07119295   -0.03962910
     atom  111 type  2   force =     0.03636467   -0.06171120    0.07147754
     atom  112 type  2   force =    -0.99315468    1.05888901    0.74443932
     atom  113 type  2   force =     0.05051640    0.06214932   -0.08244884
     atom  114 type  2   force =    -0.01348857    0.06767850    0.09826173
     atom  115 type  1   force =    -0.03157900   -0.01910012    0.00189046
     atom  116 type  1   force =     0.03157900    0.01910012    0.00189046
     atom  117 type  1   force =    -0.00394097    0.00016778   -0.00240733
     atom  118 type  1   force =     0.03157900   -0.01910012    0.00189046
     atom  119 type  1   force =    -0.02100310    0.00175206   -0.00185396
     atom  120 type  1   force =     0.01761933   -0.05908137    0.01841263
     atom  121 type  1   force =     0.00000000   -0.03100494    0.00000000
     atom  122 type  1   force =     0.00000000    0.03100494    0.00000000
     atom  123 type  1   force =     0.00000000    0.00000000    0.01751831
     atom  124 type  1   force =     0.02100310    0.00175206   -0.00185396
     atom  125 type  1   force =    -0.01761933   -0.05908137    0.01841263
     atom  126 type  1   force =     0.01471862    0.03347506   -0.00207922
     atom  127 type  1   force =    -0.01471862   -0.03347506   -0.00207922
     atom  128 type  1   force =     0.00000000    0.00000000    0.01751831
     atom  129 type  2   force =    -1.11656656   -1.03195621    0.83682209
     atom  130 type  2   force =     1.11656656    1.03195621    0.83682209
     atom  131 type  2   force =     0.07784115   -0.03548286   -0.05847014
     atom  132 type  2   force =    -0.07784115    0.03548286   -0.05847014
     atom  133 type  2   force =     0.04764090   -0.08671884   -0.09341719
     atom  134 type  2   force =    -0.91229754   -1.25766561   -0.07465396
     atom  135 type  2   force =    -0.04764090    0.08671884   -0.09341719
     atom  136 type  2   force =     0.91229754    1.25766561   -0.07465396
     atom  137 type  2   force =    -0.99315468   -1.05888901    0.74443932
     atom  138 type  2   force =     0.03636467    0.06171120    0.07147754
     atom  139 type  2   force =    -0.01348857   -0.06767850    0.09826173
     atom  140 type  2   force =     0.05051640   -0.06214932   -0.08244884
     atom  141 type  2   force =     0.04450751    0.07165101   -0.01486957
     atom  142 type  2   force =    -0.04450751   -0.07165101   -0.01486957
     atom  143 type  2   force =    -0.08371686    0.04258735    0.06172031
     atom  144 type  2   force =     0.08371686   -0.04258735    0.06172031
     atom  145 type  2   force =     0.91229754   -1.25766561   -0.07465396
     atom  146 type  2   force =    -0.04764090   -0.08671884   -0.09341719
     atom  147 type  2   force =    -0.91229754    1.25766561   -0.07465396
     atom  148 type  2   force =     0.04764090    0.08671884   -0.09341719
     atom  149 type  2   force =     0.01348857   -0.06767850    0.09826173
     atom  150 type  2   force =    -0.05051640   -0.06214932   -0.08244884
     atom  151 type  2   force =     0.99315468   -1.05888901    0.74443932
     atom  152 type  2   force =    -0.03636467    0.06171120    0.07147754
     atom  153 type  3   force =     0.06256169   -0.07393772    0.03185570
     atom  154 type  3   force =    -0.06256169    0.07393772    0.03185570
     atom  155 type  3   force =     0.05340655   -0.04874903    0.07674992
     atom  156 type  3   force =    -0.04218041   -0.04125288    0.08790214
     atom  157 type  3   force =     0.04218041    0.04125288    0.08790214
     atom  158 type  3   force =    -0.06256169   -0.07393772    0.03185570
     atom  159 type  3   force =     0.06256169    0.07393772    0.03185570
     atom  160 type  3   force =    -0.05340655   -0.04874903    0.07674992
     atom  161 type  3   force =    -0.04218041    0.04125288    0.08790214
     atom  162 type  3   force =     0.04218041   -0.04125288    0.08790214
     atom  163 type  3   force =    -0.05340655    0.04874903    0.07674992
     atom  164 type  3   force =     0.05340655    0.04874903    0.07674992
     atom  165 type  3   force =    -0.05340655   -0.04874903   -0.07674992
     atom  166 type  3   force =     0.04218041   -0.04125288   -0.08790214
     atom  167 type  3   force =    -0.04218041    0.04125288   -0.08790214
     atom  168 type  3   force =     0.05340655   -0.04874903   -0.07674992
     atom  169 type  3   force =     0.04218041    0.04125288   -0.08790214
     atom  170 type  3   force =    -0.04218041   -0.04125288   -0.08790214
     atom  171 type  3   force =     0.06256169    0.07393772   -0.03185570
     atom  172 type  3   force =    -0.06256169   -0.07393772   -0.03185570
     atom  173 type  3   force =     0.05340655    0.04874903   -0.07674992
     atom  174 type  3   force =    -0.06256169    0.07393772   -0.03185570
     atom  175 type  3   force =     0.06256169   -0.07393772   -0.03185570
     atom  176 type  3   force =    -0.05340655    0.04874903   -0.07674992
     The ionic contribution  to forces
     atom    1 type  1   force =     3.16086312    1.20312997 -258.19685806
     atom    2 type  1   force =    -3.16086305   -1.20313014 -258.19685811
     atom    3 type  1   force =     0.13801682    0.00202086  -86.04394299
     atom    4 type  1   force =    -3.16086304    1.20313002 -258.19685803
     atom    5 type  1   force =     3.98526117   -0.10301254  -86.12732103
     atom    6 type  1   force =    -4.07302416    3.17548958 -257.54997821
     atom    7 type  1   force =    -0.19588161    3.81784855 -172.29685298
     atom    8 type  1   force =     0.19588160   -3.81784847 -172.29685296
     atom    9 type  1   force =    -0.00000012   -0.00000008 -179.24936634
     atom   10 type  1   force =    -3.98526115   -0.10301246  -86.12732099
     atom   11 type  1   force =     4.07302420    3.17548962 -257.54997824
     atom   12 type  1   force =     0.00000003   -0.00000012 -179.24936632
     atom   13 type  2   force =     2.90354734    2.28153407  -99.07543236
     atom   14 type  2   force =    -2.90354735   -2.28153405  -99.07543237
     atom   15 type  2   force =    -2.55402022    1.72384592  -60.48394009
     atom   16 type  2   force =     2.55402015   -1.72384593  -60.48394003
     atom   17 type  2   force =     2.17186217   -2.19430708 -133.68988189
     atom   18 type  2   force =    -0.07631490   -2.81326277 -105.34659148
     atom   19 type  2   force =    -2.17186213    2.19430720 -133.68988184
     atom   20 type  2   force =     0.07631485    2.81326284 -105.34659149
     atom   21 type  2   force =     1.80768908   -0.01211424  -93.95085742
     atom   22 type  2   force =    -1.70998795   -0.10879717  -64.57745700
     atom   23 type  2   force =     2.34537500   -1.86598764 -137.55996826
     atom   24 type  2   force =    -1.71359820    0.05636917  -14.96538183
     atom   25 type  2   force =    -3.75599786   -3.33267462 -137.09030481
     atom   26 type  2   force =     3.75599786    3.33267467 -137.09030478
     atom   27 type  2   force =     2.58057419   -1.71752244  -18.77978272
     atom   28 type  2   force =    -2.58057429    1.71752245  -18.77978265
     atom   29 type  2   force =     0.07631485   -2.81326280 -105.34659151
     atom   30 type  2   force =    -2.17186215   -2.19430707 -133.68988186
     atom   31 type  2   force =    -0.07631488    2.81326282 -105.34659148
     atom   32 type  2   force =     2.17186214    2.19430710 -133.68988186
     atom   33 type  2   force =    -2.34537503   -1.86598758 -137.55996828
     atom   34 type  2   force =     1.71359825    0.05636917  -14.96538179
     atom   35 type  2   force =    -1.80768907   -0.01211437  -93.95085744
     atom   36 type  2   force =     1.70998796   -0.10879717  -64.57745700
     atom   37 type  1   force =     0.13801679   -0.00202091  -86.04394292
     atom   38 type  1   force =    -0.13801675    0.00202082  -86.04394310
     atom   39 type  1   force =     3.16086309   -1.20313022 -258.19685808
     atom   40 type  1   force =    -0.13801675   -0.00202087  -86.04394310
     atom   41 type  1   force =     4.07302439   -3.17548945 -257.54997822
     atom   42 type  1   force =    -3.98526119    0.10301258  -86.12732105
     atom   43 type  1   force =     0.00000000   -0.00000005   -7.68867743
     atom   44 type  1   force =     0.00000006   -0.00000015 -165.41494339
     atom   45 type  1   force =    -4.07302422   -3.17548945 -257.54997829
     atom   46 type  1   force =     3.98526117    0.10301259  -86.12732105
     atom   47 type  1   force =    -0.19588165   -3.81784850 -172.29685303
     atom   48 type  1   force =     0.19588165    3.81784879 -172.29685294
     atom   49 type  1   force =    -0.00000000   -0.00000005 -165.41494343
     atom   50 type  1   force =     0.00000011   -0.00000012   -7.68867746
     atom   51 type  2   force =     2.58057421    1.71752242  -18.77978267
     atom   52 type  2   force =    -2.58057429   -1.71752244  -18.77978271
     atom   53 type  2   force =    -3.75599789    3.33267454 -137.09030476
     atom   54 type  2   force =     3.75599785   -3.33267464 -137.09030479
     atom   55 type  2   force =    -0.00163718    2.57979352  -53.50895228
     atom   56 type  2   force =    -0.07175909   -2.57933044  -26.23565654
     atom   57 type  2   force =     0.00163708   -2.57979351  -53.50895235
     atom   58 type  2   force =     0.07175915    2.57933046  -26.23565656
     atom   59 type  2   force =     1.71359824   -0.05636929  -14.96538187
     atom   60 type  2   force =    -2.34537497    1.86598765 -137.55996838
     atom   61 type  2   force =     1.70998796    0.10879717  -64.57745708
     atom   62 type  2   force =    -1.80768911    0.01211431  -93.95085735
     atom   63 type  2   force =    -2.55402024   -1.72384593  -60.48394001
     atom   64 type  2   force =     2.55402017    1.72384591  -60.48394007
     atom   65 type  2   force =     2.90354741   -2.28153408  -99.07543238
     atom   66 type  2   force =    -2.90354733    2.28153398  -99.07543239
     atom   67 type  2   force =     0.07175912   -2.57933044  -26.23565652
     atom   68 type  2   force =     0.00163712    2.57979352  -53.50895230
     atom   69 type  2   force =    -0.07175911    2.57933049  -26.23565659
     atom   70 type  2   force =    -0.00163717   -2.57979347  -53.50895235
     atom   71 type  2   force =    -1.70998790    0.10879717  -64.57745701
     atom   72 type  2   force =     1.80768906    0.01211427  -93.95085744
     atom   73 type  2   force =    -1.71359825   -0.05636916  -14.96538185
     atom   74 type  2   force =     2.34537496    1.86598764 -137.55996837
     atom   75 type  1   force =    -0.13801652    0.00202081   86.04394307
     atom   76 type  1   force =     0.13801660   -0.00202087   86.04394304
     atom   77 type  1   force =    -3.16086314    1.20313000  258.19685818
     atom   78 type  1   force =     0.13801659    0.00202081   86.04394305
     atom   79 type  1   force =     4.07302408    3.17548962  257.54997826
     atom   80 type  1   force =    -3.98526119   -0.10301230   86.12732093
     atom   81 type  1   force =     0.19588169    3.81784861  172.29685298
     atom   82 type  1   force =    -0.19588162   -3.81784848  172.29685298
     atom   83 type  1   force =    -0.00000003   -0.00000008  165.41494341
     atom   84 type  1   force =     0.00000001   -0.00000011    7.68867734
     atom   85 type  1   force =    -4.07302422    3.17548963  257.54997833
     atom   86 type  1   force =     3.98526120   -0.10301230   86.12732095
     atom   87 type  1   force =     0.00000009   -3.85665989    0.00000000
     atom   88 type  1   force =    -0.00000004    3.85665998   -0.00000007
     atom   89 type  1   force =    -0.00000010   -0.00000006    7.68867736
     atom   90 type  1   force =     0.00000003   -0.00000011  165.41494346
     atom   91 type  2   force =     2.55402020    1.72384590   60.48394005
     atom   92 type  2   force =    -2.55402021   -1.72384591   60.48394004
     atom   93 type  2   force =    -2.90354735    2.28153407   99.07543241
     atom   94 type  2   force =     2.90354737   -2.28153408   99.07543239
     atom   95 type  2   force =    -0.07175910    2.57933043   26.23565647
     atom   96 type  2   force =    -0.00163718   -2.57979352   53.50895227
     atom   97 type  2   force =     0.07175906   -2.57933040   26.23565644
     atom   98 type  2   force =     0.00163710    2.57979358   53.50895218
     atom   99 type  2   force =     1.70998796   -0.10879714   64.57745702
     atom  100 type  2   force =    -1.80768910   -0.01211423   93.95085746
     atom  101 type  2   force =     1.71359820    0.05636923   14.96538175
     atom  102 type  2   force =    -2.34537504   -1.86598769  137.55996827
     atom  103 type  2   force =    -2.58057431   -1.71752252   18.77978265
     atom  104 type  2   force =     2.58057429    1.71752252   18.77978265
     atom  105 type  2   force =     3.75599783   -3.33267464  137.09030484
     atom  106 type  2   force =    -3.75599787    3.33267461  137.09030476
     atom  107 type  2   force =     0.00163709   -2.57979352   53.50895224
     atom  108 type  2   force =     0.07175909    2.57933044   26.23565649
     atom  109 type  2   force =    -0.00163721    2.57979353   53.50895223
     atom  110 type  2   force =    -0.07175906   -2.57933041   26.23565643
     atom  111 type  2   force =    -1.71359824    0.05636921   14.96538170
     atom  112 type  2   force =     2.34537505   -1.86598757  137.55996830
     atom  113 type  2   force =    -1.70998795   -0.10879713   64.57745700
     atom  114 type  2   force =     1.80768906   -0.01211436   93.95085747
     atom  115 type  1   force =    -3.16086311   -1.20313014  258.19685821
     atom  116 type  1   force =     3.16086307    1.20312990  258.19685806
     atom  117 type  1   force =    -0.13801649   -0.00202085   86.04394300
     atom  118 type  1   force =     3.16086309   -1.20313014  258.19685813
     atom  119 type  1   force =     3.98526124    0.10301242   86.12732102
     atom  120 type  1   force =    -4.07302419   -3.17548947  257.54997829
     atom  121 type  1   force =     0.00000009    3.85666017    0.00000000
     atom  122 type  1   force =    -0.00000004   -3.85665994   -0.00000007
     atom  123 type  1   force =     0.00000013   -0.00000014  179.24936642
     atom  124 type  1   force =    -3.98526120    0.10301234   86.12732095
     atom  125 type  1   force =     4.07302435   -3.17548949  257.54997834
     atom  126 type  1   force =     0.19588171   -3.81784856  172.29685308
     atom  127 type  1   force =    -0.19588167    3.81784880  172.29685301
     atom  128 type  1   force =    -0.00000002   -0.00000006  179.24936640
     atom  129 type  2   force =     3.75599789    3.33267460  137.09030482
     atom  130 type  2   force =    -3.75599788   -3.33267462  137.09030479
     atom  131 type  2   force =    -2.58057433    1.71752251   18.77978261
     atom  132 type  2   force =     2.58057429   -1.71752251   18.77978272
     atom  133 type  2   force =    -0.07631487    2.81326285  105.34659155
     atom  134 type  2   force =     2.17186214    2.19430713  133.68988187
     atom  135 type  2   force =     0.07631488   -2.81326283  105.34659156
     atom  136 type  2   force =    -2.17186219   -2.19430709  133.68988185
     atom  137 type  2   force =     2.34537499    1.86598765  137.55996839
     atom  138 type  2   force =    -1.71359822   -0.05636933   14.96538179
     atom  139 type  2   force =     1.80768911    0.01211426   93.95085742
     atom  140 type  2   force =    -1.70998794    0.10879713   64.57745708
     atom  141 type  2   force =    -2.90354738   -2.28153405   99.07543244
     atom  142 type  2   force =     2.90354732    2.28153396   99.07543243
     atom  143 type  2   force =     2.55402021   -1.72384591   60.48393998
     atom  144 type  2   force =    -2.55402024    1.72384589   60.48394009
     atom  145 type  2   force =    -2.17186214    2.19430717  133.68988186
     atom  146 type  2   force =     0.07631488    2.81326282  105.34659152
     atom  147 type  2   force =     2.17186213   -2.19430706  133.68988194
     atom  148 type  2   force =    -0.07631489   -2.81326276  105.34659152
     atom  149 type  2   force =    -1.80768906    0.01211430   93.95085744
     atom  150 type  2   force =     1.70998791    0.10879714   64.57745703
     atom  151 type  2   force =    -2.34537499    1.86598767  137.55996839
     atom  152 type  2   force =     1.71359825   -0.05636922   14.96538177
     atom  153 type  3   force =    -1.47257684    2.17516405  -23.60700975
     atom  154 type  3   force =     1.47257686   -2.17516408  -23.60700977
     atom  155 type  3   force =    -1.75989495    1.58149814  -25.69261498
     atom  156 type  3   force =     1.15030154    1.04659949  -26.13679957
     atom  157 type  3   force =    -1.15030157   -1.04659945  -26.13679957
     atom  158 type  3   force =     1.47257681    2.17516407  -23.60700975
     atom  159 type  3   force =    -1.47257684   -2.17516404  -23.60700975
     atom  160 type  3   force =     1.75989493    1.58149815  -25.69261494
     atom  161 type  3   force =     1.15030154   -1.04659950  -26.13679957
     atom  162 type  3   force =    -1.15030158    1.04659946  -26.13679957
     atom  163 type  3   force =     1.75989491   -1.58149818  -25.69261495
     atom  164 type  3   force =    -1.75989491   -1.58149815  -25.69261490
     atom  165 type  3   force =     1.75989499    1.58149817   25.69261500
     atom  166 type  3   force =    -1.15030156    1.04659947   26.13679954
     atom  167 type  3   force =     1.15030156   -1.04659947   26.13679961
     atom  168 type  3   force =    -1.75989496    1.58149818   25.69261496
     atom  169 type  3   force =    -1.15030156   -1.04659948   26.13679954
     atom  170 type  3   force =     1.15030156    1.04659947   26.13679961
     atom  171 type  3   force =    -1.47257684   -2.17516404   23.60700975
     atom  172 type  3   force =     1.47257686    2.17516410   23.60700977
     atom  173 type  3   force =    -1.75989494   -1.58149819   25.69261493
     atom  174 type  3   force =     1.47257686   -2.17516409   23.60700978
     atom  175 type  3   force =    -1.47257679    2.17516402   23.60700973
     atom  176 type  3   force =     1.75989494   -1.58149821   25.69261497
     The local contribution  to forces
     atom    1 type  1   force =    -3.19082833   -1.22140739  258.19914807
     atom    2 type  1   force =     3.19082849    1.22140701  258.19914809
     atom    3 type  1   force =    -0.14163488   -0.00131313   86.04168772
     atom    4 type  1   force =     3.19082842   -1.22140747  258.19914800
     atom    5 type  1   force =    -3.96535227    0.10467613   86.12571624
     atom    6 type  1   force =     4.05682972   -3.23176343  257.56767265
     atom    7 type  1   force =     0.20978411   -3.78659421  172.29537581
     atom    8 type  1   force =    -0.20978393    3.78659520  172.29537588
     atom    9 type  1   force =     0.00000008   -0.00000024  179.26503310
     atom   10 type  1   force =     3.96535248    0.10467613   86.12571624
     atom   11 type  1   force =    -4.05682962   -3.23176345  257.56767267
     atom   12 type  1   force =     0.00000007   -0.00000016  179.26503306
     atom   13 type  2   force =    -2.85898629   -2.20993476   99.06064469
     atom   14 type  2   force =     2.85898633    2.20993526   99.06064471
     atom   15 type  2   force =     2.47025194   -1.68155206   60.54508371
     atom   16 type  2   force =    -2.47025263    1.68155258   60.54508369
     atom   17 type  2   force =    -1.26593618    0.94635653  133.61621753
     atom   18 type  2   force =     0.02953822    2.72716729  105.25336126
     atom   19 type  2   force =     1.26593621   -0.94635604  133.61621753
     atom   20 type  2   force =    -0.02953816   -2.72716674  105.25336123
     atom   21 type  2   force =    -1.79428720   -0.05511878   94.04888518
     atom   22 type  2   force =     1.65996710    0.04749203   64.49562124
     atom   23 type  2   force =    -1.35938429    0.81541592  138.29913805
     atom   24 type  2   force =     1.67755400    0.00488198   15.03625055
     atom   25 type  2   force =     2.64858806    2.30882753  137.92122451
     atom   26 type  2   force =    -2.64858870   -2.30882703  137.92122454
     atom   27 type  2   force =    -2.50316021    1.68220059   18.72230268
     atom   28 type  2   force =     2.50315953   -1.68220007   18.72230265
     atom   29 type  2   force =    -0.02953820    2.72716723  105.25336125
     atom   30 type  2   force =     1.26593624    0.94635656  133.61621752
     atom   31 type  2   force =     0.02953824   -2.72716673  105.25336127
     atom   32 type  2   force =    -1.26593614   -0.94635601  133.61621750
     atom   33 type  2   force =     1.35938428    0.81541667  138.29913803
     atom   34 type  2   force =    -1.67755398    0.00488200   15.03625055
     atom   35 type  2   force =     1.79428717   -0.05511944   94.04888521
     atom   36 type  2   force =    -1.65996708    0.04749202   64.49562125
     atom   37 type  1   force =    -0.14163492    0.00131408   86.04168784
     atom   38 type  1   force =     0.14163515   -0.00131312   86.04168779
     atom   39 type  1   force =    -3.19082823    1.22140701  258.19914800
     atom   40 type  1   force =     0.14163500    0.00131401   86.04168776
     atom   41 type  1   force =    -4.05682821    3.23176433  257.56767264
     atom   42 type  1   force =     3.96535243   -0.10467523   86.12571628
     atom   43 type  1   force =     0.00000008   -0.00000024    7.71284008
     atom   44 type  1   force =     0.00000007   -0.00000016  165.40585182
     atom   45 type  1   force =     4.05682979    3.23176437  257.56767265
     atom   46 type  1   force =    -3.96535231   -0.10467522   86.12571628
     atom   47 type  1   force =     0.20978412    3.78659517  172.29537581
     atom   48 type  1   force =    -0.20978396   -3.78659282  172.29537588
     atom   49 type  1   force =     0.00000008   -0.00000024  165.40585187
     atom   50 type  1   force =     0.00000007   -0.00000016    7.71284003
     atom   51 type  2   force =    -2.50316023   -1.68220014   18.72230270
     atom   52 type  2   force =     2.50315953    1.68220065   18.72230268
     atom   53 type  2   force =     2.64858807   -2.30882779  137.92122449
     atom   54 type  2   force =    -2.64858874    2.30882761  137.92122451
     atom   55 type  2   force =    -0.05555558   -2.50030290   53.55534440
     atom   56 type  2   force =     0.00759371    2.50841860   26.19600789
     atom   57 type  2   force =     0.05555500    2.50030341   53.55534440
     atom   58 type  2   force =    -0.00759364   -2.50841806   26.19600786
     atom   59 type  2   force =    -1.67755399   -0.00488212   15.03625055
     atom   60 type  2   force =     1.35938427   -0.81541618  138.29913803
     atom   61 type  2   force =    -1.65996709   -0.04749156   64.49562123
     atom   62 type  2   force =     1.79428719    0.05511927   94.04888520
     atom   63 type  2   force =     2.47025192    1.68155251   60.54508373
     atom   64 type  2   force =    -2.47025261   -1.68155200   60.54508372
     atom   65 type  2   force =    -2.85898628    2.20993521   99.06064468
     atom   66 type  2   force =     2.85898632   -2.20993534   99.06064469
     atom   67 type  2   force =    -0.00759369    2.50841856   26.19600788
     atom   68 type  2   force =     0.05555499   -2.50030287   53.55534439
     atom   69 type  2   force =     0.00759372   -2.50841806   26.19600790
     atom   70 type  2   force =    -0.05555554    2.50030340   53.55534438
     atom   71 type  2   force =     1.65996707   -0.04749154   64.49562123
     atom   72 type  2   force =    -1.79428717    0.05511930   94.04888520
     atom   73 type  2   force =     1.67755399   -0.00488153   15.03625054
     atom   74 type  2   force =    -1.35938426   -0.81541612  138.29913806
     atom   75 type  1   force =     0.14163495   -0.00131306  -86.04168997
     atom   76 type  1   force =    -0.14163472    0.00131402  -86.04169003
     atom   77 type  1   force =     3.19082848   -1.22140755 -258.19914809
     atom   78 type  1   force =    -0.14163487   -0.00131313  -86.04169005
     atom   79 type  1   force =    -4.05682956   -3.23176347 -257.56767269
     atom   80 type  1   force =     3.96535244    0.10467611  -86.12571779
     atom   81 type  1   force =    -0.20978393   -3.78659421 -172.29537594
     atom   82 type  1   force =     0.20978410    3.78659519 -172.29537587
     atom   83 type  1   force =     0.00000008   -0.00000024 -165.40585183
     atom   84 type  1   force =     0.00000007   -0.00000016   -7.71284008
     atom   85 type  1   force =     4.05682979   -3.23176350 -257.56767270
     atom   86 type  1   force =    -3.96535232    0.10467610  -86.12571779
     atom   87 type  1   force =     0.00000011    3.82849779   -0.00000080
     atom   88 type  1   force =     0.00000006   -3.82849679   -0.00000072
     atom   89 type  1   force =     0.00000008   -0.00000024   -7.71284004
     atom   90 type  1   force =     0.00000007   -0.00000016 -165.40585188
     atom   91 type  2   force =    -2.47025260   -1.68155198  -60.54508440
     atom   92 type  2   force =     2.47025191    1.68155249  -60.54508442
     atom   93 type  2   force =     2.85898634   -2.20993481  -99.06064467
     atom   94 type  2   force =    -2.85898629    2.20993535  -99.06064468
     atom   95 type  2   force =     0.00759368   -2.50841810  -26.19600780
     atom   96 type  2   force =    -0.05555554    2.50030339  -53.55534432
     atom   97 type  2   force =    -0.00759364    2.50841860  -26.19600778
     atom   98 type  2   force =     0.05555499   -2.50030287  -53.55534432
     atom   99 type  2   force =    -1.65996711    0.04749204  -64.49562118
     atom  100 type  2   force =     1.79428718   -0.05511877  -94.04888511
     atom  101 type  2   force =    -1.67755398    0.00488197  -15.03625048
     atom  102 type  2   force =     1.35938424    0.81541594 -138.29913866
     atom  103 type  2   force =     2.50315957    1.68220070  -18.72230448
     atom  104 type  2   force =    -2.50316027   -1.68220018  -18.72230450
     atom  105 type  2   force =    -2.64858870    2.30882752 -137.92122452
     atom  106 type  2   force =     2.64858802   -2.30882694 -137.92122451
     atom  107 type  2   force =     0.05555496    2.50030336  -53.55534430
     atom  108 type  2   force =    -0.00759365   -2.50841806  -26.19600780
     atom  109 type  2   force =    -0.05555553   -2.50030285  -53.55534430
     atom  110 type  2   force =     0.00759372    2.50841860  -26.19600782
     atom  111 type  2   force =     1.67755396    0.00488200  -15.03625048
     atom  112 type  2   force =    -1.35938427    0.81541663 -138.29913868
     atom  113 type  2   force =     1.65996709    0.04749201  -64.49562117
     atom  114 type  2   force =    -1.79428714   -0.05511942  -94.04888513
     atom  115 type  1   force =     3.19082838    1.22140717 -258.19914802
     atom  116 type  1   force =    -3.19082823   -1.22140755 -258.19914801
     atom  117 type  1   force =     0.14163499    0.00131401  -86.04169009
     atom  118 type  1   force =    -3.19082830    1.22140709 -258.19914809
     atom  119 type  1   force =    -3.96535227   -0.10467520  -86.12571783
     atom  120 type  1   force =     4.05682973    3.23176439 -257.56767267
     atom  121 type  1   force =     0.00000011   -3.82849559   -0.00000080
     atom  122 type  1   force =     0.00000006    3.82849781   -0.00000072
     atom  123 type  1   force =     0.00000007   -0.00000016 -179.26503311
     atom  124 type  1   force =     3.96535248   -0.10467520  -86.12571783
     atom  125 type  1   force =    -4.05682827    3.23176441 -257.56767270
     atom  126 type  1   force =    -0.20978395    3.78659517 -172.29537594
     atom  127 type  1   force =     0.20978413   -3.78659282 -172.29537587
     atom  128 type  1   force =     0.00000008   -0.00000024 -179.26503307
     atom  129 type  2   force =    -2.64858871   -2.30882778 -137.92122450
     atom  130 type  2   force =     2.64858805    2.30882752 -137.92122448
     atom  131 type  2   force =     2.50315959   -1.68220024  -18.72230450
     atom  132 type  2   force =    -2.50316028    1.68220077  -18.72230452
     atom  133 type  2   force =     0.02953819   -2.72716678 -105.25336117
     atom  134 type  2   force =    -1.26593613   -0.94635608 -133.61621745
     atom  135 type  2   force =    -0.02953815    2.72716728 -105.25336116
     atom  136 type  2   force =     1.26593622    0.94635663 -133.61621747
     atom  137 type  2   force =    -1.35938426   -0.81541613 -138.29913868
     atom  138 type  2   force =     1.67755398   -0.00488212  -15.03625049
     atom  139 type  2   force =    -1.79428716    0.05511924  -94.04888512
     atom  140 type  2   force =     1.65996710   -0.04749156  -64.49562116
     atom  141 type  2   force =     2.85898634    2.20993526  -99.06064465
     atom  142 type  2   force =    -2.85898629   -2.20993542  -99.06064466
     atom  143 type  2   force =    -2.47025258    1.68155242  -60.54508442
     atom  144 type  2   force =     2.47025189   -1.68155190  -60.54508445
     atom  145 type  2   force =     1.26593618   -0.94635611 -133.61621743
     atom  146 type  2   force =    -0.02953817   -2.72716673 -105.25336117
     atom  147 type  2   force =    -1.26593616    0.94635660 -133.61621743
     atom  148 type  2   force =     0.02953823    2.72716727 -105.25336119
     atom  149 type  2   force =     1.79428715    0.05511928  -94.04888513
     atom  150 type  2   force =    -1.65996708   -0.04749154  -64.49562116
     atom  151 type  2   force =     1.35938421   -0.81541614 -138.29913867
     atom  152 type  2   force =    -1.67755397   -0.00488152  -15.03625046
     atom  153 type  3   force =     1.40993948   -2.10117647   23.57521224
     atom  154 type  3   force =    -1.40993944    2.10117653   23.57521225
     atom  155 type  3   force =     1.70641272   -1.53293429   25.61548650
     atom  156 type  3   force =    -1.10817227   -1.00527386   26.04854147
     atom  157 type  3   force =     1.10817228    1.00527384   26.04854147
     atom  158 type  3   force =    -1.40993943   -2.10117653   23.57521224
     atom  159 type  3   force =     1.40993946    2.10117649   23.57521222
     atom  160 type  3   force =    -1.70641271   -1.53293427   25.61548650
     atom  161 type  3   force =    -1.10817227    1.00527385   26.04854147
     atom  162 type  3   force =     1.10817229   -1.00527381   26.04854149
     atom  163 type  3   force =    -1.70641264    1.53293437   25.61548648
     atom  164 type  3   force =     1.70641269    1.53293435   25.61548645
     atom  165 type  3   force =    -1.70641272   -1.53293429  -25.61548650
     atom  166 type  3   force =     1.10817227   -1.00527387  -26.04854146
     atom  167 type  3   force =    -1.10817227    1.00527385  -26.04854147
     atom  168 type  3   force =     1.70641271   -1.53293429  -25.61548649
     atom  169 type  3   force =     1.10817228    1.00527385  -26.04854147
     atom  170 type  3   force =    -1.10817228   -1.00527382  -26.04854149
     atom  171 type  3   force =     1.40993946    2.10117647  -23.57521224
     atom  172 type  3   force =    -1.40993947   -2.10117650  -23.57521227
     atom  173 type  3   force =     1.70641269    1.53293437  -25.61548645
     atom  174 type  3   force =    -1.40993945    2.10117652  -23.57521225
     atom  175 type  3   force =     1.40993945   -2.10117647  -23.57521223
     atom  176 type  3   force =    -1.70641264    1.53293438  -25.61548648
     The core correction contribution to forces
     atom    1 type  1   force =    -0.00163513   -0.00104294   -0.00045935
     atom    2 type  1   force =     0.00163514    0.00104290   -0.00045935
     atom    3 type  1   force =    -0.00023735   -0.00003203   -0.00013970
     atom    4 type  1   force =     0.00163514   -0.00104295   -0.00045936
     atom    5 type  1   force =     0.00133122    0.00010600   -0.00010421
     atom    6 type  1   force =    -0.00132965   -0.00294473    0.00059634
     atom    7 type  1   force =     0.00078193    0.00211742   -0.00016073
     atom    8 type  1   force =    -0.00078192   -0.00211733   -0.00016073
     atom    9 type  1   force =     0.00000000   -0.00000002    0.00116817
     atom   10 type  1   force =    -0.00133121    0.00010600   -0.00010421
     atom   11 type  1   force =     0.00132966   -0.00294473    0.00059634
     atom   12 type  1   force =     0.00000000   -0.00000002    0.00116817
     atom   13 type  2   force =     0.00011190    0.00040352   -0.00006999
     atom   14 type  2   force =    -0.00011190   -0.00040352   -0.00006999
     atom   15 type  2   force =    -0.00046980    0.00014488    0.00050216
     atom   16 type  2   force =     0.00046980   -0.00014488    0.00050216
     atom   17 type  2   force =     0.00703937   -0.00999906   -0.00095455
     atom   18 type  2   force =    -0.00040323   -0.00052161   -0.00060688
     atom   19 type  2   force =    -0.00703937    0.00999906   -0.00095455
     atom   20 type  2   force =     0.00040324    0.00052160   -0.00060688
     atom   21 type  2   force =    -0.00010914   -0.00054772    0.00058130
     atom   22 type  2   force =    -0.00022194   -0.00051092   -0.00046879
     atom   23 type  2   force =     0.00794651   -0.00866872    0.00598050
     atom   24 type  2   force =    -0.00009564    0.00050807    0.00036613
     atom   25 type  2   force =    -0.00913887   -0.00837579    0.00660794
     atom   26 type  2   force =     0.00913887    0.00837579    0.00660794
     atom   27 type  2   force =     0.00042247   -0.00008482   -0.00048570
     atom   28 type  2   force =    -0.00042247    0.00008482   -0.00048570
     atom   29 type  2   force =     0.00040323   -0.00052161   -0.00060688
     atom   30 type  2   force =    -0.00703937   -0.00999906   -0.00095455
     atom   31 type  2   force =    -0.00040323    0.00052160   -0.00060688
     atom   32 type  2   force =     0.00703937    0.00999906   -0.00095455
     atom   33 type  2   force =    -0.00794651   -0.00866872    0.00598050
     atom   34 type  2   force =     0.00009564    0.00050807    0.00036613
     atom   35 type  2   force =     0.00010914   -0.00054772    0.00058130
     atom   36 type  2   force =     0.00022194   -0.00051092   -0.00046879
     atom   37 type  1   force =    -0.00023736    0.00003212   -0.00013969
     atom   38 type  1   force =     0.00023737   -0.00003203   -0.00013969
     atom   39 type  1   force =    -0.00163513    0.00104290   -0.00045936
     atom   40 type  1   force =     0.00023737    0.00003211   -0.00013970
     atom   41 type  1   force =     0.00132979    0.00294482    0.00059634
     atom   42 type  1   force =    -0.00133121   -0.00010592   -0.00010421
     atom   43 type  1   force =     0.00000000   -0.00000002    0.00171662
     atom   44 type  1   force =     0.00000000   -0.00000002   -0.00071086
     atom   45 type  1   force =    -0.00132965    0.00294482    0.00059634
     atom   46 type  1   force =     0.00133122   -0.00010592   -0.00010421
     atom   47 type  1   force =     0.00078194   -0.00211733   -0.00016074
     atom   48 type  1   force =    -0.00078192    0.00211755   -0.00016073
     atom   49 type  1   force =     0.00000000   -0.00000002   -0.00071085
     atom   50 type  1   force =     0.00000000   -0.00000002    0.00171662
     atom   51 type  2   force =     0.00042247    0.00008482   -0.00048570
     atom   52 type  2   force =    -0.00042247   -0.00008482   -0.00048570
     atom   53 type  2   force =    -0.00913887    0.00837579    0.00660794
     atom   54 type  2   force =     0.00913887   -0.00837579    0.00660794
     atom   55 type  2   force =    -0.00047585    0.00042768    0.00018439
     atom   56 type  2   force =    -0.00054598   -0.00035873   -0.00012113
     atom   57 type  2   force =     0.00047585   -0.00042768    0.00018439
     atom   58 type  2   force =     0.00054598    0.00035873   -0.00012113
     atom   59 type  2   force =     0.00009564   -0.00050807    0.00036613
     atom   60 type  2   force =    -0.00794651    0.00866872    0.00598050
     atom   61 type  2   force =     0.00022194    0.00051092   -0.00046879
     atom   62 type  2   force =     0.00010914    0.00054772    0.00058130
     atom   63 type  2   force =    -0.00046980   -0.00014488    0.00050216
     atom   64 type  2   force =     0.00046980    0.00014488    0.00050216
     atom   65 type  2   force =     0.00011190   -0.00040352   -0.00006999
     atom   66 type  2   force =    -0.00011190    0.00040352   -0.00006999
     atom   67 type  2   force =     0.00054598   -0.00035873   -0.00012113
     atom   68 type  2   force =     0.00047585    0.00042768    0.00018439
     atom   69 type  2   force =    -0.00054598    0.00035873   -0.00012113
     atom   70 type  2   force =    -0.00047585   -0.00042768    0.00018439
     atom   71 type  2   force =    -0.00022194    0.00051092   -0.00046879
     atom   72 type  2   force =    -0.00010914    0.00054772    0.00058130
     atom   73 type  2   force =    -0.00009564   -0.00050807    0.00036613
     atom   74 type  2   force =     0.00794651    0.00866872    0.00598050
     atom   75 type  1   force =     0.00023737   -0.00003202    0.00013953
     atom   76 type  1   force =    -0.00023736    0.00003211    0.00013953
     atom   77 type  1   force =     0.00163514   -0.00104295    0.00045935
     atom   78 type  1   force =    -0.00023736   -0.00003203    0.00013952
     atom   79 type  1   force =     0.00132966   -0.00294474   -0.00059634
     atom   80 type  1   force =    -0.00133121    0.00010601    0.00010410
     atom   81 type  1   force =    -0.00078192    0.00211742    0.00016073
     atom   82 type  1   force =     0.00078194   -0.00211733    0.00016073
     atom   83 type  1   force =     0.00000000   -0.00000002    0.00071086
     atom   84 type  1   force =     0.00000000   -0.00000002   -0.00171661
     atom   85 type  1   force =    -0.00132965   -0.00294474   -0.00059634
     atom   86 type  1   force =     0.00133122    0.00010601    0.00010410
     atom   87 type  1   force =     0.00000000   -0.00198128   -0.00000006
     atom   88 type  1   force =     0.00000001    0.00198137   -0.00000005
     atom   89 type  1   force =     0.00000000   -0.00000002   -0.00171661
     atom   90 type  1   force =     0.00000000   -0.00000002    0.00071086
     atom   91 type  2   force =     0.00046980    0.00014488   -0.00050216
     atom   92 type  2   force =    -0.00046980   -0.00014488   -0.00050216
     atom   93 type  2   force =    -0.00011190    0.00040352    0.00006999
     atom   94 type  2   force =     0.00011190   -0.00040352    0.00006999
     atom   95 type  2   force =    -0.00054598    0.00035873    0.00012113
     atom   96 type  2   force =    -0.00047585   -0.00042768   -0.00018439
     atom   97 type  2   force =     0.00054598   -0.00035873    0.00012113
     atom   98 type  2   force =     0.00047585    0.00042768   -0.00018439
     atom   99 type  2   force =     0.00022194   -0.00051092    0.00046879
     atom  100 type  2   force =     0.00010914   -0.00054772   -0.00058130
     atom  101 type  2   force =     0.00009564    0.00050807   -0.00036613
     atom  102 type  2   force =    -0.00794651   -0.00866872   -0.00598050
     atom  103 type  2   force =    -0.00042247   -0.00008482    0.00048570
     atom  104 type  2   force =     0.00042248    0.00008482    0.00048570
     atom  105 type  2   force =     0.00913887   -0.00837579   -0.00660794
     atom  106 type  2   force =    -0.00913887    0.00837579   -0.00660794
     atom  107 type  2   force =     0.00047585   -0.00042768   -0.00018439
     atom  108 type  2   force =     0.00054598    0.00035873    0.00012113
     atom  109 type  2   force =    -0.00047585    0.00042768   -0.00018439
     atom  110 type  2   force =    -0.00054598   -0.00035873    0.00012113
     atom  111 type  2   force =    -0.00009564    0.00050807   -0.00036613
     atom  112 type  2   force =     0.00794651   -0.00866872   -0.00598050
     atom  113 type  2   force =    -0.00022194   -0.00051092    0.00046879
     atom  114 type  2   force =    -0.00010914   -0.00054772   -0.00058130
     atom  115 type  1   force =     0.00163514    0.00104291    0.00045936
     atom  116 type  1   force =    -0.00163513   -0.00104295    0.00045936
     atom  117 type  1   force =     0.00023737    0.00003211    0.00013952
     atom  118 type  1   force =    -0.00163513    0.00104291    0.00045935
     atom  119 type  1   force =     0.00133122   -0.00010592    0.00010410
     atom  120 type  1   force =    -0.00132965    0.00294482   -0.00059634
     atom  121 type  1   force =     0.00000000    0.00198148   -0.00000006
     atom  122 type  1   force =     0.00000001   -0.00198127   -0.00000005
     atom  123 type  1   force =     0.00000000   -0.00000002   -0.00116816
     atom  124 type  1   force =    -0.00133121   -0.00010592    0.00010410
     atom  125 type  1   force =     0.00132978    0.00294482   -0.00059634
     atom  126 type  1   force =    -0.00078193   -0.00211733    0.00016073
     atom  127 type  1   force =     0.00078194    0.00211755    0.00016073
     atom  128 type  1   force =     0.00000000   -0.00000002   -0.00116816
     atom  129 type  2   force =     0.00913887    0.00837579   -0.00660794
     atom  130 type  2   force =    -0.00913887   -0.00837579   -0.00660794
     atom  131 type  2   force =    -0.00042247    0.00008482    0.00048570
     atom  132 type  2   force =     0.00042248   -0.00008482    0.00048570
     atom  133 type  2   force =    -0.00040324    0.00052160    0.00060688
     atom  134 type  2   force =     0.00703937    0.00999906    0.00095455
     atom  135 type  2   force =     0.00040324   -0.00052160    0.00060688
     atom  136 type  2   force =    -0.00703937   -0.00999906    0.00095455
     atom  137 type  2   force =     0.00794651    0.00866872   -0.00598050
     atom  138 type  2   force =    -0.00009564   -0.00050807   -0.00036613
     atom  139 type  2   force =    -0.00010914    0.00054772   -0.00058130
     atom  140 type  2   force =    -0.00022194    0.00051092    0.00046879
     atom  141 type  2   force =    -0.00011190   -0.00040352    0.00006999
     atom  142 type  2   force =     0.00011190    0.00040352    0.00006999
     atom  143 type  2   force =     0.00046980   -0.00014488   -0.00050216
     atom  144 type  2   force =    -0.00046980    0.00014488   -0.00050216
     atom  145 type  2   force =    -0.00703937    0.00999906    0.00095455
     atom  146 type  2   force =     0.00040324    0.00052160    0.00060688
     atom  147 type  2   force =     0.00703937   -0.00999906    0.00095455
     atom  148 type  2   force =    -0.00040323   -0.00052160    0.00060688
     atom  149 type  2   force =     0.00010914    0.00054772   -0.00058130
     atom  150 type  2   force =     0.00022194    0.00051092    0.00046879
     atom  151 type  2   force =    -0.00794651    0.00866872   -0.00598050
     atom  152 type  2   force =     0.00009564   -0.00050807   -0.00036613
     atom  153 type  3   force =     0.00000000    0.00000000    0.00000000
     atom  154 type  3   force =     0.00000000    0.00000000    0.00000000
     atom  155 type  3   force =     0.00000000    0.00000000    0.00000000
     atom  156 type  3   force =     0.00000000    0.00000000    0.00000000
     atom  157 type  3   force =     0.00000000    0.00000000    0.00000000
     atom  158 type  3   force =     0.00000000    0.00000000    0.00000000
     atom  159 type  3   force =     0.00000000    0.00000000    0.00000000
     atom  160 type  3   force =     0.00000000    0.00000000    0.00000000
     atom  161 type  3   force =     0.00000000    0.00000000    0.00000000
     atom  162 type  3   force =     0.00000000    0.00000000    0.00000000
     atom  163 type  3   force =     0.00000000    0.00000000    0.00000000
     atom  164 type  3   force =     0.00000000    0.00000000    0.00000000
     atom  165 type  3   force =     0.00000000    0.00000000    0.00000000
     atom  166 type  3   force =     0.00000000    0.00000000    0.00000000
     atom  167 type  3   force =     0.00000000    0.00000000    0.00000000
     atom  168 type  3   force =     0.00000000    0.00000000    0.00000000
     atom  169 type  3   force =     0.00000000    0.00000000    0.00000000
     atom  170 type  3   force =     0.00000000    0.00000000    0.00000000
     atom  171 type  3   force =     0.00000000    0.00000000    0.00000000
     atom  172 type  3   force =     0.00000000    0.00000000    0.00000000
     atom  173 type  3   force =     0.00000000    0.00000000    0.00000000
     atom  174 type  3   force =     0.00000000    0.00000000    0.00000000
     atom  175 type  3   force =     0.00000000    0.00000000    0.00000000
     atom  176 type  3   force =     0.00000000    0.00000000    0.00000000
     The Hubbard contrib.    to forces
     atom    1 type  1   force =     0.00000000    0.00000000    0.00000000
     atom    2 type  1   force =     0.00000000    0.00000000    0.00000000
     atom    3 type  1   force =     0.00000000    0.00000000    0.00000000
     atom    4 type  1   force =     0.00000000    0.00000000    0.00000000
     atom    5 type  1   force =     0.00000000    0.00000000    0.00000000
     atom    6 type  1   force =     0.00000000    0.00000000    0.00000000
     atom    7 type  1   force =     0.00000000    0.00000000    0.00000000
     atom    8 type  1   force =     0.00000000    0.00000000    0.00000000
     atom    9 type  1   force =     0.00000000    0.00000000    0.00000000
     atom   10 type  1   force =     0.00000000    0.00000000    0.00000000
     atom   11 type  1   force =     0.00000000    0.00000000    0.00000000
     atom   12 type  1   force =     0.00000000    0.00000000    0.00000000
     atom   13 type  2   force =     0.00000000    0.00000000    0.00000000
     atom   14 type  2   force =     0.00000000    0.00000000    0.00000000
     atom   15 type  2   force =     0.00000000    0.00000000    0.00000000
     atom   16 type  2   force =     0.00000000    0.00000000    0.00000000
     atom   17 type  2   force =     0.00000000    0.00000000    0.00000000
     atom   18 type  2   force =     0.00000000    0.00000000    0.00000000
     atom   19 type  2   force =     0.00000000    0.00000000    0.00000000
     atom   20 type  2   force =     0.00000000    0.00000000    0.00000000
     atom   21 type  2   force =     0.00000000    0.00000000    0.00000000
     atom   22 type  2   force =     0.00000000    0.00000000    0.00000000
     atom   23 type  2   force =     0.00000000    0.00000000    0.00000000
     atom   24 type  2   force =     0.00000000    0.00000000    0.00000000
     atom   25 type  2   force =     0.00000000    0.00000000    0.00000000
     atom   26 type  2   force =     0.00000000    0.00000000    0.00000000
     atom   27 type  2   force =     0.00000000    0.00000000    0.00000000
     atom   28 type  2   force =     0.00000000    0.00000000    0.00000000
     atom   29 type  2   force =     0.00000000    0.00000000    0.00000000
     atom   30 type  2   force =     0.00000000    0.00000000    0.00000000
     atom   31 type  2   force =     0.00000000    0.00000000    0.00000000
     atom   32 type  2   force =     0.00000000    0.00000000    0.00000000
     atom   33 type  2   force =     0.00000000    0.00000000    0.00000000
     atom   34 type  2   force =     0.00000000    0.00000000    0.00000000
     atom   35 type  2   force =     0.00000000    0.00000000    0.00000000
     atom   36 type  2   force =     0.00000000    0.00000000    0.00000000
     atom   37 type  1   force =     0.00000000    0.00000000    0.00000000
     atom   38 type  1   force =     0.00000000    0.00000000    0.00000000
     atom   39 type  1   force =     0.00000000    0.00000000    0.00000000
     atom   40 type  1   force =     0.00000000    0.00000000    0.00000000
     atom   41 type  1   force =     0.00000000    0.00000000    0.00000000
     atom   42 type  1   force =     0.00000000    0.00000000    0.00000000
     atom   43 type  1   force =     0.00000000    0.00000000    0.00000000
     atom   44 type  1   force =     0.00000000    0.00000000    0.00000000
     atom   45 type  1   force =     0.00000000    0.00000000    0.00000000
     atom   46 type  1   force =     0.00000000    0.00000000    0.00000000
     atom   47 type  1   force =     0.00000000    0.00000000    0.00000000
     atom   48 type  1   force =     0.00000000    0.00000000    0.00000000
     atom   49 type  1   force =     0.00000000    0.00000000    0.00000000
     atom   50 type  1   force =     0.00000000    0.00000000    0.00000000
     atom   51 type  2   force =     0.00000000    0.00000000    0.00000000
     atom   52 type  2   force =     0.00000000    0.00000000    0.00000000
     atom   53 type  2   force =     0.00000000    0.00000000    0.00000000
     atom   54 type  2   force =     0.00000000    0.00000000    0.00000000
     atom   55 type  2   force =     0.00000000    0.00000000    0.00000000
     atom   56 type  2   force =     0.00000000    0.00000000    0.00000000
     atom   57 type  2   force =     0.00000000    0.00000000    0.00000000
     atom   58 type  2   force =     0.00000000    0.00000000    0.00000000
     atom   59 type  2   force =     0.00000000    0.00000000    0.00000000
     atom   60 type  2   force =     0.00000000    0.00000000    0.00000000
     atom   61 type  2   force =     0.00000000    0.00000000    0.00000000
     atom   62 type  2   force =     0.00000000    0.00000000    0.00000000
     atom   63 type  2   force =     0.00000000    0.00000000    0.00000000
     atom   64 type  2   force =     0.00000000    0.00000000    0.00000000
     atom   65 type  2   force =     0.00000000    0.00000000    0.00000000
     atom   66 type  2   force =     0.00000000    0.00000000    0.00000000
     atom   67 type  2   force =     0.00000000    0.00000000    0.00000000
     atom   68 type  2   force =     0.00000000    0.00000000    0.00000000
     atom   69 type  2   force =     0.00000000    0.00000000    0.00000000
     atom   70 type  2   force =     0.00000000    0.00000000    0.00000000
     atom   71 type  2   force =     0.00000000    0.00000000    0.00000000
     atom   72 type  2   force =     0.00000000    0.00000000    0.00000000
     atom   73 type  2   force =     0.00000000    0.00000000    0.00000000
     atom   74 type  2   force =     0.00000000    0.00000000    0.00000000
     atom   75 type  1   force =     0.00000000    0.00000000    0.00000000
     atom   76 type  1   force =     0.00000000    0.00000000    0.00000000
     atom   77 type  1   force =     0.00000000    0.00000000    0.00000000
     atom   78 type  1   force =     0.00000000    0.00000000    0.00000000
     atom   79 type  1   force =     0.00000000    0.00000000    0.00000000
     atom   80 type  1   force =     0.00000000    0.00000000    0.00000000
     atom   81 type  1   force =     0.00000000    0.00000000    0.00000000
     atom   82 type  1   force =     0.00000000    0.00000000    0.00000000
     atom   83 type  1   force =     0.00000000    0.00000000    0.00000000
     atom   84 type  1   force =     0.00000000    0.00000000    0.00000000
     atom   85 type  1   force =     0.00000000    0.00000000    0.00000000
     atom   86 type  1   force =     0.00000000    0.00000000    0.00000000
     atom   87 type  1   force =     0.00000000    0.00000000    0.00000000
     atom   88 type  1   force =     0.00000000    0.00000000    0.00000000
     atom   89 type  1   force =     0.00000000    0.00000000    0.00000000
     atom   90 type  1   force =     0.00000000    0.00000000    0.00000000
     atom   91 type  2   force =     0.00000000    0.00000000    0.00000000
     atom   92 type  2   force =     0.00000000    0.00000000    0.00000000
     atom   93 type  2   force =     0.00000000    0.00000000    0.00000000
     atom   94 type  2   force =     0.00000000    0.00000000    0.00000000
     atom   95 type  2   force =     0.00000000    0.00000000    0.00000000
     atom   96 type  2   force =     0.00000000    0.00000000    0.00000000
     atom   97 type  2   force =     0.00000000    0.00000000    0.00000000
     atom   98 type  2   force =     0.00000000    0.00000000    0.00000000
     atom   99 type  2   force =     0.00000000    0.00000000    0.00000000
     atom  100 type  2   force =     0.00000000    0.00000000    0.00000000
     atom  101 type  2   force =     0.00000000    0.00000000    0.00000000
     atom  102 type  2   force =     0.00000000    0.00000000    0.00000000
     atom  103 type  2   force =     0.00000000    0.00000000    0.00000000
     atom  104 type  2   force =     0.00000000    0.00000000    0.00000000
     atom  105 type  2   force =     0.00000000    0.00000000    0.00000000
     atom  106 type  2   force =     0.00000000    0.00000000    0.00000000
     atom  107 type  2   force =     0.00000000    0.00000000    0.00000000
     atom  108 type  2   force =     0.00000000    0.00000000    0.00000000
     atom  109 type  2   force =     0.00000000    0.00000000    0.00000000
     atom  110 type  2   force =     0.00000000    0.00000000    0.00000000
     atom  111 type  2   force =     0.00000000    0.00000000    0.00000000
     atom  112 type  2   force =     0.00000000    0.00000000    0.00000000
     atom  113 type  2   force =     0.00000000    0.00000000    0.00000000
     atom  114 type  2   force =     0.00000000    0.00000000    0.00000000
     atom  115 type  1   force =     0.00000000    0.00000000    0.00000000
     atom  116 type  1   force =     0.00000000    0.00000000    0.00000000
     atom  117 type  1   force =     0.00000000    0.00000000    0.00000000
     atom  118 type  1   force =     0.00000000    0.00000000    0.00000000
     atom  119 type  1   force =     0.00000000    0.00000000    0.00000000
     atom  120 type  1   force =     0.00000000    0.00000000    0.00000000
     atom  121 type  1   force =     0.00000000    0.00000000    0.00000000
     atom  122 type  1   force =     0.00000000    0.00000000    0.00000000
     atom  123 type  1   force =     0.00000000    0.00000000    0.00000000
     atom  124 type  1   force =     0.00000000    0.00000000    0.00000000
     atom  125 type  1   force =     0.00000000    0.00000000    0.00000000
     atom  126 type  1   force =     0.00000000    0.00000000    0.00000000
     atom  127 type  1   force =     0.00000000    0.00000000    0.00000000
     atom  128 type  1   force =     0.00000000    0.00000000    0.00000000
     atom  129 type  2   force =     0.00000000    0.00000000    0.00000000
     atom  130 type  2   force =     0.00000000    0.00000000    0.00000000
     atom  131 type  2   force =     0.00000000    0.00000000    0.00000000
     atom  132 type  2   force =     0.00000000    0.00000000    0.00000000
     atom  133 type  2   force =     0.00000000    0.00000000    0.00000000
     atom  134 type  2   force =     0.00000000    0.00000000    0.00000000
     atom  135 type  2   force =     0.00000000    0.00000000    0.00000000
     atom  136 type  2   force =     0.00000000    0.00000000    0.00000000
     atom  137 type  2   force =     0.00000000    0.00000000    0.00000000
     atom  138 type  2   force =     0.00000000    0.00000000    0.00000000
     atom  139 type  2   force =     0.00000000    0.00000000    0.00000000
     atom  140 type  2   force =     0.00000000    0.00000000    0.00000000
     atom  141 type  2   force =     0.00000000    0.00000000    0.00000000
     atom  142 type  2   force =     0.00000000    0.00000000    0.00000000
     atom  143 type  2   force =     0.00000000    0.00000000    0.00000000
     atom  144 type  2   force =     0.00000000    0.00000000    0.00000000
     atom  145 type  2   force =     0.00000000    0.00000000    0.00000000
     atom  146 type  2   force =     0.00000000    0.00000000    0.00000000
     atom  147 type  2   force =     0.00000000    0.00000000    0.00000000
     atom  148 type  2   force =     0.00000000    0.00000000    0.00000000
     atom  149 type  2   force =     0.00000000    0.00000000    0.00000000
     atom  150 type  2   force =     0.00000000    0.00000000    0.00000000
     atom  151 type  2   force =     0.00000000    0.00000000    0.00000000
     atom  152 type  2   force =     0.00000000    0.00000000    0.00000000
     atom  153 type  3   force =     0.00000000    0.00000000    0.00000000
     atom  154 type  3   force =     0.00000000    0.00000000    0.00000000
     atom  155 type  3   force =     0.00000000    0.00000000    0.00000000
     atom  156 type  3   force =     0.00000000    0.00000000    0.00000000
     atom  157 type  3   force =     0.00000000    0.00000000    0.00000000
     atom  158 type  3   force =     0.00000000    0.00000000    0.00000000
     atom  159 type  3   force =     0.00000000    0.00000000    0.00000000
     atom  160 type  3   force =     0.00000000    0.00000000    0.00000000
     atom  161 type  3   force =     0.00000000    0.00000000    0.00000000
     atom  162 type  3   force =     0.00000000    0.00000000    0.00000000
     atom  163 type  3   force =     0.00000000    0.00000000    0.00000000
     atom  164 type  3   force =     0.00000000    0.00000000    0.00000000
     atom  165 type  3   force =     0.00000000    0.00000000    0.00000000
     atom  166 type  3   force =     0.00000000    0.00000000    0.00000000
     atom  167 type  3   force =     0.00000000    0.00000000    0.00000000
     atom  168 type  3   force =     0.00000000    0.00000000    0.00000000
     atom  169 type  3   force =     0.00000000    0.00000000    0.00000000
     atom  170 type  3   force =     0.00000000    0.00000000    0.00000000
     atom  171 type  3   force =     0.00000000    0.00000000    0.00000000
     atom  172 type  3   force =     0.00000000    0.00000000    0.00000000
     atom  173 type  3   force =     0.00000000    0.00000000    0.00000000
     atom  174 type  3   force =     0.00000000    0.00000000    0.00000000
     atom  175 type  3   force =     0.00000000    0.00000000    0.00000000
     atom  176 type  3   force =     0.00000000    0.00000000    0.00000000
     The SCF correction term to forces
     atom    1 type  1   force =    -0.00000153   -0.00000286    0.00001611
     atom    2 type  1   force =     0.00000153    0.00000286    0.00001611
     atom    3 type  1   force =    -0.00000133   -0.00000092    0.00000608
     atom    4 type  1   force =     0.00000153   -0.00000286    0.00001611
     atom    5 type  1   force =    -0.00000192    0.00000115    0.00000611
     atom    6 type  1   force =     0.00000237   -0.00000037    0.00001571
     atom    7 type  1   force =     0.00000085   -0.00000226    0.00001034
     atom    8 type  1   force =    -0.00000085    0.00000226    0.00001034
     atom    9 type  1   force =    -0.00000000   -0.00000000    0.00001027
     atom   10 type  1   force =     0.00000192    0.00000115    0.00000611
     atom   11 type  1   force =    -0.00000237   -0.00000037    0.00001571
     atom   12 type  1   force =     0.00000000    0.00000000    0.00001027
     atom   13 type  2   force =    -0.00000096   -0.00000062    0.00000437
     atom   14 type  2   force =     0.00000096    0.00000062    0.00000437
     atom   15 type  2   force =    -0.00000030    0.00000042    0.00000403
     atom   16 type  2   force =     0.00000030   -0.00000042    0.00000403
     atom   17 type  2   force =     0.00000093   -0.00000081    0.00000698
     atom   18 type  2   force =    -0.00000015    0.00000129    0.00000594
     atom   19 type  2   force =    -0.00000093    0.00000081    0.00000698
     atom   20 type  2   force =     0.00000015   -0.00000129    0.00000594
     atom   21 type  2   force =    -0.00000073   -0.00000047    0.00000460
     atom   22 type  2   force =    -0.00000077    0.00000085    0.00000491
     atom   23 type  2   force =     0.00000084   -0.00000041    0.00000786
     atom   24 type  2   force =     0.00000059   -0.00000007    0.00000267
     atom   25 type  2   force =    -0.00000033   -0.00000024    0.00000793
     atom   26 type  2   force =     0.00000033    0.00000024    0.00000793
     atom   27 type  2   force =    -0.00000076    0.00000023    0.00000450
     atom   28 type  2   force =     0.00000076   -0.00000023    0.00000450
     atom   29 type  2   force =     0.00000015    0.00000129    0.00000594
     atom   30 type  2   force =    -0.00000093   -0.00000081    0.00000698
     atom   31 type  2   force =    -0.00000015   -0.00000129    0.00000594
     atom   32 type  2   force =     0.00000093    0.00000081    0.00000698
     atom   33 type  2   force =    -0.00000084   -0.00000041    0.00000786
     atom   34 type  2   force =    -0.00000059   -0.00000007    0.00000267
     atom   35 type  2   force =     0.00000073   -0.00000047    0.00000460
     atom   36 type  2   force =     0.00000076    0.00000085    0.00000491
     atom   37 type  1   force =    -0.00000133    0.00000092    0.00000609
     atom   38 type  1   force =     0.00000133   -0.00000092    0.00000608
     atom   39 type  1   force =    -0.00000153    0.00000286    0.00001611
     atom   40 type  1   force =     0.00000133    0.00000092    0.00000609
     atom   41 type  1   force =    -0.00000237    0.00000037    0.00001571
     atom   42 type  1   force =     0.00000192   -0.00000115    0.00000611
     atom   43 type  1   force =     0.00000000    0.00000000    0.00000021
     atom   44 type  1   force =     0.00000000   -0.00000000    0.00001074
     atom   45 type  1   force =     0.00000237    0.00000037    0.00001571
     atom   46 type  1   force =    -0.00000192   -0.00000115    0.00000611
     atom   47 type  1   force =     0.00000085    0.00000226    0.00001034
     atom   48 type  1   force =    -0.00000085   -0.00000226    0.00001034
     atom   49 type  1   force =    -0.00000000    0.00000000    0.00001074
     atom   50 type  1   force =    -0.00000000   -0.00000000    0.00000021
     atom   51 type  2   force =    -0.00000076   -0.00000023    0.00000450
     atom   52 type  2   force =     0.00000076    0.00000023    0.00000450
     atom   53 type  2   force =    -0.00000033    0.00000024    0.00000793
     atom   54 type  2   force =     0.00000033   -0.00000024    0.00000793
     atom   55 type  2   force =    -0.00000068    0.00000034    0.00000462
     atom   56 type  2   force =     0.00000013    0.00000102    0.00000464
     atom   57 type  2   force =     0.00000068   -0.00000034    0.00000462
     atom   58 type  2   force =    -0.00000013   -0.00000102    0.00000464
     atom   59 type  2   force =    -0.00000059    0.00000007    0.00000267
     atom   60 type  2   force =    -0.00000084    0.00000041    0.00000786
     atom   61 type  2   force =     0.00000076   -0.00000085    0.00000491
     atom   62 type  2   force =     0.00000073    0.00000047    0.00000460
     atom   63 type  2   force =    -0.00000030   -0.00000042    0.00000403
     atom   64 type  2   force =     0.00000030    0.00000042    0.00000403
     atom   65 type  2   force =    -0.00000096    0.00000062    0.00000437
     atom   66 type  2   force =     0.00000096   -0.00000062    0.00000437
     atom   67 type  2   force =    -0.00000013    0.00000102    0.00000464
     atom   68 type  2   force =     0.00000068    0.00000034    0.00000462
     atom   69 type  2   force =     0.00000013   -0.00000102    0.00000464
     atom   70 type  2   force =    -0.00000068   -0.00000034    0.00000462
     atom   71 type  2   force =    -0.00000076   -0.00000085    0.00000491
     atom   72 type  2   force =    -0.00000073    0.00000047    0.00000460
     atom   73 type  2   force =     0.00000059    0.00000007    0.00000267
     atom   74 type  2   force =     0.00000084    0.00000041    0.00000786
     atom   75 type  1   force =     0.00000133   -0.00000092   -0.00000595
     atom   76 type  1   force =    -0.00000133    0.00000092   -0.00000595
     atom   77 type  1   force =     0.00000153   -0.00000286   -0.00001607
     atom   78 type  1   force =    -0.00000133   -0.00000092   -0.00000595
     atom   79 type  1   force =    -0.00000237   -0.00000037   -0.00001567
     atom   80 type  1   force =     0.00000192    0.00000115   -0.00000598
     atom   81 type  1   force =    -0.00000085   -0.00000226   -0.00001024
     atom   82 type  1   force =     0.00000085    0.00000226   -0.00001024
     atom   83 type  1   force =     0.00000000   -0.00000000   -0.00001063
     atom   84 type  1   force =    -0.00000000    0.00000000   -0.00000006
     atom   85 type  1   force =     0.00000237   -0.00000037   -0.00001567
     atom   86 type  1   force =    -0.00000192    0.00000115   -0.00000598
     atom   87 type  1   force =     0.00000000    0.00000253    0.00000007
     atom   88 type  1   force =    -0.00000000   -0.00000253    0.00000007
     atom   89 type  1   force =     0.00000000   -0.00000000   -0.00000006
     atom   90 type  1   force =     0.00000000    0.00000000   -0.00001063
     atom   91 type  2   force =     0.00000030    0.00000042   -0.00000398
     atom   92 type  2   force =    -0.00000030   -0.00000042   -0.00000398
     atom   93 type  2   force =     0.00000096   -0.00000062   -0.00000434
     atom   94 type  2   force =    -0.00000096    0.00000062   -0.00000434
     atom   95 type  2   force =     0.00000013   -0.00000102   -0.00000458
     atom   96 type  2   force =    -0.00000068   -0.00000034   -0.00000456
     atom   97 type  2   force =    -0.00000013    0.00000102   -0.00000458
     atom   98 type  2   force =     0.00000068    0.00000034   -0.00000456
     atom   99 type  2   force =     0.00000076    0.00000085   -0.00000485
     atom  100 type  2   force =     0.00000073   -0.00000047   -0.00000456
     atom  101 type  2   force =    -0.00000059   -0.00000007   -0.00000261
     atom  102 type  2   force =    -0.00000084   -0.00000041   -0.00000787
     atom  103 type  2   force =     0.00000076    0.00000023   -0.00000443
     atom  104 type  2   force =    -0.00000076   -0.00000023   -0.00000443
     atom  105 type  2   force =     0.00000033   -0.00000024   -0.00000793
     atom  106 type  2   force =    -0.00000033    0.00000024   -0.00000793
     atom  107 type  2   force =     0.00000068   -0.00000034   -0.00000456
     atom  108 type  2   force =    -0.00000013   -0.00000102   -0.00000458
     atom  109 type  2   force =    -0.00000068    0.00000034   -0.00000456
     atom  110 type  2   force =     0.00000013    0.00000102   -0.00000458
     atom  111 type  2   force =     0.00000059   -0.00000007   -0.00000261
     atom  112 type  2   force =     0.00000084   -0.00000040   -0.00000787
     atom  113 type  2   force =    -0.00000076    0.00000085   -0.00000485
     atom  114 type  2   force =    -0.00000073   -0.00000047   -0.00000456
     atom  115 type  1   force =     0.00000152    0.00000286   -0.00001607
     atom  116 type  1   force =    -0.00000152   -0.00000286   -0.00001607
     atom  117 type  1   force =     0.00000133    0.00000092   -0.00000595
     atom  118 type  1   force =    -0.00000153    0.00000286   -0.00001607
     atom  119 type  1   force =    -0.00000192   -0.00000115   -0.00000598
     atom  120 type  1   force =     0.00000237    0.00000037   -0.00001567
     atom  121 type  1   force =     0.00000000   -0.00000253    0.00000007
     atom  122 type  1   force =    -0.00000000    0.00000253    0.00000007
     atom  123 type  1   force =    -0.00000000   -0.00000000   -0.00001017
     atom  124 type  1   force =     0.00000192   -0.00000115   -0.00000598
     atom  125 type  1   force =    -0.00000237    0.00000037   -0.00001567
     atom  126 type  1   force =    -0.00000085    0.00000226   -0.00001024
     atom  127 type  1   force =     0.00000085   -0.00000226   -0.00001024
     atom  128 type  1   force =     0.00000000    0.00000000   -0.00001017
     atom  129 type  2   force =     0.00000033    0.00000024   -0.00000793
     atom  130 type  2   force =    -0.00000033   -0.00000024   -0.00000793
     atom  131 type  2   force =     0.00000076   -0.00000023   -0.00000443
     atom  132 type  2   force =    -0.00000076    0.00000023   -0.00000443
     atom  133 type  2   force =    -0.00000015   -0.00000129   -0.00000591
     atom  134 type  2   force =     0.00000093    0.00000081   -0.00000698
     atom  135 type  2   force =     0.00000015    0.00000129   -0.00000591
     atom  136 type  2   force =    -0.00000093   -0.00000081   -0.00000698
     atom  137 type  2   force =     0.00000084    0.00000041   -0.00000787
     atom  138 type  2   force =     0.00000059    0.00000007   -0.00000261
     atom  139 type  2   force =    -0.00000073    0.00000047   -0.00000456
     atom  140 type  2   force =    -0.00000076   -0.00000085   -0.00000485
     atom  141 type  2   force =     0.00000096    0.00000062   -0.00000434
     atom  142 type  2   force =    -0.00000096   -0.00000062   -0.00000434
     atom  143 type  2   force =     0.00000030   -0.00000042   -0.00000398
     atom  144 type  2   force =    -0.00000030    0.00000042   -0.00000398
     atom  145 type  2   force =    -0.00000093    0.00000081   -0.00000698
     atom  146 type  2   force =     0.00000015   -0.00000129   -0.00000591
     atom  147 type  2   force =     0.00000093   -0.00000081   -0.00000698
     atom  148 type  2   force =    -0.00000015    0.00000129   -0.00000591
     atom  149 type  2   force =     0.00000073    0.00000047   -0.00000456
     atom  150 type  2   force =     0.00000076   -0.00000085   -0.00000485
     atom  151 type  2   force =    -0.00000084    0.00000041   -0.00000787
     atom  152 type  2   force =    -0.00000059    0.00000007   -0.00000261
     atom  153 type  3   force =     0.00000011   -0.00000003    0.00000103
     atom  154 type  3   force =    -0.00000011    0.00000003    0.00000103
     atom  155 type  3   force =     0.00000020   -0.00000017    0.00000092
     atom  156 type  3   force =     0.00000011    0.00000014    0.00000040
     atom  157 type  3   force =    -0.00000011   -0.00000014    0.00000040
     atom  158 type  3   force =    -0.00000011   -0.00000003    0.00000103
     atom  159 type  3   force =     0.00000011    0.00000002    0.00000103
     atom  160 type  3   force =    -0.00000020   -0.00000017    0.00000092
     atom  161 type  3   force =     0.00000011   -0.00000014    0.00000040
     atom  162 type  3   force =    -0.00000011    0.00000014    0.00000040
     atom  163 type  3   force =    -0.00000020    0.00000017    0.00000092
     atom  164 type  3   force =     0.00000020    0.00000017    0.00000092
     atom  165 type  3   force =    -0.00000020   -0.00000017   -0.00000092
     atom  166 type  3   force =    -0.00000011    0.00000014   -0.00000040
     atom  167 type  3   force =     0.00000011   -0.00000014   -0.00000040
     atom  168 type  3   force =     0.00000020   -0.00000017   -0.00000092
     atom  169 type  3   force =    -0.00000011   -0.00000014   -0.00000040
     atom  170 type  3   force =     0.00000011    0.00000014   -0.00000040
     atom  171 type  3   force =     0.00000011    0.00000003   -0.00000103
     atom  172 type  3   force =    -0.00000011   -0.00000003   -0.00000103
     atom  173 type  3   force =     0.00000020    0.00000017   -0.00000092
     atom  174 type  3   force =    -0.00000011    0.00000003   -0.00000103
     atom  175 type  3   force =     0.00000011   -0.00000003   -0.00000103
     atom  176 type  3   force =    -0.00000020    0.00000017   -0.00000092

     Total force =     0.007155     Total SCF correction =     0.000098


     Computing stress (Cartesian axis) and pressure


     negative rho (up, down):  2.107E-03 0.000E+00
          total   stress  (Ry/bohr**3)                   (kbar)     P=       -0.45
   0.00000035   0.00000000   0.00000000            0.05        0.00        0.00
   0.00000000   0.00000080   0.00000000            0.00        0.12        0.00
   0.00000000   0.00000000  -0.00001024            0.00        0.00       -1.51

     kinetic stress (kbar)  12735.24      0.00      0.00
                                0.00  12725.47      0.00
                                0.00      0.00  12700.42

     local   stress (kbar)**********     -0.00     -0.00
                               -0.00**********      0.00
                               -0.00      0.001223057.49

     nonloc. stress (kbar)  -1000.34      0.00      0.00
                                0.00   -999.18      0.00
                                0.00      0.00  -1001.01

     hartree stress (kbar) 614541.22     -0.00      0.00
                               -0.00 614725.34      0.00
                                0.00      0.00-606827.71

     exc-cor stress (kbar)   4620.55      0.00      0.00
                                0.00   4620.99     -0.00
                                0.00     -0.00   4620.41

     corecor stress (kbar)  -7701.96     -0.00      0.00
                               -0.00  -7702.03      0.00
                                0.00      0.00  -7701.89

     ewald   stress (kbar) 602835.13      0.00      0.00
                                0.00 603119.90     -0.00
                                0.00     -0.00-624849.21

     hubbard stress (kbar)      0.00      0.00      0.00
                                0.00      0.00      0.00
                                0.00      0.00      0.00

     DFT-D   stress (kbar)      0.00      0.00      0.00
                                0.00      0.00      0.00
                                0.00      0.00      0.00

     XDM     stress (kbar)      0.00      0.00      0.00
                                0.00      0.00      0.00
                                0.00      0.00      0.00

     dft-nl  stress (kbar)      0.00      0.00      0.00
                                0.00      0.00      0.00
                                0.00      0.00      0.00

     TS-vdW  stress (kbar)      0.00      0.00      0.00
                                0.00      0.00      0.00
                                0.00      0.00      0.00

     MDB     stress (kbar)      0.00      0.00      0.00
                                0.00      0.00      0.00
                                0.00      0.00      0.00

     3D-RISM stress (kbar)      0.00      0.00      0.00
                                0.00      0.00      0.00
                                0.00      0.00      0.00


     Writing all to output data dir ./tmp/slab.save/ :
     XML data file, charge density, pseudopotentials, collected wavefunctions

     init_run     :    148.91s CPU    153.27s WALL (       1 calls)
     electrons    :  36824.47s CPU  37817.88s WALL (       1 calls)
     forces       :    117.00s CPU    122.48s WALL (       1 calls)
     stress       :    344.51s CPU    358.97s WALL (       1 calls)

     Called by init_run:
     wfcinit      :    127.49s CPU    131.28s WALL (       1 calls)
     wfcinit:atom :      0.19s CPU      0.31s WALL (       2 calls)
     wfcinit:wfcr :    124.71s CPU    128.14s WALL (       2 calls)
     potinit      :      3.31s CPU      3.45s WALL (       1 calls)
     hinit0       :      1.64s CPU      1.69s WALL (       1 calls)

     Called by electrons:
     c_bands      :  33547.72s CPU  34365.49s WALL (      76 calls)
     sum_band     :   2712.68s CPU   2834.96s WALL (      76 calls)
     v_of_rho     :     62.83s CPU     69.11s WALL (      77 calls)
     v_h          :      4.18s CPU      4.75s WALL (      77 calls)
     v_xc         :     60.36s CPU     66.26s WALL (      79 calls)
     newd         :    193.03s CPU    214.38s WALL (      77 calls)
     PAW_pot      :    135.95s CPU    137.54s WALL (      77 calls)
     mix_rho      :    169.50s CPU    193.00s WALL (      76 calls)

     Called by c_bands:
     init_us_2    :     99.11s CPU    100.98s WALL (     310 calls)
     cegterg      :  32462.54s CPU  33267.84s WALL (     152 calls)

     Called by sum_band:
     sum_band:wei :      0.17s CPU      0.18s WALL (      76 calls)
     sum_band:loo :   2412.74s CPU   2506.78s WALL (      76 calls)
     sum_band:buf :     12.09s CPU     12.37s WALL (     152 calls)
     sum_band:ini :     43.87s CPU     44.72s WALL (     152 calls)
     sum_band:cal :   1600.42s CPU   1622.04s WALL (     152 calls)
     sum_band:bec :      1.37s CPU      1.40s WALL (     152 calls)
     addusdens    :    153.36s CPU    178.38s WALL (      76 calls)
                                        0.00s GPU  (      76 calls)
     addusd:skk   :     17.25s CPU     25.56s WALL (     228 calls)
                                        0.00s GPU  (     228 calls)

     Called by *egterg:
     cdiaghg      :    558.52s CPU    580.30s WALL (     915 calls)
     cegterg:over :   5260.19s CPU   5320.49s WALL (     763 calls)
     cegterg:upda :   2547.10s CPU   2594.48s WALL (     763 calls)
     cegterg:last :   6424.96s CPU   6505.39s WALL (     382 calls)
     cdiaghg:chol :     44.01s CPU     44.47s WALL (     915 calls)
     cdiaghg:inve :     44.69s CPU     45.84s WALL (     915 calls)
     cdiaghg:para :    130.36s CPU    137.70s WALL (    1830 calls)
     h_psi        :  12584.56s CPU  13099.11s WALL (     917 calls)
     s_psi        :   3564.40s CPU   3606.26s WALL (     917 calls)
     g_psi        :     39.56s CPU     40.05s WALL (     763 calls)

     Called by h_psi:
     h_psi:calbec :   4766.69s CPU   4827.22s WALL (     917 calls)
     vloc_psi     :   4139.60s CPU   4539.01s WALL (     917 calls)
                                        0.00s GPU  (     917 calls)
     add_vuspsi   :   3662.84s CPU   3704.87s WALL (     917 calls)

     General routines
     calbec       :   6741.90s CPU   6838.15s WALL (    1103 calls)
     fft          :     52.48s CPU     58.13s WALL (    1024 calls)
     ffts         :     88.77s CPU    109.41s WALL (    9378 calls)
     fftw         :   4483.49s CPU   4947.14s WALL (  696888 calls)
     interpolate  :      5.25s CPU      5.72s WALL (      77 calls)

     Parallel routines

     PAW routines
     PAW_pot      :    135.95s CPU    137.54s WALL (      77 calls)
     PAW_symme    :      0.34s CPU      0.39s WALL (     153 calls)

     PWSCF        :     10h23m CPU     10h41m WALL


   This run was terminated on:  20:16:44   5Oct2026            

=------------------------------------------------------------------------------=
   JOB DONE.
=------------------------------------------------------------------------------=
Note: The following floating-point exceptions are signalling: IEEE_UNDERFLOW_FLAG IEEE_DENORMAL
Note: The following floating-point exceptions are signalling: IEEE_UNDERFLOW_FLAG IEEE_DENORMAL
Note: The following floating-point exceptions are signalling: IEEE_UNDERFLOW_FLAG IEEE_DENORMAL
Note: The following floating-point exceptions are signalling: IEEE_UNDERFLOW_FLAG IEEE_DENORMAL
Note: The following floating-point exceptions are signalling: IEEE_UNDERFLOW_FLAG IEEE_DENORMAL
Note: The following floating-point exceptions are signalling: IEEE_UNDERFLOW_FLAG IEEE_DENORMAL
Note: The following floating-point exceptions are signalling: IEEE_UNDERFLOW_FLAG IEEE_DENORMAL
Note: The following floating-point exceptions are signalling: IEEE_UNDERFLOW_FLAG IEEE_DENORMAL
Note: The following floating-point exceptions are signalling: IEEE_UNDERFLOW_FLAG IEEE_DENORMAL
Note: The following floating-point exceptions are signalling: IEEE_UNDERFLOW_FLAG IEEE_DENORMAL
Note: The following floating-point exceptions are signalling: IEEE_UNDERFLOW_FLAG IEEE_DENORMAL
Note: The following floating-point exceptions are signalling: IEEE_UNDERFLOW_FLAG IEEE_DENORMAL
