WARNING: Skipping mount /tmp [tmp]: /tmp doesn't exist in container

     Program PWSCF v.7.3.1 starts on  4Oct2026 at  3:37:13 

     This program is part of the open-source Quantum ESPRESSO suite
     for quantum simulation of materials; please cite
         "P. Giannozzi et al., J. Phys.:Condens. Matter 21 395502 (2009);
         "P. Giannozzi et al., J. Phys.:Condens. Matter 29 465901 (2017);
         "P. Giannozzi et al., J. Chem. Phys. 152 154105 (2020);
          URL http://www.quantum-espresso.org", 
     in publications or presentations arising from this work. More details at
     http://www.quantum-espresso.org/quote

     Parallel version (MPI & OpenMP), running on       1 processor cores
     Number of MPI processes:                 1
     Threads/MPI process:                     1

     MPI processes distributed on     1 nodes
     151093 MiB available memory on the printing compute node when the environment starts
 
     Reading input from bands.in

     Current dimensions of program PWSCF are:
     Max number of different atomic species (ntypx) = 10
     Max number of k-points (npk) =  40000
     Max angular momentum in pseudopotentials (lmaxx) =  4
     file In.pbe-dn-kjpaw_psl.1.0.0.UPF: wavefunction(s)  5S 5P 4D renormalized
     file O.pbe-n-kjpaw_psl.1.0.0.UPF: wavefunction(s)  2S 2P renormalized
     file H.pbe-kjpaw_psl.1.0.0.UPF: wavefunction(s)  1S renormalized

     Atomic positions and unit cell read from directory:
     ./tmp/slab.save/
 
     Message from routine setup:
     using ibrav=0 with symmetry is DISCOURAGED, use correct ibrav instead
 
     Subspace diagonalization in iterative solution of the eigenvalue problem:
     a serial algorithm will be used

 
     G-vector sticks info
     --------------------
     sticks:   dense  smooth     PW     G-vecs:    dense   smooth      PW
     Sum       17157    8585   2185              7413139  2620949  337067
 
     Using Slab Decomposition
 


     bravais-lattice index     =            0
     lattice parameter (alat)  =      19.4980  a.u.
     unit-cell volume          =   32429.1815 (a.u.)^3
     number of atoms/cell      =          176
     number of atomic types    =            3
     number of electrons       =      1328.00
     number of Kohn-Sham states=          680
     kinetic-energy cutoff     =      71.0000  Ry
     charge density cutoff     =     568.0000  Ry
     Exchange-correlation= SLA  PW   PBX  PBC
                           (   1   4   3   4   0   0   0)

     GPU acceleration is ACTIVE.  1 visible GPUs per MPI rank
     GPU-aware MPI enabled


     GPU used by master process:

        Device Number: 0
        Device name: NVIDIA H100 NVL
        Compute capability : 90
        Ratio of single to double precision performance  : 2
        Memory Clock Rate (KHz): 2619000
        Memory Bus Width (bits): 6016
        Peak Memory Bandwidth (GB/s): ******

     celldm(1)=  19.498036  celldm(2)=   0.000000  celldm(3)=   0.000000
     celldm(4)=   0.000000  celldm(5)=   0.000000  celldm(6)=   0.000000

     crystal axes: (cart. coord. in units of alat)
               a(1) = (   1.000000   0.000000   0.000000 )  
               a(2) = (   0.000000   0.999087   0.000000 )  
               a(3) = (   0.000000   0.000000   4.378852 )  

     reciprocal axes: (cart. coord. in units 2 pi/alat)
               b(1) = (  1.000000  0.000000  0.000000 )  
               b(2) = (  0.000000  1.000914  0.000000 )  
               b(3) = (  0.000000  0.000000  0.228370 )  


     PseudoPot. # 1 for In read from file:
     ./In.pbe-dn-kjpaw_psl.1.0.0.UPF
     MD5 check sum: 235b15e6a7fdfd96486e0ecdcb5b12c6
     Pseudo is Projector augmented-wave + core cor, Zval = 13.0
     Generated using &quot;atomic&quot; code by A. Dal Corso  v.6.3
     Shape of augmentation charge: PSQ
     Using radial grid of 1241 points,  6 beta functions with: 
                l(1) =   0
                l(2) =   0
                l(3) =   1
                l(4) =   1
                l(5) =   2
                l(6) =   2
     Q(r) pseudized with 0 coefficients 


     PseudoPot. # 2 for O  read from file:
     ./O.pbe-n-kjpaw_psl.1.0.0.UPF
     MD5 check sum: e99d9cef9b487d1ca56f5b95ecd0fd7a
     Pseudo is Projector augmented-wave + core cor, Zval =  6.0
     Generated using &quot;atomic&quot; code by A. Dal Corso  v.6.3
     Shape of augmentation charge: PSQ
     Using radial grid of 1095 points,  4 beta functions with: 
                l(1) =   0
                l(2) =   0
                l(3) =   1
                l(4) =   1
     Q(r) pseudized with 0 coefficients 


     PseudoPot. # 3 for H  read from file:
     ./H.pbe-kjpaw_psl.1.0.0.UPF
     MD5 check sum: d81a744832360e4a8af0b0b5b123bc2a
     Pseudo is Projector augmented-wave, Zval =  1.0
     Generated using &quot;atomic&quot; code by A. Dal Corso  v.6.3MaX
     Shape of augmentation charge: PSQ
     Using radial grid of  929 points,  2 beta functions with: 
                l(1) =   0
                l(2) =   0
     Q(r) pseudized with 0 coefficients 


     atomic species   valence    mass     pseudopotential
     In               13.00   114.81800     In( 1.00)
     O                 6.00    15.99900     O ( 1.00)
     H                 1.00     1.00800     H ( 1.00)

      8 Sym. Ops., with inversion, found ( 6 have fractional translation)


                                    s                        frac. trans.

      isym =  1     identity                                     

 cryst.   s( 1) = (     1          0          0      )
                  (     0          1          0      )
                  (     0          0          1      )

 cart.    s( 1) = (  1.0000000  0.0000000  0.0000000 )
                  (  0.0000000  1.0000000  0.0000000 )
                  (  0.0000000  0.0000000  1.0000000 )


      isym =  2     180 deg rotation - cart. axis [0,0,1]        

 cryst.   s( 2) = (    -1          0          0      )    f =(  0.0000000 )
                  (     0         -1          0      )       (  0.5000000 )
                  (     0          0          1      )       (  0.0000000 )

 cart.    s( 2) = ( -1.0000000  0.0000000  0.0000000 )    f =(  0.0000000 )
                  (  0.0000000 -1.0000000  0.0000000 )       (  0.4995433 )
                  (  0.0000000  0.0000000  1.0000000 )       (  0.0000000 )


      isym =  3     180 deg rotation - cart. axis [0,1,0]        

 cryst.   s( 3) = (    -1          0          0      )    f =(  0.5000000 )
                  (     0          1          0      )       (  0.0000000 )
                  (     0          0         -1      )       (  0.0000000 )

 cart.    s( 3) = ( -1.0000000  0.0000000  0.0000000 )    f =(  0.5000000 )
                  (  0.0000000  1.0000000  0.0000000 )       (  0.0000000 )
                  (  0.0000000  0.0000000 -1.0000000 )       (  0.0000000 )


      isym =  4     180 deg rotation - cart. axis [1,0,0]        

 cryst.   s( 4) = (     1          0          0      )    f =( -0.5000000 )
                  (     0         -1          0      )       (  0.5000000 )
                  (     0          0         -1      )       (  0.0000000 )

 cart.    s( 4) = (  1.0000000  0.0000000  0.0000000 )    f =( -0.5000000 )
                  (  0.0000000 -1.0000000  0.0000000 )       (  0.4995433 )
                  (  0.0000000  0.0000000 -1.0000000 )       (  0.0000000 )


      isym =  5     inversion                                    

 cryst.   s( 5) = (    -1          0          0      )
                  (     0         -1          0      )
                  (     0          0         -1      )

 cart.    s( 5) = ( -1.0000000  0.0000000  0.0000000 )
                  (  0.0000000 -1.0000000  0.0000000 )
                  (  0.0000000  0.0000000 -1.0000000 )


      isym =  6     inv. 180 deg rotation - cart. axis [0,0,1]   

 cryst.   s( 6) = (     1          0          0      )    f =(  0.0000000 )
                  (     0          1          0      )       (  0.5000000 )
                  (     0          0         -1      )       (  0.0000000 )

 cart.    s( 6) = (  1.0000000  0.0000000  0.0000000 )    f =(  0.0000000 )
                  (  0.0000000  1.0000000  0.0000000 )       (  0.4995433 )
                  (  0.0000000  0.0000000 -1.0000000 )       (  0.0000000 )


      isym =  7     inv. 180 deg rotation - cart. axis [0,1,0]   

 cryst.   s( 7) = (     1          0          0      )    f =( -0.5000000 )
                  (     0         -1          0      )       (  0.0000000 )
                  (     0          0          1      )       (  0.0000000 )

 cart.    s( 7) = (  1.0000000  0.0000000  0.0000000 )    f =( -0.5000000 )
                  (  0.0000000 -1.0000000  0.0000000 )       (  0.0000000 )
                  (  0.0000000  0.0000000  1.0000000 )       (  0.0000000 )


      isym =  8     inv. 180 deg rotation - cart. axis [1,0,0]   

 cryst.   s( 8) = (    -1          0          0      )    f =(  0.5000000 )
                  (     0          1          0      )       (  0.5000000 )
                  (     0          0          1      )       (  0.0000000 )

 cart.    s( 8) = ( -1.0000000  0.0000000  0.0000000 )    f =(  0.5000000 )
                  (  0.0000000  1.0000000  0.0000000 )       (  0.4995433 )
                  (  0.0000000  0.0000000  1.0000000 )       (  0.0000000 )


   Cartesian axes

     site n.     atom                  positions (alat units)
         1        In     tau(   1) = (   0.2475443   0.2523154   1.4389793  )
         2        In     tau(   2) = (   0.7524557   0.2472279   1.4389793  )
         3        In     tau(   3) = (   0.2502748   0.2498150   1.9394110  )
         4        In     tau(   4) = (   0.2524557   0.7518587   1.4389793  )
         5        In     tau(   5) = (   0.4664954   0.4994667   1.9392039  )
         6        In     tau(   6) = (   0.0359158   0.5019578   1.4401297  )
         7        In     tau(   7) = (   0.7512482   0.4650386   1.6891257  )
         8        In     tau(   8) = (   0.2487518   0.0345047   1.6891257  )
         9        In     tau(   9) = (   0.5000000   0.7493149   1.6564928  )
        10        In     tau(  10) = (   0.0335046  -0.0000766   1.9392039  )
        11        In     tau(  11) = (   0.4640842   0.0024146   1.4401297  )
        12        In     tau(  12) = (   0.0000000   0.2497716   1.6564928  )
        13        O      tau(  13) = (   0.3890697   0.1563764   1.5691308  )
        14        O      tau(  14) = (   0.6109303   0.3431669   1.5691308  )
        15        O      tau(  15) = (   0.1103649   0.1547804   1.8080425  )
        16        O      tau(  16) = (   0.8896351   0.3447628   1.8080425  )
        17        O      tau(  17) = (   0.3810388   0.3935568   1.3438360  )
        18        O      tau(  18) = (   0.3837086   0.6098315   1.5364709  )
        19        O      tau(  19) = (   0.6189612   0.1059864   1.3438360  )
        20        O      tau(  20) = (   0.6162914   0.8887983   1.5364709  )
        21        O      tau(  21) = (   0.1548955   0.3830323   1.5805003  )
        22        O      tau(  22) = (   0.3460904   0.3819793   1.7995751  )
        23        O      tau(  23) = (   0.1837587   0.6023891   1.3068008  )
        24        O      tau(  24) = (   0.3455844   0.6172116   2.0791801  )
        25        O      tau(  25) = (   0.0990545   0.3423072   1.3161241  )
        26        O      tau(  26) = (   0.9009455   0.1572361   1.3161241  )
        27        O      tau(  27) = (   0.3898594   0.3452283   2.0715524  )
        28        O      tau(  28) = (   0.6101406   0.1543150   2.0715524  )
        29        O      tau(  29) = (   0.1162914   0.1102882   1.5364709  )
        30        O      tau(  30) = (   0.1189612   0.8931001   1.3438360  )
        31        O      tau(  31) = (   0.8837086   0.3892551   1.5364709  )
        32        O      tau(  32) = (   0.8810388   0.6055297   1.3438360  )
        33        O      tau(  33) = (   0.3162413   0.1028458   1.3068008  )
        34        O      tau(  34) = (   0.1544156   0.1176683   2.0791801  )
        35        O      tau(  35) = (   0.3451045   0.8825755   1.5805003  )
        36        O      tau(  36) = (   0.1539096   0.8815226   1.7995751  )
        37        In     tau(  37) = (   0.7502748   0.7492716   1.9394110  )
        38        In     tau(  38) = (   0.2497252   0.7493582   1.9394110  )
        39        In     tau(  39) = (   0.7475443   0.7467711   1.4389793  )
        40        In     tau(  40) = (   0.7497252   0.2497283   1.9394110  )
        41        In     tau(  41) = (   0.9640842  -0.0024146   1.4401297  )
        42        In     tau(  42) = (   0.5335046   0.0000766   1.9392039  )
        43        In     tau(  43) = (   0.0000000   0.2497716   2.1557213  )
        44        In     tau(  44) = (   0.0000000   0.7493149   1.7222710  )
        45        In     tau(  45) = (   0.5359158   0.4971287   1.4401297  )
        46        In     tau(  46) = (   0.9664954   0.4996198   1.9392039  )
        47        In     tau(  47) = (   0.2512482   0.5340479   1.6891257  )
        48        In     tau(  48) = (   0.7487518   0.9645819   1.6891257  )
        49        In     tau(  49) = (   0.5000000   0.2497716   1.7222710  )
        50        In     tau(  50) = (   0.5000000   0.7493149   2.1557213  )
        51        O      tau(  51) = (   0.8898594   0.6538583   2.0715524  )
        52        O      tau(  52) = (   0.1101406   0.8447716   2.0715524  )
        53        O      tau(  53) = (   0.5990545   0.6567794   1.3161241  )
        54        O      tau(  54) = (   0.4009455   0.8418504   1.3161241  )
        55        O      tau(  55) = (   0.8822894   0.8888322   1.8422341  )
        56        O      tau(  56) = (   0.8821677   0.1098284   2.0351332  )
        57        O      tau(  57) = (   0.1177106   0.6097976   1.8422341  )
        58        O      tau(  58) = (   0.1178323   0.3897149   2.0351332  )
        59        O      tau(  59) = (   0.6544156   0.8814183   2.0791801  )
        60        O      tau(  60) = (   0.8162413   0.8962407   1.3068008  )
        61        O      tau(  61) = (   0.6539096   0.1175639   1.7995751  )
        62        O      tau(  62) = (   0.8451045   0.1165110   1.5805003  )
        63        O      tau(  63) = (   0.6103649   0.8443061   1.8080425  )
        64        O      tau(  64) = (   0.3896351   0.6543237   1.8080425  )
        65        O      tau(  65) = (   0.8890697   0.8427101   1.5691308  )
        66        O      tau(  66) = (   0.1109303   0.6559197   1.5691308  )
        67        O      tau(  67) = (   0.6178323   0.6093716   2.0351332  )
        68        O      tau(  68) = (   0.6177106   0.3892890   1.8422341  )
        69        O      tau(  69) = (   0.3821677   0.8892582   2.0351332  )
        70        O      tau(  70) = (   0.3822894   0.1102543   1.8422341  )
        71        O      tau(  71) = (   0.8460904   0.6171072   1.7995751  )
        72        O      tau(  72) = (   0.6548955   0.6160543   1.5805003  )
        73        O      tau(  73) = (   0.8455844   0.3818750   2.0791801  )
        74        O      tau(  74) = (   0.6837587   0.3966974   1.3068008  )
        75        In     tau(  75) = (   0.2497252   0.2498150   2.4394411  )
        76        In     tau(  76) = (   0.7502748   0.2497283   2.4394411  )
        77        In     tau(  77) = (   0.2524557   0.2523154   2.9398727  )
        78        In     tau(  78) = (   0.2502748   0.7493582   2.4394411  )
        79        In     tau(  79) = (   0.4640842   0.5019578   2.9387223  )
        80        In     tau(  80) = (   0.0335046   0.4994667   2.4396481  )
        81        In     tau(  81) = (   0.7487518   0.4650386   2.6897264  )
        82        In     tau(  82) = (   0.2512482   0.0345047   2.6897264  )
        83        In     tau(  83) = (   0.5000000   0.7493149   2.6565810  )
        84        In     tau(  84) = (   0.5000000   0.2497716   2.2231307  )
        85        In     tau(  85) = (   0.0359158   0.0024146   2.9387223  )
        86        In     tau(  86) = (   0.4664954  -0.0000766   2.4396481  )
        87        In     tau(  87) = (   0.7500000   0.0334062   2.1894260  )
        88        In     tau(  88) = (   0.2500000   0.4661371   2.1894260  )
        89        In     tau(  89) = (   0.0000000   0.7493149   2.2231307  )
        90        In     tau(  90) = (   0.0000000   0.2497716   2.6565810  )
        91        O      tau(  91) = (   0.3896351   0.1547804   2.5708096  )
        92        O      tau(  92) = (   0.6103649   0.3447628   2.5708096  )
        93        O      tau(  93) = (   0.1109303   0.1563764   2.8097212  )
        94        O      tau(  94) = (   0.8890697   0.3431669   2.8097212  )
        95        O      tau(  95) = (   0.3821677   0.3897149   2.3437188  )
        96        O      tau(  96) = (   0.3822894   0.6097976   2.5366180  )
        97        O      tau(  97) = (   0.6178323   0.1098284   2.3437188  )
        98        O      tau(  98) = (   0.6177106   0.8888322   2.5366180  )
        99        O      tau(  99) = (   0.1539096   0.3819793   2.5792770  )
       100        O      tau( 100) = (   0.3451045   0.3830323   2.7983517  )
       101        O      tau( 101) = (   0.1544156   0.6172116   2.2996719  )
       102        O      tau( 102) = (   0.3162413   0.6023891   3.0720512  )
       103        O      tau( 103) = (   0.1101406   0.3452283   2.3072996  )
       104        O      tau( 104) = (   0.8898594   0.1543150   2.3072996  )
       105        O      tau( 105) = (   0.4009455   0.3423072   3.0627280  )
       106        O      tau( 106) = (   0.5990545   0.1572361   3.0627280  )
       107        O      tau( 107) = (   0.1177106   0.1102543   2.5366180  )
       108        O      tau( 108) = (   0.1178323   0.8892582   2.3437188  )
       109        O      tau( 109) = (   0.8822894   0.3892890   2.5366180  )
       110        O      tau( 110) = (   0.8821677   0.6093716   2.3437188  )
       111        O      tau( 111) = (   0.3455844   0.1176683   2.2996719  )
       112        O      tau( 112) = (   0.1837587   0.1028458   3.0720512  )
       113        O      tau( 113) = (   0.3460904   0.8815226   2.5792770  )
       114        O      tau( 114) = (   0.1548955   0.8825755   2.7983517  )
       115        In     tau( 115) = (   0.7524557   0.7467711   2.9398727  )
       116        In     tau( 116) = (   0.2475443   0.7518587   2.9398727  )
       117        In     tau( 117) = (   0.7497252   0.7492716   2.4394411  )
       118        In     tau( 118) = (   0.7475443   0.2472279   2.9398727  )
       119        In     tau( 119) = (   0.9664954   0.0000766   2.4396481  )
       120        In     tau( 120) = (   0.5359158  -0.0024146   2.9387223  )
       121        In     tau( 121) = (   0.2500000   0.9656804   2.1894260  )
       122        In     tau( 122) = (   0.7500000   0.5329494   2.1894260  )
       123        In     tau( 123) = (   0.0000000   0.7493149   2.7223593  )
       124        In     tau( 124) = (   0.5335046   0.4996198   2.4396481  )
       125        In     tau( 125) = (   0.9640842   0.4971287   2.9387223  )
       126        In     tau( 126) = (   0.2487518   0.5340479   2.6897264  )
       127        In     tau( 127) = (   0.7512482   0.9645819   2.6897264  )
       128        In     tau( 128) = (   0.5000000   0.2497716   2.7223593  )
       129        O      tau( 129) = (   0.9009455   0.6567794   3.0627280  )
       130        O      tau( 130) = (   0.0990545   0.8418504   3.0627280  )
       131        O      tau( 131) = (   0.6101406   0.6538583   2.3072996  )
       132        O      tau( 132) = (   0.3898594   0.8447716   2.3072996  )
       133        O      tau( 133) = (   0.8837086   0.8887983   2.8423812  )
       134        O      tau( 134) = (   0.8810388   0.1059864   3.0350160  )
       135        O      tau( 135) = (   0.1162914   0.6098315   2.8423812  )
       136        O      tau( 136) = (   0.1189612   0.3935568   3.0350160  )
       137        O      tau( 137) = (   0.6837587   0.8962407   3.0720512  )
       138        O      tau( 138) = (   0.8455844   0.8814183   2.2996719  )
       139        O      tau( 139) = (   0.6548955   0.1165110   2.7983517  )
       140        O      tau( 140) = (   0.8460904   0.1175639   2.5792770  )
       141        O      tau( 141) = (   0.6109303   0.8427101   2.8097212  )
       142        O      tau( 142) = (   0.3890697   0.6559197   2.8097212  )
       143        O      tau( 143) = (   0.8896351   0.8443061   2.5708096  )
       144        O      tau( 144) = (   0.1103649   0.6543237   2.5708096  )
       145        O      tau( 145) = (   0.6189612   0.6055297   3.0350160  )
       146        O      tau( 146) = (   0.6162914   0.3892551   2.8423812  )
       147        O      tau( 147) = (   0.3810388   0.8931001   3.0350160  )
       148        O      tau( 148) = (   0.3837086   0.1102882   2.8423812  )
       149        O      tau( 149) = (   0.8451045   0.6160543   2.7983517  )
       150        O      tau( 150) = (   0.6539096   0.6171072   2.5792770  )
       151        O      tau( 151) = (   0.8162413   0.3966974   3.0720512  )
       152        O      tau( 152) = (   0.6544156   0.3818750   2.2996719  )
       153        H      tau( 153) = (   0.3222976   0.4631522   1.3149352  )
       154        H      tau( 154) = (   0.6777024   0.0363910   1.3149352  )
       155        H      tau( 155) = (   0.1357120   0.6463843   1.2384941  )
       156        H      tau( 156) = (   0.1377726   0.3795544   1.2387193  )
       157        H      tau( 157) = (   0.8622274   0.1199888   1.2387193  )
       158        H      tau( 158) = (   0.1777024   0.9626955   1.3149352  )
       159        H      tau( 159) = (   0.8222976   0.5359343   1.3149352  )
       160        H      tau( 160) = (   0.3642880   0.1468410   1.2384941  )
       161        H      tau( 161) = (   0.6377726   0.6195321   1.2387193  )
       162        H      tau( 162) = (   0.3622274   0.8790977   1.2387193  )
       163        H      tau( 163) = (   0.8642880   0.8522455   1.2384941  )
       164        H      tau( 164) = (   0.6357120   0.3527022   1.2384941  )
       165        H      tau( 165) = (   0.3642880   0.6463843   3.1403579  )
       166        H      tau( 166) = (   0.3622274   0.3795544   3.1401328  )
       167        H      tau( 167) = (   0.6377726   0.1199888   3.1401328  )
       168        H      tau( 168) = (   0.1357120   0.1468410   3.1403579  )
       169        H      tau( 169) = (   0.8622274   0.6195321   3.1401328  )
       170        H      tau( 170) = (   0.1377726   0.8790977   3.1401328  )
       171        H      tau( 171) = (   0.8222976   0.0363910   3.0639169  )
       172        H      tau( 172) = (   0.1777024   0.4631522   3.0639169  )
       173        H      tau( 173) = (   0.6357120   0.8522455   3.1403579  )
       174        H      tau( 174) = (   0.6777024   0.5359343   3.0639169  )
       175        H      tau( 175) = (   0.3222976   0.9626955   3.0639169  )
       176        H      tau( 176) = (   0.8642880   0.3527022   3.1403579  )

   Crystallographic axes

     site n.     atom                  positions (cryst. coord.)
         1        In     tau(   1) = (  0.2475443  0.2525461  0.3286202  )
         2        In     tau(   2) = (  0.7524557  0.2474539  0.3286202  )
         3        In     tau(   3) = (  0.2502748  0.2500434  0.4429040  )
         4        In     tau(   4) = (  0.2524557  0.7525461  0.3286202  )
         5        In     tau(   5) = (  0.4664954  0.4999234  0.4428567  )
         6        In     tau(   6) = (  0.0359158  0.5024168  0.3288829  )
         7        In     tau(   7) = (  0.7512482  0.4654638  0.3857462  )
         8        In     tau(   8) = (  0.2487518  0.0345362  0.3857462  )
         9        In     tau(   9) = (  0.5000000  0.7500000  0.3782939  )
        10        In     tau(  10) = (  0.0335046 -0.0000766  0.4428567  )
        11        In     tau(  11) = (  0.4640842  0.0024168  0.3288829  )
        12        In     tau(  12) = (  0.0000000  0.2500000  0.3782939  )
        13        O      tau(  13) = (  0.3890697  0.1565194  0.3583430  )
        14        O      tau(  14) = (  0.6109303  0.3434806  0.3583430  )
        15        O      tau(  15) = (  0.1103649  0.1549220  0.4129033  )
        16        O      tau(  16) = (  0.8896351  0.3450780  0.4129033  )
        17        O      tau(  17) = (  0.3810388  0.3939167  0.3068923  )
        18        O      tau(  18) = (  0.3837086  0.6103890  0.3508844  )
        19        O      tau(  19) = (  0.6189612  0.1060833  0.3068923  )
        20        O      tau(  20) = (  0.6162914  0.8896110  0.3508844  )
        21        O      tau(  21) = (  0.1548955  0.3833825  0.3609394  )
        22        O      tau(  22) = (  0.3460904  0.3823286  0.4109696  )
        23        O      tau(  23) = (  0.1837587  0.6029399  0.2984346  )
        24        O      tau(  24) = (  0.3455844  0.6177759  0.4748231  )
        25        O      tau(  25) = (  0.0990545  0.3426201  0.3005637  )
        26        O      tau(  26) = (  0.9009455  0.1573799  0.3005637  )
        27        O      tau(  27) = (  0.3898594  0.3455439  0.4730812  )
        28        O      tau(  28) = (  0.6101406  0.1544561  0.4730812  )
        29        O      tau(  29) = (  0.1162914  0.1103890  0.3508844  )
        30        O      tau(  30) = (  0.1189612  0.8939167  0.3068923  )
        31        O      tau(  31) = (  0.8837086  0.3896110  0.3508844  )
        32        O      tau(  32) = (  0.8810388  0.6060833  0.3068923  )
        33        O      tau(  33) = (  0.3162413  0.1029399  0.2984346  )
        34        O      tau(  34) = (  0.1544156  0.1177759  0.4748231  )
        35        O      tau(  35) = (  0.3451045  0.8833825  0.3609394  )
        36        O      tau(  36) = (  0.1539096  0.8823286  0.4109696  )
        37        In     tau(  37) = (  0.7502748  0.7499566  0.4429040  )
        38        In     tau(  38) = (  0.2497252  0.7500434  0.4429040  )
        39        In     tau(  39) = (  0.7475443  0.7474539  0.3286202  )
        40        In     tau(  40) = (  0.7497252  0.2499566  0.4429040  )
        41        In     tau(  41) = (  0.9640842 -0.0024168  0.3288829  )
        42        In     tau(  42) = (  0.5335046  0.0000766  0.4428567  )
        43        In     tau(  43) = (  0.0000000  0.2500000  0.4923028  )
        44        In     tau(  44) = (  0.0000000  0.7500000  0.3933156  )
        45        In     tau(  45) = (  0.5359158  0.4975832  0.3288829  )
        46        In     tau(  46) = (  0.9664954  0.5000766  0.4428567  )
        47        In     tau(  47) = (  0.2512482  0.5345362  0.3857462  )
        48        In     tau(  48) = (  0.7487518  0.9654638  0.3857462  )
        49        In     tau(  49) = (  0.5000000  0.2500000  0.3933156  )
        50        In     tau(  50) = (  0.5000000  0.7500000  0.4923028  )
        51        O      tau(  51) = (  0.8898594  0.6544561  0.4730812  )
        52        O      tau(  52) = (  0.1101406  0.8455439  0.4730812  )
        53        O      tau(  53) = (  0.5990545  0.6573799  0.3005637  )
        54        O      tau(  54) = (  0.4009455  0.8426201  0.3005637  )
        55        O      tau(  55) = (  0.8822894  0.8896449  0.4207116  )
        56        O      tau(  56) = (  0.8821677  0.1099288  0.4647641  )
        57        O      tau(  57) = (  0.1177106  0.6103551  0.4207116  )
        58        O      tau(  58) = (  0.1178323  0.3900712  0.4647641  )
        59        O      tau(  59) = (  0.6544156  0.8822241  0.4748231  )
        60        O      tau(  60) = (  0.8162413  0.8970601  0.2984346  )
        61        O      tau(  61) = (  0.6539096  0.1176714  0.4109696  )
        62        O      tau(  62) = (  0.8451045  0.1166175  0.3609394  )
        63        O      tau(  63) = (  0.6103649  0.8450780  0.4129033  )
        64        O      tau(  64) = (  0.3896351  0.6549220  0.4129033  )
        65        O      tau(  65) = (  0.8890697  0.8434806  0.3583430  )
        66        O      tau(  66) = (  0.1109303  0.6565194  0.3583430  )
        67        O      tau(  67) = (  0.6178323  0.6099288  0.4647641  )
        68        O      tau(  68) = (  0.6177106  0.3896449  0.4207116  )
        69        O      tau(  69) = (  0.3821677  0.8900712  0.4647641  )
        70        O      tau(  70) = (  0.3822894  0.1103551  0.4207116  )
        71        O      tau(  71) = (  0.8460904  0.6176714  0.4109696  )
        72        O      tau(  72) = (  0.6548955  0.6166175  0.3609394  )
        73        O      tau(  73) = (  0.8455844  0.3822241  0.4748231  )
        74        O      tau(  74) = (  0.6837587  0.3970601  0.2984346  )
        75        In     tau(  75) = (  0.2497252  0.2500434  0.5570960  )
        76        In     tau(  76) = (  0.7502748  0.2499566  0.5570960  )
        77        In     tau(  77) = (  0.2524557  0.2525461  0.6713798  )
        78        In     tau(  78) = (  0.2502748  0.7500434  0.5570960  )
        79        In     tau(  79) = (  0.4640842  0.5024168  0.6711171  )
        80        In     tau(  80) = (  0.0335046  0.4999234  0.5571433  )
        81        In     tau(  81) = (  0.7487518  0.4654638  0.6142538  )
        82        In     tau(  82) = (  0.2512482  0.0345362  0.6142538  )
        83        In     tau(  83) = (  0.5000000  0.7500000  0.6066844  )
        84        In     tau(  84) = (  0.5000000  0.2500000  0.5076972  )
        85        In     tau(  85) = (  0.0359158  0.0024168  0.6711171  )
        86        In     tau(  86) = (  0.4664954 -0.0000766  0.5571433  )
        87        In     tau(  87) = (  0.7500000  0.0334367  0.5000000  )
        88        In     tau(  88) = (  0.2500000  0.4665633  0.5000000  )
        89        In     tau(  89) = (  0.0000000  0.7500000  0.5076972  )
        90        In     tau(  90) = (  0.0000000  0.2500000  0.6066844  )
        91        O      tau(  91) = (  0.3896351  0.1549220  0.5870967  )
        92        O      tau(  92) = (  0.6103649  0.3450780  0.5870967  )
        93        O      tau(  93) = (  0.1109303  0.1565194  0.6416570  )
        94        O      tau(  94) = (  0.8890697  0.3434806  0.6416570  )
        95        O      tau(  95) = (  0.3821677  0.3900712  0.5352359  )
        96        O      tau(  96) = (  0.3822894  0.6103551  0.5792884  )
        97        O      tau(  97) = (  0.6178323  0.1099288  0.5352359  )
        98        O      tau(  98) = (  0.6177106  0.8896449  0.5792884  )
        99        O      tau(  99) = (  0.1539096  0.3823286  0.5890304  )
       100        O      tau( 100) = (  0.3451045  0.3833825  0.6390606  )
       101        O      tau( 101) = (  0.1544156  0.6177759  0.5251769  )
       102        O      tau( 102) = (  0.3162413  0.6029399  0.7015654  )
       103        O      tau( 103) = (  0.1101406  0.3455439  0.5269188  )
       104        O      tau( 104) = (  0.8898594  0.1544561  0.5269188  )
       105        O      tau( 105) = (  0.4009455  0.3426201  0.6994363  )
       106        O      tau( 106) = (  0.5990545  0.1573799  0.6994363  )
       107        O      tau( 107) = (  0.1177106  0.1103551  0.5792884  )
       108        O      tau( 108) = (  0.1178323  0.8900712  0.5352359  )
       109        O      tau( 109) = (  0.8822894  0.3896449  0.5792884  )
       110        O      tau( 110) = (  0.8821677  0.6099288  0.5352359  )
       111        O      tau( 111) = (  0.3455844  0.1177759  0.5251769  )
       112        O      tau( 112) = (  0.1837587  0.1029399  0.7015654  )
       113        O      tau( 113) = (  0.3460904  0.8823286  0.5890304  )
       114        O      tau( 114) = (  0.1548955  0.8833825  0.6390606  )
       115        In     tau( 115) = (  0.7524557  0.7474539  0.6713798  )
       116        In     tau( 116) = (  0.2475443  0.7525461  0.6713798  )
       117        In     tau( 117) = (  0.7497252  0.7499566  0.5570960  )
       118        In     tau( 118) = (  0.7475443  0.2474539  0.6713798  )
       119        In     tau( 119) = (  0.9664954  0.0000766  0.5571433  )
       120        In     tau( 120) = (  0.5359158 -0.0024168  0.6711171  )
       121        In     tau( 121) = (  0.2500000  0.9665633  0.5000000  )
       122        In     tau( 122) = (  0.7500000  0.5334367  0.5000000  )
       123        In     tau( 123) = (  0.0000000  0.7500000  0.6217061  )
       124        In     tau( 124) = (  0.5335046  0.5000766  0.5571433  )
       125        In     tau( 125) = (  0.9640842  0.4975832  0.6711171  )
       126        In     tau( 126) = (  0.2487518  0.5345362  0.6142538  )
       127        In     tau( 127) = (  0.7512482  0.9654638  0.6142538  )
       128        In     tau( 128) = (  0.5000000  0.2500000  0.6217061  )
       129        O      tau( 129) = (  0.9009455  0.6573799  0.6994363  )
       130        O      tau( 130) = (  0.0990545  0.8426201  0.6994363  )
       131        O      tau( 131) = (  0.6101406  0.6544561  0.5269188  )
       132        O      tau( 132) = (  0.3898594  0.8455439  0.5269188  )
       133        O      tau( 133) = (  0.8837086  0.8896110  0.6491156  )
       134        O      tau( 134) = (  0.8810388  0.1060833  0.6931077  )
       135        O      tau( 135) = (  0.1162914  0.6103890  0.6491156  )
       136        O      tau( 136) = (  0.1189612  0.3939167  0.6931077  )
       137        O      tau( 137) = (  0.6837587  0.8970601  0.7015654  )
       138        O      tau( 138) = (  0.8455844  0.8822241  0.5251769  )
       139        O      tau( 139) = (  0.6548955  0.1166175  0.6390606  )
       140        O      tau( 140) = (  0.8460904  0.1176714  0.5890304  )
       141        O      tau( 141) = (  0.6109303  0.8434806  0.6416570  )
       142        O      tau( 142) = (  0.3890697  0.6565194  0.6416570  )
       143        O      tau( 143) = (  0.8896351  0.8450780  0.5870967  )
       144        O      tau( 144) = (  0.1103649  0.6549220  0.5870967  )
       145        O      tau( 145) = (  0.6189612  0.6060833  0.6931077  )
       146        O      tau( 146) = (  0.6162914  0.3896110  0.6491156  )
       147        O      tau( 147) = (  0.3810388  0.8939167  0.6931077  )
       148        O      tau( 148) = (  0.3837086  0.1103890  0.6491156  )
       149        O      tau( 149) = (  0.8451045  0.6166175  0.6390606  )
       150        O      tau( 150) = (  0.6539096  0.6176714  0.5890304  )
       151        O      tau( 151) = (  0.8162413  0.3970601  0.7015654  )
       152        O      tau( 152) = (  0.6544156  0.3822241  0.5251769  )
       153        H      tau( 153) = (  0.3222976  0.4635757  0.3002922  )
       154        H      tau( 154) = (  0.6777024  0.0364243  0.3002922  )
       155        H      tau( 155) = (  0.1357120  0.6469753  0.2828353  )
       156        H      tau( 156) = (  0.1377726  0.3799015  0.2828868  )
       157        H      tau( 157) = (  0.8622274  0.1200985  0.2828868  )
       158        H      tau( 158) = (  0.1777024  0.9635757  0.3002922  )
       159        H      tau( 159) = (  0.8222976  0.5364243  0.3002922  )
       160        H      tau( 160) = (  0.3642880  0.1469753  0.2828353  )
       161        H      tau( 161) = (  0.6377726  0.6200985  0.2828868  )
       162        H      tau( 162) = (  0.3622274  0.8799015  0.2828868  )
       163        H      tau( 163) = (  0.8642880  0.8530247  0.2828353  )
       164        H      tau( 164) = (  0.6357120  0.3530247  0.2828353  )
       165        H      tau( 165) = (  0.3642880  0.6469753  0.7171647  )
       166        H      tau( 166) = (  0.3622274  0.3799015  0.7171132  )
       167        H      tau( 167) = (  0.6377726  0.1200985  0.7171132  )
       168        H      tau( 168) = (  0.1357120  0.1469753  0.7171647  )
       169        H      tau( 169) = (  0.8622274  0.6200985  0.7171132  )
       170        H      tau( 170) = (  0.1377726  0.8799015  0.7171132  )
       171        H      tau( 171) = (  0.8222976  0.0364243  0.6997078  )
       172        H      tau( 172) = (  0.1777024  0.4635757  0.6997078  )
       173        H      tau( 173) = (  0.6357120  0.8530247  0.7171647  )
       174        H      tau( 174) = (  0.6777024  0.5364243  0.6997078  )
       175        H      tau( 175) = (  0.3222976  0.9635757  0.6997078  )
       176        H      tau( 176) = (  0.8642880  0.3530247  0.7171647  )

     number of k points=    21
                       cart. coord. in units 2pi/alat
        k(    1) = (   0.0000000   0.0000000   0.0000000), wk =   0.0952381
        k(    2) = (   0.0246040   0.0000000   0.0000000), wk =   0.0952381
        k(    3) = (   0.0492080   0.0000000   0.0000000), wk =   0.0952381
        k(    4) = (   0.0738119   0.0000000   0.0000000), wk =   0.0952381
        k(    5) = (   0.0984159   0.0000000   0.0000000), wk =   0.0952381
        k(    6) = (   0.1230199   0.0000000   0.0000000), wk =   0.0952381
        k(    7) = (   0.1476239   0.0000000   0.0000000), wk =   0.0952381
        k(    8) = (   0.1722278   0.0000000   0.0000000), wk =   0.0952381
        k(    9) = (   0.1968318   0.0000000   0.0000000), wk =   0.0952381
        k(   10) = (   0.2214358   0.0000000   0.0000000), wk =   0.0952381
        k(   11) = (   0.2460398   0.0000000   0.0000000), wk =   0.0952381
        k(   12) = (   0.0173976   0.0173976   0.0000000), wk =   0.0952381
        k(   13) = (   0.0347953   0.0347953   0.0000000), wk =   0.0952381
        k(   14) = (   0.0521929   0.0521929   0.0000000), wk =   0.0952381
        k(   15) = (   0.0695906   0.0695906   0.0000000), wk =   0.0952381
        k(   16) = (   0.0869882   0.0869882   0.0000000), wk =   0.0952381
        k(   17) = (   0.1043858   0.1043858   0.0000000), wk =   0.0952381
        k(   18) = (   0.1217835   0.1217835   0.0000000), wk =   0.0952381
        k(   19) = (   0.1391811   0.1391811   0.0000000), wk =   0.0952381
        k(   20) = (   0.1565788   0.1565788   0.0000000), wk =   0.0952381
        k(   21) = (   0.1739764   0.1739764   0.0000000), wk =   0.0952381

                       cryst. coord.
        k(    1) = (   0.0000000   0.0000000   0.0000000), wk =   0.0952381
        k(    2) = (   0.0246040   0.0000000   0.0000000), wk =   0.0952381
        k(    3) = (   0.0492080   0.0000000   0.0000000), wk =   0.0952381
        k(    4) = (   0.0738119   0.0000000   0.0000000), wk =   0.0952381
        k(    5) = (   0.0984159   0.0000000   0.0000000), wk =   0.0952381
        k(    6) = (   0.1230199   0.0000000   0.0000000), wk =   0.0952381
        k(    7) = (   0.1476239   0.0000000   0.0000000), wk =   0.0952381
        k(    8) = (   0.1722278   0.0000000   0.0000000), wk =   0.0952381
        k(    9) = (   0.1968318   0.0000000   0.0000000), wk =   0.0952381
        k(   10) = (   0.2214358   0.0000000   0.0000000), wk =   0.0952381
        k(   11) = (   0.2460398   0.0000000   0.0000000), wk =   0.0952381
        k(   12) = (   0.0173976   0.0173817   0.0000000), wk =   0.0952381
        k(   13) = (   0.0347953   0.0347635   0.0000000), wk =   0.0952381
        k(   14) = (   0.0521929   0.0521452   0.0000000), wk =   0.0952381
        k(   15) = (   0.0695906   0.0695270   0.0000000), wk =   0.0952381
        k(   16) = (   0.0869882   0.0869087   0.0000000), wk =   0.0952381
        k(   17) = (   0.1043858   0.1042905   0.0000000), wk =   0.0952381
        k(   18) = (   0.1217835   0.1216722   0.0000000), wk =   0.0952381
        k(   19) = (   0.1391811   0.1390540   0.0000000), wk =   0.0952381
        k(   20) = (   0.1565788   0.1564357   0.0000000), wk =   0.0952381
        k(   21) = (   0.1739764   0.1738175   0.0000000), wk =   0.0952381

     Dense  grid:  7413139 G-vectors     FFT dimensions: ( 150, 150, 648)

     Smooth grid:  2620949 G-vectors     FFT dimensions: ( 108, 108, 480)

     Dynamical RAM for                 wfc:    3399.40 MB

     Dynamical RAM for     wfc (w. buffer):    3399.40 MB

     Dynamical RAM for           str. fact:     339.35 MB

     Dynamical RAM for           local pot:       0.00 MB

     Dynamical RAM for          nlocal pot:    9118.39 MB

     Dynamical RAM for                qrad:       5.74 MB

     Dynamical RAM for          rho,v,vnew:     673.06 MB

     Dynamical RAM for           G-vectors:     444.18 MB

     Dynamical RAM for          h,s,v(r/c):      21.17 MB

     Dynamical RAM for          <psi|beta>:      18.93 MB

     Dynamical RAM for      wfcinit/wfcrot:    9137.43 MB

     Dynamical RAM for           addusdens:   31898.58 MB

     Estimated static dynamical RAM per process >      14.64 GB

     Estimated max dynamical RAM per process >      45.79 GB

     The potential is recalculated from file :
     ./tmp/slab.save/charge-density


     negative rho (up, down):  2.107E-03 0.000E+00
     Starting wfcs are  912 randomized atomic wfcs
     Checking if some PAW data can be deallocated... 

     Band Structure Calculation
     CG style diagonalization

     Computing kpt #:     1  of    21
     c_bands: 11 eigenvalues not converged
     total cpu time spent up to now is     1537.6 secs

     Computing kpt #:     2  of    21
     c_bands: 12 eigenvalues not converged
     total cpu time spent up to now is     2951.8 secs

     Computing kpt #:     3  of    21
     c_bands: 12 eigenvalues not converged
     total cpu time spent up to now is     4383.5 secs

     Computing kpt #:     4  of    21
     c_bands: 13 eigenvalues not converged
     total cpu time spent up to now is     5809.1 secs

     Computing kpt #:     5  of    21
     c_bands: 12 eigenvalues not converged
     total cpu time spent up to now is     7227.5 secs

     Computing kpt #:     6  of    21
     c_bands: 12 eigenvalues not converged
     total cpu time spent up to now is     8656.5 secs

     Computing kpt #:     7  of    21
     c_bands: 12 eigenvalues not converged
     total cpu time spent up to now is    10073.8 secs

     Computing kpt #:     8  of    21
     c_bands: 11 eigenvalues not converged
     total cpu time spent up to now is    11501.9 secs

     Computing kpt #:     9  of    21
     c_bands: 11 eigenvalues not converged
     total cpu time spent up to now is    12930.5 secs

     Computing kpt #:    10  of    21
     c_bands: 10 eigenvalues not converged
     total cpu time spent up to now is    14356.0 secs

     Computing kpt #:    11  of    21
     c_bands: 11 eigenvalues not converged
     total cpu time spent up to now is    15794.0 secs

     Computing kpt #:    12  of    21
     c_bands: 11 eigenvalues not converged
     total cpu time spent up to now is    17209.5 secs

     Computing kpt #:    13  of    21
     c_bands: 12 eigenvalues not converged
     total cpu time spent up to now is    18625.8 secs

     Computing kpt #:    14  of    21
     c_bands: 13 eigenvalues not converged
     total cpu time spent up to now is    20056.1 secs

     Computing kpt #:    15  of    21
     c_bands: 13 eigenvalues not converged
     total cpu time spent up to now is    21478.1 secs

     Computing kpt #:    16  of    21
     c_bands: 13 eigenvalues not converged
     total cpu time spent up to now is    22909.3 secs

     Computing kpt #:    17  of    21
     c_bands: 11 eigenvalues not converged
     total cpu time spent up to now is    24338.4 secs

     Computing kpt #:    18  of    21
     c_bands: 11 eigenvalues not converged
     total cpu time spent up to now is    25770.0 secs

     Computing kpt #:    19  of    21
     c_bands: 12 eigenvalues not converged
     total cpu time spent up to now is    27201.3 secs

     Computing kpt #:    20  of    21
     c_bands: 12 eigenvalues not converged
     total cpu time spent up to now is    28637.6 secs

     Computing kpt #:    21  of    21
     c_bands: 11 eigenvalues not converged
     total cpu time spent up to now is    30064.7 secs

     ethr =  1.00E-13,  avg # of iterations = 77.7

     total cpu time spent up to now is    30064.7 secs

     End of band structure calculation

          k = 0.0000 0.0000 0.0000 (327585 PWs)   bands (ev):

   -18.2608 -18.2608 -18.1465 -18.1465 -18.1180 -18.1180 -18.0703 -18.0703
   -17.9186 -17.9186 -17.8538 -17.8538 -17.8261 -17.8261 -17.7686 -17.7686
   -17.7676 -17.7676 -17.7429 -17.7429 -17.6797 -17.6797 -17.6716 -17.6716
   -17.3301 -17.1971 -16.9776 -16.9719 -16.9621 -16.9221 -16.8825 -16.8823
   -16.8732 -16.8652 -16.8512 -16.8472 -16.8284 -16.7920 -16.7827 -16.7775
   -16.7605 -16.7530 -16.7514 -16.7474 -16.7431 -16.7408 -16.7390 -16.7377
   -16.7300 -16.7061 -16.6855 -16.6712 -16.6548 -16.6128 -16.5990 -16.5923
   -16.5729 -16.5593 -16.5329 -16.5308 -16.5263 -16.5213 -16.5104 -16.5079
   -16.4847 -16.4833 -16.4810 -16.4807 -16.4805 -16.4717 -16.4600 -16.4599
   -16.4535 -16.4494 -16.4469 -16.4402 -16.4392 -16.4233 -16.4197 -16.4049
   -16.3881 -16.3879 -16.3797 -16.3727 -16.3555 -16.3530 -16.3379 -16.3259
   -16.3211 -16.3050 -16.3045 -16.2917 -16.2890 -16.2851 -16.2066 -16.1462
   -12.3995 -12.3988 -12.3974 -12.3746 -12.3690 -12.3682 -12.3592 -12.3591
   -12.3499 -12.3495 -12.3423 -12.3414 -12.3395 -12.3387 -12.3383 -12.3341
   -12.3329 -12.3276 -12.3276 -12.3260 -12.3241 -12.3211 -12.3206 -12.3171
   -12.3169 -12.3159 -12.3120 -12.3110 -12.3089 -12.3079 -12.3059 -12.3053
   -12.3031 -12.3000 -12.2992 -12.2989 -12.2975 -12.2958 -12.2910 -12.2910
   -12.2833 -12.2791 -12.2770 -12.2750 -12.2738 -12.2713 -12.2682 -12.2669
   -12.2667 -12.2640 -12.2612 -12.2609 -12.2593 -12.2590 -12.2542 -12.2528
   -12.2508 -12.2498 -12.2482 -12.2480 -12.2465 -12.2464 -12.2451 -12.2449
   -12.2438 -12.2389 -12.2388 -12.2381 -12.2356 -12.2337 -12.2336 -12.2302
   -12.2295 -12.2284 -12.2281 -12.2273 -12.2259 -12.2255 -12.2197 -12.2194
   -12.2167 -12.2167 -12.2164 -12.2146 -12.2142 -12.2108 -12.2100 -12.2094
   -12.2040 -12.2033 -12.2020 -12.1988 -12.1973 -12.1965 -12.1963 -12.1939
   -12.1934 -12.1921 -12.1902 -12.1894 -12.1839 -12.1801 -12.1782 -12.1755
   -12.1709 -12.1688 -12.1658 -12.1619 -12.1612 -12.1605 -12.1563 -12.1550
   -12.1549 -12.1548 -12.1525 -12.1493 -12.1473 -12.1443 -12.1402 -12.1362
   -12.1349 -12.1330 -12.1293 -12.1259 -12.1259 -12.1249 -12.1248 -12.1247
   -12.1226 -12.1194 -12.1174 -12.1174 -12.1153 -12.1140 -12.1132 -12.1124
   -12.1091 -12.1087 -12.1072 -12.1068 -12.1061 -12.1060 -12.1031 -12.0992
   -12.0962 -12.0961 -12.0958 -12.0948 -12.0945 -12.0937 -12.0934 -12.0933
   -12.0911 -12.0885 -12.0865 -12.0850 -12.0842 -12.0804 -12.0770 -12.0764
   -12.0727 -12.0715 -12.0702 -12.0672 -12.0666 -12.0639 -12.0638 -12.0625
   -12.0592 -12.0583 -12.0558 -12.0536 -12.0479 -12.0444 -12.0384 -12.0383
   -12.0382 -12.0371 -12.0356 -12.0352 -12.0318 -12.0277 -12.0223 -12.0209
   -12.0200 -12.0167 -12.0136 -12.0095 -12.0086 -12.0057 -12.0050 -12.0032
   -12.0012 -12.0010 -12.0000 -11.9985 -11.9979 -11.9972 -11.9964 -11.9933
   -11.9886 -11.9852 -11.9847 -11.9847 -11.9842 -11.9805 -11.9790 -11.9785
   -11.9769 -11.9737 -11.9726 -11.9714 -11.9682 -11.9652 -11.9650 -11.9625
   -11.9619 -11.9617 -11.9594 -11.9573 -11.9475 -11.9464 -11.9423 -11.9419
   -11.9382 -11.9331 -11.9325 -11.9245 -11.9155 -11.9052 -11.8837 -11.8566
   -11.8532 -11.8436 -11.8351 -11.8318 -11.8317 -11.8308 -11.7904 -11.7817
   -11.7545 -11.7265 -11.7199 -11.7127 -11.6938 -11.6897 -11.6146 -11.6068
   -11.5803 -11.5656 -11.5470 -11.5314 -11.5304 -11.5227 -11.4941 -11.4600
   -11.3961 -11.3880 -11.3795 -11.3790 -11.3738 -11.3670 -11.3582 -11.3535
   -11.3464 -11.3314 -11.3308 -11.3062 -11.2907 -11.2830 -11.2702 -11.2692
   -11.2668 -11.2433 -11.1426 -11.1141 -11.0995 -11.0062 -11.0000 -10.9997
    -5.8377  -5.8377  -5.6722  -5.6721  -5.6631  -5.6631  -5.6497  -5.6462
    -5.5193  -5.5186  -5.4420  -5.4402  -5.3785  -5.3784  -5.3632  -5.3548
    -5.1824  -5.1794  -5.0529  -4.9911  -4.9890  -4.9557  -4.9470  -4.9205
    -4.8666  -4.7967  -4.7829  -4.7747  -4.7446  -4.7212  -4.7127  -4.7127
    -4.6964  -4.6709  -4.6512  -4.6410  -4.6250  -4.6085  -4.5776  -4.5539
    -4.4766  -4.3844  -4.3680  -4.3248  -4.3193  -4.2808  -4.2480  -4.2370
    -4.2329  -4.2269  -4.1999  -4.1694  -4.1574  -4.1473  -4.1464  -4.0992
    -4.0701  -4.0411  -3.9769  -3.9106  -3.8258  -3.7807  -3.7781  -3.7362
    -3.6923  -3.6732  -3.6578  -3.6352  -3.5556  -3.5444  -3.5267  -3.5210
    -3.5177  -3.4890  -3.4487  -3.4308  -3.4177  -3.4147  -3.3992  -3.3857
    -3.3613  -3.3252  -3.2820  -3.2557  -3.2517  -3.1885  -3.1620  -3.1369
    -3.0863  -3.0521  -3.0407  -3.0258  -3.0034  -2.9954  -2.9599  -2.9572
    -2.9412  -2.9313  -2.9304  -2.7896  -2.7752  -2.7725  -2.7722  -2.7693
    -2.7626  -2.7506  -2.7126  -2.6914  -2.6392  -2.6289  -2.6099  -2.5719
    -2.5589  -2.5588  -2.5047  -2.4431  -2.4354  -2.4303  -2.4268  -2.4258
    -2.3867  -2.3743  -2.3601  -2.3140  -2.2695  -2.2668  -2.2175  -2.1387
    -2.1369  -2.1273  -2.0859  -2.0848  -2.0729  -2.0648  -2.0143  -1.9872
    -1.9797  -1.9737  -1.9709  -1.9616  -1.9535  -1.9411  -1.9191  -1.9071
    -1.9035  -1.8951  -1.8499  -1.7987  -1.7916  -1.7847  -1.7695  -1.7650
    -1.7605  -1.7056  -1.6930  -1.6871  -1.6817  -1.6699  -1.6655  -1.6232
    -1.6014  -1.5931  -1.5922  -1.5897  -1.5831  -1.5593  -1.5539  -1.5339
    -1.5174  -1.5071  -1.5056  -1.5024  -1.5021  -1.5008  -1.4913  -1.4665
    -1.4563  -1.4447  -1.4038  -1.3747  -1.3568  -1.3560  -1.3085  -1.3040
    -1.3011  -1.3003  -1.2935  -1.2619  -1.2248  -1.2192  -1.2040  -1.1888
    -1.1634  -1.1535  -1.1523  -1.1394  -1.1327  -1.1053  -1.1008  -1.0743
    -1.0407  -0.9914  -0.9840  -0.9813  -0.9769  -0.9732  -0.9684  -0.9357
    -0.9062  -0.9033  -0.8569  -0.8276  -0.8176  -0.8020  -0.7984  -0.7933
    -0.7697  -0.7528  -0.7318  -0.7265  -0.7084  -0.6596  -0.6171  -0.6119
    -0.5858  -0.5724  -0.5608  -0.5587  -0.5574  -0.5216  -0.5215  -0.5182
    -0.4954  -0.4862  -0.4804  -0.4763  -0.4698  -0.4517  -0.4391  -0.4352
    -0.4196  -0.4059  -0.3752  -0.3751  -0.3495  -0.3480  -0.3161  -0.3127
    -0.3030  -0.3004  -0.2991  -0.2902  -0.2755  -0.2524  -0.2479  -0.2479
    -0.2477  -0.2398  -0.2388  -0.2223  -0.2208  -0.2094  -0.2024  -0.1886
    -0.1873  -0.1867  -0.1823  -0.1751  -0.1660  -0.1627  -0.1552  -0.1539
    -0.1533  -0.1518  -0.1334  -0.1307  -0.1164  -0.0966  -0.0954  -0.0825
    -0.0627  -0.0431  -0.0243  -0.0030   0.0062   0.0252   0.0382   0.0475
     1.2714   1.9905   2.7975   3.5927   4.0054   4.0189   4.0259   4.0395
     4.2873   4.3199   4.3261   4.3399   4.3522   4.6943   4.7336   4.7681

          k = 0.0246 0.0000 0.0000 (327633 PWs)   bands (ev):

   -18.2607 -18.2607 -18.1467 -18.1467 -18.1180 -18.1180 -18.0704 -18.0704
   -17.9184 -17.9184 -17.8539 -17.8539 -17.8260 -17.8260 -17.7685 -17.7685
   -17.7675 -17.7675 -17.7430 -17.7430 -17.6797 -17.6797 -17.6717 -17.6717
   -17.3298 -17.1968 -16.9775 -16.9718 -16.9650 -16.9218 -16.8875 -16.8801
   -16.8732 -16.8616 -16.8504 -16.8471 -16.8286 -16.7926 -16.7827 -16.7784
   -16.7616 -16.7525 -16.7502 -16.7479 -16.7472 -16.7397 -16.7372 -16.7353
   -16.7295 -16.7050 -16.6854 -16.6711 -16.6550 -16.6127 -16.5991 -16.5923
   -16.5729 -16.5593 -16.5329 -16.5309 -16.5262 -16.5213 -16.5105 -16.5079
   -16.4851 -16.4832 -16.4811 -16.4810 -16.4801 -16.4714 -16.4600 -16.4599
   -16.4535 -16.4495 -16.4471 -16.4404 -16.4390 -16.4233 -16.4201 -16.4052
   -16.3881 -16.3878 -16.3798 -16.3729 -16.3554 -16.3529 -16.3384 -16.3252
   -16.3212 -16.3051 -16.3047 -16.2917 -16.2889 -16.2846 -16.2067 -16.1463
   -12.3994 -12.3987 -12.3973 -12.3745 -12.3689 -12.3681 -12.3592 -12.3590
   -12.3498 -12.3494 -12.3423 -12.3415 -12.3394 -12.3386 -12.3384 -12.3341
   -12.3328 -12.3276 -12.3275 -12.3259 -12.3240 -12.3212 -12.3205 -12.3170
   -12.3169 -12.3158 -12.3120 -12.3109 -12.3096 -12.3072 -12.3059 -12.3052
   -12.3031 -12.3001 -12.2995 -12.2989 -12.2977 -12.2958 -12.2909 -12.2908
   -12.2833 -12.2792 -12.2770 -12.2752 -12.2739 -12.2715 -12.2702 -12.2667
   -12.2651 -12.2648 -12.2610 -12.2609 -12.2593 -12.2583 -12.2542 -12.2541
   -12.2498 -12.2496 -12.2487 -12.2482 -12.2467 -12.2459 -12.2454 -12.2445
   -12.2436 -12.2389 -12.2386 -12.2381 -12.2355 -12.2337 -12.2336 -12.2301
   -12.2295 -12.2286 -12.2280 -12.2269 -12.2260 -12.2257 -12.2199 -12.2195
   -12.2168 -12.2167 -12.2164 -12.2146 -12.2139 -12.2106 -12.2103 -12.2094
   -12.2040 -12.2032 -12.2020 -12.1989 -12.1974 -12.1965 -12.1963 -12.1940
   -12.1935 -12.1919 -12.1901 -12.1891 -12.1839 -12.1802 -12.1783 -12.1756
   -12.1710 -12.1690 -12.1662 -12.1624 -12.1619 -12.1595 -12.1563 -12.1554
   -12.1547 -12.1546 -12.1521 -12.1494 -12.1474 -12.1444 -12.1401 -12.1363
   -12.1351 -12.1328 -12.1294 -12.1261 -12.1259 -12.1255 -12.1246 -12.1245
   -12.1225 -12.1199 -12.1173 -12.1170 -12.1153 -12.1138 -12.1133 -12.1128
   -12.1095 -12.1084 -12.1074 -12.1073 -12.1056 -12.1056 -12.1033 -12.0991
   -12.0963 -12.0963 -12.0957 -12.0948 -12.0946 -12.0936 -12.0931 -12.0930
   -12.0910 -12.0885 -12.0864 -12.0856 -12.0837 -12.0805 -12.0765 -12.0764
   -12.0727 -12.0717 -12.0696 -12.0672 -12.0666 -12.0646 -12.0630 -12.0629
   -12.0590 -12.0587 -12.0558 -12.0538 -12.0472 -12.0445 -12.0397 -12.0385
   -12.0382 -12.0357 -12.0354 -12.0352 -12.0316 -12.0276 -12.0222 -12.0209
   -12.0199 -12.0167 -12.0138 -12.0096 -12.0087 -12.0058 -12.0048 -12.0034
   -12.0012 -12.0010 -11.9999 -11.9985 -11.9978 -11.9972 -11.9960 -11.9933
   -11.9886 -11.9853 -11.9847 -11.9846 -11.9842 -11.9805 -11.9790 -11.9785
   -11.9769 -11.9737 -11.9727 -11.9715 -11.9682 -11.9655 -11.9651 -11.9624
   -11.9622 -11.9617 -11.9591 -11.9569 -11.9475 -11.9463 -11.9424 -11.9423
   -11.9382 -11.9328 -11.9324 -11.9242 -11.9165 -11.9043 -11.8858 -11.8543
   -11.8528 -11.8479 -11.8352 -11.8322 -11.8308 -11.8276 -11.7911 -11.7807
   -11.7546 -11.7291 -11.7165 -11.7129 -11.6932 -11.6913 -11.6151 -11.6084
   -11.5785 -11.5661 -11.5471 -11.5326 -11.5312 -11.5209 -11.4939 -11.4587
   -11.3963 -11.3894 -11.3840 -11.3818 -11.3708 -11.3661 -11.3579 -11.3498
   -11.3457 -11.3315 -11.3299 -11.3060 -11.2908 -11.2831 -11.2727 -11.2702
   -11.2668 -11.2398 -11.1427 -11.1142 -11.0997 -11.0064 -11.0002 -11.0001
    -5.8375  -5.8375  -5.6722  -5.6721  -5.6639  -5.6638  -5.6494  -5.6460
    -5.5195  -5.5188  -5.4425  -5.4407  -5.3778  -5.3778  -5.3626  -5.3542
    -5.1817  -5.1787  -5.0524  -4.9911  -4.9885  -4.9563  -4.9463  -4.9206
    -4.8661  -4.7971  -4.7825  -4.7750  -4.7452  -4.7210  -4.7119  -4.7117
    -4.6961  -4.6718  -4.6530  -4.6403  -4.6243  -4.6088  -4.5777  -4.5538
    -4.4777  -4.3862  -4.3689  -4.3253  -4.3198  -4.2879  -4.2416  -4.2388
    -4.2359  -4.2244  -4.1989  -4.1759  -4.1577  -4.1455  -4.1400  -4.0982
    -4.0697  -4.0433  -3.9769  -3.9067  -3.8260  -3.7838  -3.7819  -3.7423
    -3.6904  -3.6660  -3.6583  -3.6352  -3.5810  -3.5465  -3.5356  -3.5267
    -3.4969  -3.4889  -3.4495  -3.4304  -3.4173  -3.4151  -3.3808  -3.3795
    -3.3613  -3.3247  -3.2809  -3.2564  -3.2511  -3.1871  -3.1590  -3.1367
    -3.0873  -3.0521  -3.0407  -3.0264  -3.0027  -2.9942  -2.9600  -2.9568
    -2.9411  -2.9328  -2.9298  -2.7923  -2.7759  -2.7717  -2.7701  -2.7682
    -2.7627  -2.7501  -2.7113  -2.6911  -2.6391  -2.6280  -2.6097  -2.5723
    -2.5600  -2.5581  -2.5054  -2.4457  -2.4442  -2.4273  -2.4268  -2.4193
    -2.3855  -2.3736  -2.3601  -2.3129  -2.2688  -2.2655  -2.2179  -2.1402
    -2.1379  -2.1293  -2.0853  -2.0845  -2.0747  -2.0658  -2.0150  -1.9873
    -1.9832  -1.9782  -1.9729  -1.9609  -1.9483  -1.9394  -1.9224  -1.9081
    -1.9018  -1.8926  -1.8500  -1.7992  -1.7923  -1.7845  -1.7721  -1.7651
    -1.7591  -1.7060  -1.6906  -1.6863  -1.6820  -1.6716  -1.6654  -1.6247
    -1.6009  -1.6009  -1.5900  -1.5834  -1.5829  -1.5592  -1.5586  -1.5338
    -1.5148  -1.5138  -1.5079  -1.5044  -1.4996  -1.4948  -1.4881  -1.4670
    -1.4542  -1.4488  -1.4033  -1.3755  -1.3574  -1.3548  -1.3150  -1.3024
    -1.2992  -1.2946  -1.2892  -1.2614  -1.2250  -1.2187  -1.2022  -1.1883
    -1.1676  -1.1534  -1.1465  -1.1393  -1.1319  -1.1072  -1.1034  -1.0740
    -1.0415  -0.9920  -0.9838  -0.9800  -0.9755  -0.9753  -0.9721  -0.9311
    -0.9141  -0.8946  -0.8568  -0.8298  -0.8221  -0.8000  -0.7986  -0.7898
    -0.7701  -0.7528  -0.7337  -0.7240  -0.7071  -0.6603  -0.6174  -0.6129
    -0.5868  -0.5769  -0.5611  -0.5580  -0.5569  -0.5228  -0.5209  -0.5187
    -0.4944  -0.4887  -0.4793  -0.4759  -0.4713  -0.4511  -0.4387  -0.4336
    -0.4198  -0.4071  -0.3756  -0.3753  -0.3500  -0.3476  -0.3190  -0.3156
    -0.3032  -0.2991  -0.2979  -0.2917  -0.2734  -0.2528  -0.2486  -0.2480
    -0.2477  -0.2391  -0.2381  -0.2221  -0.2208  -0.2096  -0.2021  -0.1904
    -0.1884  -0.1858  -0.1812  -0.1748  -0.1658  -0.1626  -0.1554  -0.1531
    -0.1527  -0.1523  -0.1350  -0.1338  -0.1141  -0.0959  -0.0954  -0.0816
    -0.0623  -0.0428  -0.0247  -0.0033   0.0064   0.0252   0.0384   0.0472
     1.2756   1.9933   2.7995   3.5942   3.9429   4.0202   4.0266   4.1011
     4.2631   4.2883   4.3211   4.3529   4.4028   4.6880   4.6950   4.7984

          k = 0.0492 0.0000 0.0000 (327583 PWs)   bands (ev):

   -18.2603 -18.2603 -18.1474 -18.1474 -18.1178 -18.1178 -18.0706 -18.0706
   -17.9181 -17.9181 -17.8542 -17.8542 -17.8255 -17.8255 -17.7683 -17.7683
   -17.7673 -17.7673 -17.7433 -17.7433 -17.6798 -17.6798 -17.6718 -17.6718
   -17.3289 -17.1961 -16.9770 -16.9725 -16.9713 -16.9212 -16.8972 -16.8742
   -16.8733 -16.8574 -16.8470 -16.8470 -16.8292 -16.7943 -16.7825 -16.7810
   -16.7641 -16.7532 -16.7506 -16.7475 -16.7465 -16.7411 -16.7364 -16.7284
   -16.7282 -16.7019 -16.6850 -16.6708 -16.6555 -16.6127 -16.5993 -16.5923
   -16.5728 -16.5594 -16.5329 -16.5314 -16.5259 -16.5213 -16.5108 -16.5079
   -16.4860 -16.4830 -16.4817 -16.4811 -16.4792 -16.4705 -16.4602 -16.4593
   -16.4535 -16.4497 -16.4477 -16.4408 -16.4385 -16.4232 -16.4214 -16.4060
   -16.3882 -16.3876 -16.3800 -16.3734 -16.3551 -16.3526 -16.3395 -16.3233
   -16.3216 -16.3053 -16.3052 -16.2919 -16.2889 -16.2832 -16.2071 -16.1467
   -12.3991 -12.3983 -12.3971 -12.3743 -12.3686 -12.3678 -12.3592 -12.3590
   -12.3495 -12.3494 -12.3422 -12.3416 -12.3390 -12.3385 -12.3385 -12.3341
   -12.3327 -12.3274 -12.3272 -12.3257 -12.3239 -12.3216 -12.3204 -12.3168
   -12.3167 -12.3155 -12.3121 -12.3109 -12.3107 -12.3063 -12.3061 -12.3052
   -12.3032 -12.3004 -12.3002 -12.2992 -12.2984 -12.2956 -12.2908 -12.2904
   -12.2834 -12.2793 -12.2768 -12.2759 -12.2739 -12.2738 -12.2711 -12.2666
   -12.2665 -12.2640 -12.2611 -12.2602 -12.2595 -12.2570 -12.2557 -12.2542
   -12.2500 -12.2496 -12.2486 -12.2481 -12.2472 -12.2457 -12.2451 -12.2437
   -12.2429 -12.2386 -12.2383 -12.2382 -12.2355 -12.2336 -12.2334 -12.2301
   -12.2295 -12.2286 -12.2278 -12.2263 -12.2262 -12.2259 -12.2203 -12.2197
   -12.2169 -12.2168 -12.2166 -12.2146 -12.2133 -12.2109 -12.2101 -12.2096
   -12.2038 -12.2027 -12.2020 -12.1989 -12.1976 -12.1964 -12.1963 -12.1942
   -12.1938 -12.1916 -12.1900 -12.1884 -12.1839 -12.1803 -12.1785 -12.1760
   -12.1715 -12.1694 -12.1674 -12.1642 -12.1619 -12.1586 -12.1565 -12.1563
   -12.1543 -12.1540 -12.1512 -12.1497 -12.1479 -12.1449 -12.1399 -12.1365
   -12.1354 -12.1321 -12.1294 -12.1272 -12.1267 -12.1258 -12.1242 -12.1241
   -12.1222 -12.1210 -12.1174 -12.1167 -12.1151 -12.1141 -12.1133 -12.1128
   -12.1102 -12.1083 -12.1080 -12.1078 -12.1049 -12.1047 -12.1038 -12.0991
   -12.0968 -12.0967 -12.0950 -12.0947 -12.0946 -12.0933 -12.0924 -12.0923
   -12.0906 -12.0884 -12.0863 -12.0859 -12.0830 -12.0808 -12.0765 -12.0754
   -12.0729 -12.0719 -12.0684 -12.0673 -12.0665 -12.0651 -12.0641 -12.0618
   -12.0597 -12.0586 -12.0557 -12.0540 -12.0454 -12.0448 -12.0408 -12.0391
   -12.0377 -12.0358 -12.0350 -12.0331 -12.0310 -12.0271 -12.0218 -12.0210
   -12.0195 -12.0169 -12.0142 -12.0096 -12.0089 -12.0060 -12.0041 -12.0038
   -12.0012 -12.0011 -11.9999 -11.9984 -11.9978 -11.9972 -11.9949 -11.9931
   -11.9886 -11.9854 -11.9848 -11.9846 -11.9842 -11.9808 -11.9789 -11.9786
   -11.9772 -11.9736 -11.9729 -11.9719 -11.9683 -11.9664 -11.9653 -11.9630
   -11.9623 -11.9617 -11.9586 -11.9561 -11.9475 -11.9459 -11.9436 -11.9423
   -11.9381 -11.9321 -11.9319 -11.9232 -11.9188 -11.9024 -11.8907 -11.8552
   -11.8514 -11.8487 -11.8354 -11.8333 -11.8306 -11.8206 -11.7929 -11.7781
   -11.7550 -11.7326 -11.7138 -11.7112 -11.6960 -11.6910 -11.6166 -11.6128
   -11.5733 -11.5676 -11.5476 -11.5370 -11.5309 -11.5179 -11.4933 -11.4551
   -11.3973 -11.3927 -11.3921 -11.3859 -11.3667 -11.3662 -11.3567 -11.3440
   -11.3410 -11.3320 -11.3272 -11.3054 -11.2910 -11.2835 -11.2802 -11.2704
   -11.2666 -11.2324 -11.1428 -11.1147 -11.1002 -11.0069 -11.0012 -11.0011
    -5.8370  -5.8369  -5.6722  -5.6721  -5.6659  -5.6656  -5.6486  -5.6454
    -5.5201  -5.5194  -5.4441  -5.4423  -5.3759  -5.3758  -5.3606  -5.3523
    -5.1794  -5.1765  -5.0508  -4.9909  -4.9871  -4.9577  -4.9444  -4.9208
    -4.8645  -4.7983  -4.7816  -4.7757  -4.7471  -4.7205  -4.7095  -4.7089
    -4.6953  -4.6745  -4.6575  -4.6391  -4.6220  -4.6097  -4.5782  -4.5535
    -4.4809  -4.3917  -4.3716  -4.3267  -4.3213  -4.3013  -4.2439  -4.2407
    -4.2300  -4.2212  -4.1958  -4.1867  -4.1587  -4.1432  -4.1265  -4.0954
    -4.0682  -4.0485  -3.9769  -3.8963  -3.8268  -3.8013  -3.7850  -3.7515
    -3.6851  -3.6598  -3.6553  -3.6352  -3.6209  -3.5805  -3.5298  -3.5266
    -3.4888  -3.4718  -3.4515  -3.4297  -3.4161  -3.4160  -3.3664  -3.3614
    -3.3399  -3.3232  -3.2771  -3.2583  -3.2492  -3.1831  -3.1499  -3.1361
    -3.0901  -3.0521  -3.0405  -3.0277  -3.0006  -2.9909  -2.9601  -2.9555
    -2.9408  -2.9374  -2.9280  -2.7977  -2.7776  -2.7700  -2.7698  -2.7629
    -2.7614  -2.7488  -2.7075  -2.6903  -2.6386  -2.6254  -2.6091  -2.5732
    -2.5632  -2.5560  -2.5076  -2.4571  -2.4475  -2.4297  -2.4291  -2.4059
    -2.3820  -2.3711  -2.3601  -2.3098  -2.2666  -2.2617  -2.2190  -2.1445
    -2.1406  -2.1350  -2.0838  -2.0834  -2.0801  -2.0698  -2.0180  -1.9914
    -1.9890  -1.9876  -1.9711  -1.9582  -1.9406  -1.9352  -1.9298  -1.9111
    -1.8993  -1.8875  -1.8502  -1.8010  -1.7944  -1.7837  -1.7792  -1.7653
    -1.7552  -1.7072  -1.6854  -1.6842  -1.6826  -1.6761  -1.6641  -1.6291
    -1.6060  -1.5996  -1.5907  -1.5818  -1.5764  -1.5702  -1.5589  -1.5332
    -1.5235  -1.5107  -1.5100  -1.5068  -1.4935  -1.4874  -1.4828  -1.4684
    -1.4595  -1.4482  -1.4018  -1.3777  -1.3592  -1.3511  -1.3199  -1.3061
    -1.2955  -1.2812  -1.2784  -1.2598  -1.2257  -1.2174  -1.1968  -1.1871
    -1.1729  -1.1532  -1.1386  -1.1361  -1.1296  -1.1128  -1.1109  -1.0731
    -1.0436  -0.9939  -0.9829  -0.9820  -0.9796  -0.9768  -0.9708  -0.9220
    -0.9206  -0.8845  -0.8564  -0.8350  -0.8317  -0.7991  -0.7960  -0.7834
    -0.7712  -0.7527  -0.7379  -0.7169  -0.7042  -0.6625  -0.6183  -0.6154
    -0.5899  -0.5851  -0.5679  -0.5596  -0.5507  -0.5258  -0.5199  -0.5192
    -0.4945  -0.4924  -0.4773  -0.4748  -0.4746  -0.4494  -0.4376  -0.4295
    -0.4207  -0.4108  -0.3766  -0.3760  -0.3512  -0.3464  -0.3258  -0.3217
    -0.3037  -0.2992  -0.2958  -0.2932  -0.2687  -0.2536  -0.2514  -0.2486
    -0.2474  -0.2388  -0.2345  -0.2214  -0.2209  -0.2101  -0.2017  -0.1949
    -0.1917  -0.1820  -0.1795  -0.1739  -0.1650  -0.1623  -0.1561  -0.1536
    -0.1510  -0.1508  -0.1401  -0.1390  -0.1100  -0.0954  -0.0942  -0.0792
    -0.0608  -0.0419  -0.0258  -0.0044   0.0070   0.0254   0.0388   0.0462
     1.2881   2.0016   2.8054   3.5987   3.8656   4.0240   4.0282   4.1759
     4.1946   4.2914   4.3246   4.3552   4.4716   4.6291   4.6969   4.7993

          k = 0.0738 0.0000 0.0000 (327527 PWs)   bands (ev):

   -18.2596 -18.2596 -18.1486 -18.1486 -18.1174 -18.1174 -18.0709 -18.0709
   -17.9176 -17.9176 -17.8547 -17.8547 -17.8248 -17.8248 -17.7681 -17.7681
   -17.7670 -17.7670 -17.7438 -17.7438 -17.6799 -17.6799 -17.6720 -17.6720
   -17.3275 -17.1949 -16.9831 -16.9762 -16.9704 -16.9204 -16.9082 -16.8734
   -16.8664 -16.8561 -16.8467 -16.8407 -16.8302 -16.7974 -16.7851 -16.7822
   -16.7669 -16.7569 -16.7481 -16.7455 -16.7443 -16.7427 -16.7353 -16.7261
   -16.7214 -16.6974 -16.6844 -16.6704 -16.6563 -16.6126 -16.5997 -16.5924
   -16.5726 -16.5595 -16.5330 -16.5323 -16.5254 -16.5212 -16.5113 -16.5079
   -16.4872 -16.4840 -16.4815 -16.4811 -16.4779 -16.4694 -16.4606 -16.4586
   -16.4535 -16.4500 -16.4487 -16.4416 -16.4379 -16.4234 -16.4232 -16.4073
   -16.3883 -16.3873 -16.3803 -16.3741 -16.3547 -16.3522 -16.3411 -16.3221
   -16.3207 -16.3061 -16.3056 -16.2922 -16.2888 -16.2809 -16.2076 -16.1474
   -12.3986 -12.3977 -12.3968 -12.3740 -12.3681 -12.3674 -12.3591 -12.3589
   -12.3493 -12.3490 -12.3420 -12.3417 -12.3388 -12.3384 -12.3382 -12.3341
   -12.3324 -12.3271 -12.3269 -12.3254 -12.3236 -12.3222 -12.3201 -12.3168
   -12.3163 -12.3149 -12.3123 -12.3119 -12.3109 -12.3065 -12.3054 -12.3051
   -12.3033 -12.3009 -12.3008 -12.3001 -12.2993 -12.2952 -12.2905 -12.2898
   -12.2835 -12.2795 -12.2770 -12.2768 -12.2767 -12.2741 -12.2713 -12.2684
   -12.2664 -12.2641 -12.2613 -12.2601 -12.2586 -12.2570 -12.2558 -12.2543
   -12.2512 -12.2498 -12.2493 -12.2479 -12.2469 -12.2460 -12.2442 -12.2426
   -12.2420 -12.2383 -12.2382 -12.2378 -12.2353 -12.2335 -12.2330 -12.2300
   -12.2294 -12.2283 -12.2273 -12.2269 -12.2267 -12.2248 -12.2208 -12.2201
   -12.2171 -12.2170 -12.2168 -12.2145 -12.2124 -12.2117 -12.2100 -12.2095
   -12.2035 -12.2020 -12.2020 -12.1990 -12.1981 -12.1964 -12.1961 -12.1945
   -12.1941 -12.1909 -12.1898 -12.1874 -12.1838 -12.1805 -12.1789 -12.1766
   -12.1723 -12.1700 -12.1691 -12.1661 -12.1619 -12.1578 -12.1575 -12.1569
   -12.1539 -12.1532 -12.1502 -12.1501 -12.1487 -12.1454 -12.1397 -12.1367
   -12.1360 -12.1315 -12.1295 -12.1292 -12.1274 -12.1258 -12.1237 -12.1235
   -12.1222 -12.1217 -12.1176 -12.1174 -12.1147 -12.1142 -12.1131 -12.1124
   -12.1108 -12.1090 -12.1082 -12.1078 -12.1045 -12.1043 -12.1036 -12.0991
   -12.0975 -12.0972 -12.0948 -12.0942 -12.0941 -12.0929 -12.0918 -12.0912
   -12.0900 -12.0882 -12.0869 -12.0850 -12.0824 -12.0813 -12.0766 -12.0746
   -12.0727 -12.0718 -12.0675 -12.0672 -12.0663 -12.0654 -12.0652 -12.0607
   -12.0606 -12.0582 -12.0557 -12.0541 -12.0454 -12.0433 -12.0413 -12.0400
   -12.0369 -12.0360 -12.0349 -12.0313 -12.0302 -12.0261 -12.0211 -12.0210
   -12.0189 -12.0171 -12.0150 -12.0097 -12.0091 -12.0064 -12.0043 -12.0029
   -12.0014 -12.0009 -11.9999 -11.9983 -11.9977 -11.9972 -11.9934 -11.9927
   -11.9886 -11.9855 -11.9850 -11.9846 -11.9842 -11.9812 -11.9788 -11.9786
   -11.9775 -11.9735 -11.9733 -11.9723 -11.9686 -11.9675 -11.9656 -11.9637
   -11.9623 -11.9618 -11.9580 -11.9548 -11.9475 -11.9455 -11.9450 -11.9424
   -11.9381 -11.9315 -11.9312 -11.9217 -11.9212 -11.9004 -11.8965 -11.8628
   -11.8492 -11.8419 -11.8356 -11.8348 -11.8303 -11.8143 -11.7950 -11.7742
   -11.7557 -11.7350 -11.7151 -11.7063 -11.7028 -11.6870 -11.6194 -11.6190
   -11.5701 -11.5658 -11.5482 -11.5422 -11.5304 -11.5150 -11.4924 -11.4501
   -11.4014 -11.4004 -11.3947 -11.3894 -11.3686 -11.3613 -11.3552 -11.3423
   -11.3327 -11.3302 -11.3228 -11.3044 -11.2914 -11.2891 -11.2841 -11.2707
   -11.2664 -11.2236 -11.1431 -11.1156 -11.1010 -11.0078 -11.0031 -11.0025
    -5.8361  -5.8360  -5.6721  -5.6720  -5.6688  -5.6684  -5.6477  -5.6447
    -5.5211  -5.5204  -5.4466  -5.4448  -5.3729  -5.3728  -5.3574  -5.3494
    -5.1756  -5.1728  -5.0482  -4.9907  -4.9847  -4.9596  -4.9418  -4.9210
    -4.8617  -4.8000  -4.7800  -4.7769  -4.7502  -4.7196  -4.7065  -4.7044
    -4.6932  -4.6789  -4.6638  -4.6384  -4.6182  -4.6111  -4.5790  -4.5529
    -4.4862  -4.4011  -4.3761  -4.3292  -4.3238  -4.3151  -4.2516  -4.2456
    -4.2193  -4.2193  -4.1971  -4.1908  -4.1603  -4.1401  -4.1117  -4.0907
    -4.0658  -4.0543  -3.9769  -3.8825  -3.8280  -3.8270  -3.7888  -3.7589
    -3.6772  -3.6639  -3.6622  -3.6622  -3.6352  -3.6053  -3.5264  -3.5136
    -3.4886  -3.4601  -3.4485  -3.4289  -3.4178  -3.4139  -3.3616  -3.3454
    -3.3209  -3.2988  -3.2688  -3.2602  -3.2462  -3.1764  -3.1350  -3.1347
    -3.0945  -3.0520  -3.0388  -3.0292  -2.9970  -2.9861  -2.9600  -2.9532
    -2.9447  -2.9402  -2.9254  -2.8034  -2.7796  -2.7706  -2.7670  -2.7630
    -2.7530  -2.7468  -2.7018  -2.6887  -2.6379  -2.6218  -2.6083  -2.5742
    -2.5679  -2.5527  -2.5110  -2.4672  -2.4526  -2.4340  -2.4326  -2.3928
    -2.3767  -2.3666  -2.3599  -2.3051  -2.2633  -2.2561  -2.2204  -2.1521
    -2.1446  -2.1435  -2.0890  -2.0826  -2.0805  -2.0789  -2.0229  -2.0063
    -1.9906  -1.9882  -1.9684  -1.9530  -1.9401  -1.9346  -1.9286  -1.9159
    -1.8993  -1.8818  -1.8501  -1.8054  -1.7977  -1.7884  -1.7831  -1.7655
    -1.7499  -1.7092  -1.6830  -1.6830  -1.6823  -1.6811  -1.6575  -1.6357
    -1.6088  -1.5977  -1.5917  -1.5851  -1.5784  -1.5738  -1.5586  -1.5332
    -1.5317  -1.5171  -1.5132  -1.4947  -1.4867  -1.4822  -1.4773  -1.4738
    -1.4702  -1.4393  -1.3992  -1.3810  -1.3619  -1.3451  -1.3213  -1.3122
    -1.2897  -1.2671  -1.2640  -1.2567  -1.2267  -1.2155  -1.1884  -1.1857
    -1.1760  -1.1527  -1.1366  -1.1262  -1.1240  -1.1227  -1.1214  -1.0716
    -1.0463  -0.9978  -0.9914  -0.9871  -0.9808  -0.9721  -0.9647  -0.9283
    -0.9080  -0.8748  -0.8558  -0.8427  -0.8412  -0.8001  -0.7935  -0.7777
    -0.7732  -0.7523  -0.7418  -0.7060  -0.7009  -0.6665  -0.6196  -0.6185
    -0.5951  -0.5944  -0.5785  -0.5616  -0.5446  -0.5292  -0.5218  -0.5174
    -0.5030  -0.4922  -0.4776  -0.4750  -0.4728  -0.4468  -0.4364  -0.4241
    -0.4223  -0.4169  -0.3780  -0.3771  -0.3528  -0.3446  -0.3345  -0.3290
    -0.3048  -0.3024  -0.2985  -0.2882  -0.2633  -0.2558  -0.2545  -0.2498
    -0.2476  -0.2386  -0.2293  -0.2215  -0.2202  -0.2100  -0.2021  -0.2009
    -0.1948  -0.1780  -0.1771  -0.1726  -0.1634  -0.1629  -0.1574  -0.1555
    -0.1500  -0.1473  -0.1456  -0.1438  -0.1061  -0.0953  -0.0922  -0.0756
    -0.0587  -0.0403  -0.0276  -0.0061   0.0079   0.0256   0.0396   0.0446
     1.3087   2.0153   2.8153   3.6061   3.7871   4.0275   4.0302   4.1302
     4.2493   4.2965   4.3304   4.3589   4.5396   4.5708   4.7002   4.8013

          k = 0.0984 0.0000 0.0000 (327513 PWs)   bands (ev):

   -18.2587 -18.2587 -18.1502 -18.1502 -18.1170 -18.1170 -18.0714 -18.0714
   -17.9168 -17.9168 -17.8555 -17.8555 -17.8239 -17.8239 -17.7677 -17.7677
   -17.7666 -17.7666 -17.7445 -17.7445 -17.6800 -17.6800 -17.6722 -17.6722
   -17.3254 -17.1932 -16.9955 -16.9751 -16.9692 -16.9198 -16.9196 -16.8734
   -16.8578 -16.8561 -16.8464 -16.8342 -16.8316 -16.8015 -16.7904 -16.7817
   -16.7697 -16.7594 -16.7444 -16.7443 -16.7440 -16.7410 -16.7341 -16.7230
   -16.7145 -16.6920 -16.6833 -16.6697 -16.6574 -16.6124 -16.6003 -16.5924
   -16.5723 -16.5596 -16.5334 -16.5330 -16.5247 -16.5211 -16.5119 -16.5080
   -16.4886 -16.4859 -16.4812 -16.4806 -16.4766 -16.4679 -16.4611 -16.4577
   -16.4536 -16.4505 -16.4499 -16.4426 -16.4373 -16.4259 -16.4231 -16.4088
   -16.3885 -16.3872 -16.3808 -16.3752 -16.3542 -16.3516 -16.3428 -16.3226
   -16.3176 -16.3072 -16.3062 -16.2925 -16.2888 -16.2780 -16.2084 -16.1484
   -12.3979 -12.3968 -12.3964 -12.3735 -12.3674 -12.3668 -12.3591 -12.3588
   -12.3492 -12.3483 -12.3419 -12.3418 -12.3391 -12.3378 -12.3375 -12.3340
   -12.3319 -12.3268 -12.3267 -12.3250 -12.3232 -12.3229 -12.3198 -12.3169
   -12.3157 -12.3142 -12.3131 -12.3125 -12.3110 -12.3071 -12.3050 -12.3045
   -12.3035 -12.3018 -12.3013 -12.3012 -12.3002 -12.2946 -12.2903 -12.2893
   -12.2836 -12.2802 -12.2798 -12.2780 -12.2765 -12.2742 -12.2715 -12.2702
   -12.2663 -12.2648 -12.2616 -12.2612 -12.2576 -12.2570 -12.2549 -12.2545
   -12.2526 -12.2502 -12.2498 -12.2486 -12.2465 -12.2459 -12.2432 -12.2413
   -12.2411 -12.2386 -12.2379 -12.2367 -12.2351 -12.2332 -12.2324 -12.2300
   -12.2292 -12.2278 -12.2275 -12.2271 -12.2268 -12.2237 -12.2214 -12.2203
   -12.2174 -12.2173 -12.2170 -12.2143 -12.2127 -12.2113 -12.2107 -12.2090
   -12.2031 -12.2020 -12.2011 -12.1991 -12.1987 -12.1963 -12.1959 -12.1949
   -12.1944 -12.1901 -12.1895 -12.1864 -12.1835 -12.1807 -12.1794 -12.1773
   -12.1736 -12.1711 -12.1708 -12.1679 -12.1619 -12.1588 -12.1572 -12.1571
   -12.1536 -12.1524 -12.1506 -12.1499 -12.1491 -12.1460 -12.1397 -12.1366
   -12.1366 -12.1319 -12.1312 -12.1286 -12.1283 -12.1258 -12.1236 -12.1231
   -12.1228 -12.1209 -12.1191 -12.1182 -12.1140 -12.1136 -12.1134 -12.1119
   -12.1114 -12.1095 -12.1084 -12.1077 -12.1051 -12.1037 -12.1028 -12.0991
   -12.0982 -12.0976 -12.0951 -12.0937 -12.0930 -12.0924 -12.0913 -12.0901
   -12.0894 -12.0879 -12.0875 -12.0838 -12.0819 -12.0819 -12.0768 -12.0749
   -12.0715 -12.0713 -12.0678 -12.0668 -12.0662 -12.0653 -12.0651 -12.0612
   -12.0593 -12.0579 -12.0556 -12.0538 -12.0460 -12.0416 -12.0413 -12.0409
   -12.0363 -12.0357 -12.0346 -12.0304 -12.0292 -12.0247 -12.0213 -12.0197
   -12.0179 -12.0174 -12.0158 -12.0098 -12.0094 -12.0068 -12.0048 -12.0017
   -12.0014 -12.0008 -12.0000 -11.9980 -11.9976 -11.9971 -11.9921 -11.9919
   -11.9886 -11.9852 -11.9851 -11.9846 -11.9843 -11.9818 -11.9787 -11.9787
   -11.9779 -11.9740 -11.9734 -11.9729 -11.9692 -11.9685 -11.9660 -11.9644
   -11.9623 -11.9618 -11.9577 -11.9534 -11.9475 -11.9463 -11.9449 -11.9424
   -11.9385 -11.9310 -11.9304 -11.9235 -11.9197 -11.9025 -11.8985 -11.8703
   -11.8465 -11.8373 -11.8359 -11.8333 -11.8300 -11.8113 -11.7949 -11.7695
   -11.7566 -11.7361 -11.7170 -11.7107 -11.7026 -11.6812 -11.6273 -11.6220
   -11.5734 -11.5577 -11.5479 -11.5478 -11.5299 -11.5128 -11.4910 -11.4451
   -11.4080 -11.4079 -11.3952 -11.3915 -11.3711 -11.3563 -11.3536 -11.3408
   -11.3337 -11.3186 -11.3176 -11.3030 -11.2978 -11.2919 -11.2850 -11.2711
   -11.2661 -11.2145 -11.1435 -11.1167 -11.1021 -11.0091 -11.0057 -11.0044
    -5.8349  -5.8348  -5.6724  -5.6720  -5.6719  -5.6718  -5.6469  -5.6440
    -5.5222  -5.5215  -5.4498  -5.4480  -5.3690  -5.3689  -5.3532  -5.3454
    -5.1704  -5.1677  -5.0446  -4.9903  -4.9816  -4.9617  -4.9384  -4.9209
    -4.8579  -4.8021  -4.7785  -4.7779  -4.7545  -4.7184  -4.7040  -4.6981
    -4.6890  -4.6851  -4.6715  -4.6384  -4.6132  -4.6130  -4.5800  -4.5520
    -4.4933  -4.4142  -4.3826  -4.3332  -4.3276  -4.3272  -4.2613  -4.2504
    -4.2191  -4.2112  -4.2060  -4.1841  -4.1624  -4.1366  -4.0965  -4.0844
    -4.0625  -4.0586  -3.9768  -3.8694  -3.8558  -3.8297  -3.7910  -3.7669
    -3.7026  -3.7009  -3.6675  -3.6656  -3.6353  -3.6053  -3.5262  -3.4911
    -3.4883  -3.4633  -3.4371  -3.4279  -3.4200  -3.4111  -3.3617  -3.3252
    -3.3180  -3.2719  -3.2534  -3.2525  -3.2421  -3.1674  -3.1335  -3.1149
    -3.1003  -3.0520  -3.0327  -3.0307  -2.9920  -2.9801  -2.9590  -2.9544
    -2.9500  -2.9392  -2.9224  -2.8089  -2.7817  -2.7716  -2.7636  -2.7634
    -2.7440  -2.7438  -2.6950  -2.6865  -2.6373  -2.6181  -2.6080  -2.5745
    -2.5731  -2.5481  -2.5155  -2.4754  -2.4593  -2.4391  -2.4382  -2.3812
    -2.3699  -2.3599  -2.3588  -2.2997  -2.2590  -2.2496  -2.2215  -2.1635
    -2.1539  -2.1495  -2.1008  -2.0935  -2.0812  -2.0767  -2.0257  -2.0221
    -1.9889  -1.9877  -1.9649  -1.9508  -1.9452  -1.9307  -1.9225  -1.9222
    -1.9031  -1.8763  -1.8494  -1.8147  -1.8026  -1.7954  -1.7839  -1.7659
    -1.7436  -1.7121  -1.6895  -1.6853  -1.6824  -1.6779  -1.6463  -1.6433
    -1.6110  -1.6011  -1.5957  -1.5932  -1.5758  -1.5708  -1.5582  -1.5428
    -1.5291  -1.5228  -1.5177  -1.4885  -1.4824  -1.4805  -1.4790  -1.4717
    -1.4702  -1.4287  -1.3956  -1.3849  -1.3655  -1.3372  -1.3204  -1.3194
    -1.2829  -1.2560  -1.2496  -1.2484  -1.2281  -1.2133  -1.1849  -1.1783
    -1.1758  -1.1519  -1.1382  -1.1328  -1.1318  -1.1220  -1.1105  -1.0693
    -1.0494  -1.0055  -1.0011  -0.9933  -0.9776  -0.9664  -0.9577  -0.9333
    -0.8943  -0.8660  -0.8549  -0.8537  -0.8476  -0.8014  -0.7955  -0.7759
    -0.7743  -0.7517  -0.7425  -0.6977  -0.6923  -0.6725  -0.6212  -0.6209
    -0.6043  -0.6023  -0.5920  -0.5635  -0.5392  -0.5322  -0.5241  -0.5161
    -0.5139  -0.4959  -0.4777  -0.4725  -0.4709  -0.4435  -0.4353  -0.4249
    -0.4248  -0.4181  -0.3794  -0.3783  -0.3544  -0.3435  -0.3424  -0.3372
    -0.3090  -0.3068  -0.2988  -0.2833  -0.2612  -0.2582  -0.2557  -0.2517
    -0.2488  -0.2385  -0.2253  -0.2231  -0.2189  -0.2076  -0.2065  -0.2058
    -0.1954  -0.1771  -0.1729  -0.1709  -0.1662  -0.1602  -0.1595  -0.1578
    -0.1529  -0.1479  -0.1449  -0.1427  -0.1031  -0.0952  -0.0903  -0.0715
    -0.0562  -0.0382  -0.0297  -0.0085   0.0091   0.0260   0.0406   0.0423
     1.3369   2.0343   2.8290   3.6164   3.7079   4.0088   4.0389   4.0859
     4.3036   4.3153   4.3386   4.3670   4.5163   4.6062   4.7047   4.8033

          k = 0.1230 0.0000 0.0000 (327497 PWs)   bands (ev):

   -18.2575 -18.2575 -18.1523 -18.1523 -18.1164 -18.1164 -18.0720 -18.0720
   -17.9158 -17.9158 -17.8564 -17.8564 -17.8227 -17.8227 -17.7673 -17.7673
   -17.7661 -17.7661 -17.7454 -17.7454 -17.6801 -17.6801 -17.6725 -17.6725
   -17.3227 -17.1910 -17.0088 -16.9737 -16.9677 -16.9316 -16.9186 -16.8735
   -16.8565 -16.8496 -16.8459 -16.8334 -16.8285 -16.8066 -16.7964 -16.7810
   -16.7725 -16.7608 -16.7460 -16.7422 -16.7392 -16.7377 -16.7327 -16.7189
   -16.7079 -16.6861 -16.6817 -16.6687 -16.6588 -16.6123 -16.6011 -16.5924
   -16.5720 -16.5598 -16.5348 -16.5331 -16.5239 -16.5209 -16.5125 -16.5082
   -16.4900 -16.4881 -16.4811 -16.4796 -16.4751 -16.4662 -16.4617 -16.4573
   -16.4536 -16.4510 -16.4509 -16.4440 -16.4369 -16.4288 -16.4231 -16.4103
   -16.3887 -16.3872 -16.3814 -16.3765 -16.3535 -16.3508 -16.3445 -16.3230
   -16.3143 -16.3085 -16.3068 -16.2929 -16.2888 -16.2744 -16.2093 -16.1496
   -12.3970 -12.3959 -12.3957 -12.3729 -12.3665 -12.3660 -12.3590 -12.3587
   -12.3490 -12.3474 -12.3420 -12.3415 -12.3395 -12.3372 -12.3365 -12.3340
   -12.3312 -12.3265 -12.3263 -12.3246 -12.3238 -12.3227 -12.3194 -12.3171
   -12.3150 -12.3142 -12.3134 -12.3128 -12.3112 -12.3079 -12.3049 -12.3038
   -12.3038 -12.3030 -12.3023 -12.3017 -12.3008 -12.2940 -12.2900 -12.2888
   -12.2839 -12.2832 -12.2800 -12.2793 -12.2765 -12.2743 -12.2720 -12.2715
   -12.2662 -12.2657 -12.2623 -12.2620 -12.2581 -12.2560 -12.2544 -12.2544
   -12.2542 -12.2512 -12.2498 -12.2492 -12.2472 -12.2451 -12.2423 -12.2405
   -12.2399 -12.2389 -12.2377 -12.2355 -12.2349 -12.2329 -12.2315 -12.2303
   -12.2289 -12.2278 -12.2274 -12.2272 -12.2262 -12.2227 -12.2221 -12.2202
   -12.2177 -12.2176 -12.2173 -12.2141 -12.2139 -12.2114 -12.2103 -12.2086
   -12.2027 -12.2020 -12.2001 -12.1995 -12.1991 -12.1963 -12.1954 -12.1953
   -12.1944 -12.1893 -12.1890 -12.1858 -12.1828 -12.1810 -12.1800 -12.1781
   -12.1753 -12.1731 -12.1718 -12.1695 -12.1619 -12.1603 -12.1575 -12.1567
   -12.1534 -12.1517 -12.1516 -12.1509 -12.1480 -12.1465 -12.1399 -12.1372
   -12.1361 -12.1344 -12.1313 -12.1291 -12.1278 -12.1258 -12.1251 -12.1227
   -12.1223 -12.1208 -12.1199 -12.1191 -12.1144 -12.1131 -12.1131 -12.1117
   -12.1112 -12.1096 -12.1083 -12.1077 -12.1056 -12.1033 -12.1022 -12.0991
   -12.0989 -12.0979 -12.0953 -12.0932 -12.0920 -12.0919 -12.0910 -12.0892
   -12.0887 -12.0880 -12.0876 -12.0826 -12.0822 -12.0815 -12.0768 -12.0757
   -12.0707 -12.0706 -12.0680 -12.0667 -12.0667 -12.0650 -12.0634 -12.0606
   -12.0579 -12.0578 -12.0556 -12.0534 -12.0467 -12.0419 -12.0410 -12.0403
   -12.0367 -12.0344 -12.0341 -12.0298 -12.0283 -12.0234 -12.0215 -12.0179
   -12.0177 -12.0168 -12.0163 -12.0100 -12.0097 -12.0073 -12.0053 -12.0020
   -12.0006 -12.0002 -11.9998 -11.9977 -11.9976 -11.9970 -11.9910 -11.9909
   -11.9886 -11.9853 -11.9848 -11.9845 -11.9841 -11.9824 -11.9790 -11.9788
   -11.9780 -11.9749 -11.9736 -11.9733 -11.9703 -11.9690 -11.9665 -11.9650
   -11.9623 -11.9619 -11.9575 -11.9526 -11.9476 -11.9468 -11.9443 -11.9424
   -11.9394 -11.9305 -11.9294 -11.9254 -11.9174 -11.9080 -11.8967 -11.8775
   -11.8442 -11.8375 -11.8355 -11.8297 -11.8260 -11.8134 -11.7909 -11.7649
   -11.7576 -11.7359 -11.7193 -11.7188 -11.6998 -11.6749 -11.6349 -11.6256
   -11.5776 -11.5545 -11.5540 -11.5417 -11.5297 -11.5115 -11.4894 -11.4417
   -11.4153 -11.4144 -11.3953 -11.3912 -11.3739 -11.3520 -11.3511 -11.3394
   -11.3349 -11.3155 -11.3071 -11.3030 -11.3010 -11.2925 -11.2860 -11.2715
   -11.2658 -11.2052 -11.1439 -11.1180 -11.1035 -11.0107 -11.0090 -11.0069
    -5.8333  -5.8332  -5.6766  -5.6759  -5.6719  -5.6717  -5.6463  -5.6436
    -5.5235  -5.5228  -5.4534  -5.4516  -5.3645  -5.3644  -5.3480  -5.3405
    -5.1638  -5.1613  -5.0403  -4.9899  -4.9780  -4.9640  -4.9344  -4.9200
    -4.8530  -4.8044  -4.7806  -4.7753  -4.7598  -4.7168  -4.7025  -4.6928
    -4.6902  -4.6824  -4.6805  -4.6394  -4.6159  -4.6063  -4.5813  -4.5507
    -4.5022  -4.4302  -4.3910  -4.3391  -4.3385  -4.3315  -4.2725  -4.2549
    -4.2204  -4.2131  -4.2057  -4.1769  -4.1650  -4.1332  -4.0814  -4.0770
    -4.0603  -4.0585  -3.9765  -3.8849  -3.8629  -3.8319  -3.7882  -3.7802
    -3.7409  -3.7395  -3.6698  -3.6565  -3.6354  -3.5991  -3.5258  -3.4879
    -3.4686  -3.4644  -3.4270  -3.4270  -3.4226  -3.4077  -3.3618  -3.3148
    -3.3118  -3.2715  -3.2370  -3.2279  -3.2268  -3.1561  -3.1313  -3.1068
    -3.0960  -3.0518  -3.0319  -3.0159  -2.9856  -2.9740  -2.9654  -2.9564
    -2.9456  -2.9377  -2.9191  -2.8138  -2.7836  -2.7732  -2.7646  -2.7597
    -2.7397  -2.7342  -2.6875  -2.6834  -2.6368  -2.6153  -2.6091  -2.5773
    -2.5730  -2.5425  -2.5208  -2.4814  -2.4672  -2.4462  -2.4444  -2.3733
    -2.3624  -2.3552  -2.3515  -2.2940  -2.2543  -2.2444  -2.2205  -2.1797
    -2.1653  -2.1547  -2.1146  -2.1103  -2.0796  -2.0726  -2.0379  -2.0250
    -1.9899  -1.9822  -1.9611  -1.9611  -1.9366  -1.9295  -1.9289  -1.9164
    -1.9100  -1.8713  -1.8481  -1.8276  -1.8095  -1.8000  -1.7872  -1.7666
    -1.7369  -1.7156  -1.6976  -1.6898  -1.6806  -1.6758  -1.6510  -1.6347
    -1.6164  -1.6138  -1.5955  -1.5932  -1.5815  -1.5596  -1.5575  -1.5522
    -1.5274  -1.5254  -1.5237  -1.4992  -1.4785  -1.4754  -1.4741  -1.4722
    -1.4590  -1.4176  -1.3907  -1.3887  -1.3696  -1.3304  -1.3276  -1.3150
    -1.2756  -1.2509  -1.2372  -1.2332  -1.2296  -1.2108  -1.1856  -1.1714
    -1.1680  -1.1565  -1.1532  -1.1404  -1.1263  -1.1167  -1.0958  -1.0661
    -1.0525  -1.0173  -1.0097  -0.9973  -0.9731  -0.9603  -0.9508  -0.9371
    -0.8802  -0.8635  -0.8584  -0.8541  -0.8538  -0.8031  -0.8030  -0.7788
    -0.7738  -0.7506  -0.7390  -0.6947  -0.6800  -0.6773  -0.6230  -0.6221
    -0.6145  -0.6113  -0.6072  -0.5647  -0.5345  -0.5345  -0.5268  -0.5266
    -0.5157  -0.5020  -0.4762  -0.4699  -0.4697  -0.4399  -0.4357  -0.4328
    -0.4284  -0.4119  -0.3804  -0.3795  -0.3560  -0.3525  -0.3458  -0.3401
    -0.3157  -0.3099  -0.2993  -0.2788  -0.2666  -0.2587  -0.2543  -0.2533
    -0.2511  -0.2386  -0.2256  -0.2246  -0.2175  -0.2123  -0.2102  -0.2015
    -0.1944  -0.1769  -0.1734  -0.1703  -0.1694  -0.1619  -0.1595  -0.1552
    -0.1540  -0.1508  -0.1425  -0.1373  -0.1010  -0.0947  -0.0882  -0.0673
    -0.0541  -0.0356  -0.0315  -0.0116   0.0105   0.0264   0.0395   0.0417
     1.3720   2.0583   2.8464   3.6282   3.6296   3.9549   4.0500   4.0788
     4.3126   4.3395   4.3490   4.4037   4.4761   4.6704   4.7105   4.8046

          k = 0.1476 0.0000 0.0000 (327527 PWs)   bands (ev):

   -18.2560 -18.2560 -18.1547 -18.1547 -18.1157 -18.1157 -18.0727 -18.0727
   -17.9147 -17.9147 -17.8576 -17.8575 -17.8212 -17.8212 -17.7668 -17.7668
   -17.7655 -17.7655 -17.7464 -17.7464 -17.6803 -17.6803 -17.6729 -17.6729
   -17.3195 -17.1883 -17.0227 -16.9719 -16.9659 -16.9435 -16.9175 -16.8736
   -16.8572 -16.8454 -16.8424 -16.8355 -16.8239 -16.8120 -16.8029 -16.7802
   -16.7750 -16.7611 -16.7476 -16.7401 -16.7346 -16.7330 -16.7313 -16.7139
   -16.7020 -16.6799 -16.6791 -16.6674 -16.6605 -16.6121 -16.6020 -16.5924
   -16.5716 -16.5600 -16.5363 -16.5332 -16.5229 -16.5207 -16.5132 -16.5085
   -16.4915 -16.4906 -16.4809 -16.4785 -16.4736 -16.4644 -16.4624 -16.4582
   -16.4536 -16.4517 -16.4509 -16.4456 -16.4369 -16.4318 -16.4231 -16.4114
   -16.3890 -16.3874 -16.3821 -16.3781 -16.3528 -16.3499 -16.3462 -16.3232
   -16.3109 -16.3101 -16.3077 -16.2933 -16.2889 -16.2704 -16.2105 -16.1511
   -12.3959 -12.3952 -12.3944 -12.3722 -12.3655 -12.3650 -12.3589 -12.3585
   -12.3488 -12.3464 -12.3421 -12.3412 -12.3399 -12.3366 -12.3352 -12.3339
   -12.3303 -12.3264 -12.3259 -12.3248 -12.3242 -12.3222 -12.3192 -12.3175
   -12.3150 -12.3142 -12.3131 -12.3126 -12.3119 -12.3088 -12.3049 -12.3045
   -12.3041 -12.3035 -12.3033 -12.3019 -12.3010 -12.2935 -12.2898 -12.2886
   -12.2859 -12.2842 -12.2807 -12.2802 -12.2768 -12.2745 -12.2727 -12.2722
   -12.2669 -12.2660 -12.2634 -12.2624 -12.2585 -12.2559 -12.2557 -12.2550
   -12.2540 -12.2516 -12.2497 -12.2497 -12.2482 -12.2443 -12.2414 -12.2402
   -12.2393 -12.2386 -12.2377 -12.2346 -12.2342 -12.2324 -12.2307 -12.2306
   -12.2286 -12.2278 -12.2277 -12.2267 -12.2257 -12.2229 -12.2217 -12.2195
   -12.2182 -12.2180 -12.2175 -12.2152 -12.2137 -12.2122 -12.2094 -12.2083
   -12.2023 -12.2021 -12.2004 -12.1992 -12.1991 -12.1963 -12.1957 -12.1949
   -12.1944 -12.1891 -12.1878 -12.1856 -12.1816 -12.1816 -12.1806 -12.1788
   -12.1775 -12.1749 -12.1729 -12.1708 -12.1620 -12.1619 -12.1579 -12.1569
   -12.1537 -12.1532 -12.1513 -12.1509 -12.1470 -12.1468 -12.1404 -12.1377
   -12.1368 -12.1355 -12.1316 -12.1297 -12.1269 -12.1266 -12.1257 -12.1226
   -12.1225 -12.1219 -12.1203 -12.1189 -12.1157 -12.1131 -12.1119 -12.1117
   -12.1102 -12.1096 -12.1080 -12.1077 -12.1059 -12.1030 -12.1017 -12.0995
   -12.0992 -12.0980 -12.0956 -12.0926 -12.0915 -12.0911 -12.0910 -12.0887
   -12.0883 -12.0878 -12.0871 -12.0829 -12.0813 -12.0805 -12.0768 -12.0766
   -12.0700 -12.0699 -12.0680 -12.0668 -12.0667 -12.0646 -12.0616 -12.0591
   -12.0579 -12.0565 -12.0554 -12.0527 -12.0474 -12.0429 -12.0404 -12.0395
   -12.0371 -12.0340 -12.0325 -12.0294 -12.0273 -12.0224 -12.0218 -12.0181
   -12.0176 -12.0160 -12.0140 -12.0101 -12.0101 -12.0079 -12.0058 -12.0025
   -12.0005 -12.0004 -11.9986 -11.9975 -11.9973 -11.9965 -11.9904 -11.9894
   -11.9887 -11.9852 -11.9850 -11.9845 -11.9829 -11.9827 -11.9797 -11.9789
   -11.9778 -11.9762 -11.9743 -11.9732 -11.9714 -11.9694 -11.9670 -11.9652
   -11.9624 -11.9619 -11.9576 -11.9530 -11.9477 -11.9462 -11.9440 -11.9423
   -11.9407 -11.9299 -11.9285 -11.9270 -11.9150 -11.9128 -11.8949 -11.8841
   -11.8437 -11.8383 -11.8321 -11.8295 -11.8183 -11.8180 -11.7855 -11.7617
   -11.7588 -11.7344 -11.7253 -11.7221 -11.6977 -11.6708 -11.6395 -11.6295
   -11.5825 -11.5605 -11.5555 -11.5308 -11.5299 -11.5113 -11.4874 -11.4410
   -11.4230 -11.4194 -11.3953 -11.3881 -11.3771 -11.3503 -11.3457 -11.3381
   -11.3365 -11.3221 -11.3012 -11.2991 -11.2935 -11.2931 -11.2872 -11.2716
   -11.2655 -11.1959 -11.1445 -11.1196 -11.1052 -11.0130 -11.0127 -11.0099
    -5.8313  -5.8312  -5.6812  -5.6805  -5.6717  -5.6715  -5.6460  -5.6434
    -5.5248  -5.5241  -5.4574  -5.4555  -5.3594  -5.3594  -5.3421  -5.3350
    -5.1558  -5.1537  -5.0352  -4.9894  -4.9741  -4.9661  -4.9295  -4.9176
    -4.8471  -4.8067  -4.7831  -4.7730  -4.7655  -4.7149  -4.7019  -4.7016
    -4.6906  -4.6809  -4.6739  -4.6415  -4.6192  -4.5983  -4.5828  -4.5493
    -4.5124  -4.4482  -4.4013  -4.3482  -4.3473  -4.3366  -4.2847  -4.2590
    -4.2228  -4.2183  -4.2031  -4.1700  -4.1681  -4.1301  -4.0694  -4.0667
    -4.0592  -4.0538  -3.9759  -3.9127  -3.8687  -3.8345  -3.8103  -3.7808
    -3.7671  -3.7648  -3.6747  -3.6447  -3.6356  -3.5923  -3.5253  -3.4875
    -3.4742  -3.4355  -3.4262  -3.4254  -3.4178  -3.4038  -3.3618  -3.3114
    -3.3040  -3.2748  -3.2312  -3.2063  -3.1961  -3.1433  -3.1280  -3.1130
    -3.0843  -3.0517  -3.0326  -2.9861  -2.9806  -2.9778  -2.9647  -2.9494
    -2.9399  -2.9355  -2.9159  -2.8184  -2.7851  -2.7754  -2.7675  -2.7557
    -2.7332  -2.7246  -2.6800  -2.6797  -2.6367  -2.6140  -2.6127  -2.5790
    -2.5693  -2.5365  -2.5262  -2.4847  -2.4759  -2.4562  -2.4492  -2.3703
    -2.3547  -2.3485  -2.3419  -2.2887  -2.2493  -2.2426  -2.2164  -2.1998
    -2.1770  -2.1597  -2.1294  -2.1258  -2.0790  -2.0687  -2.0522  -2.0220
    -1.9913  -1.9754  -1.9712  -1.9574  -1.9369  -1.9284  -1.9273  -1.9185
    -1.9104  -1.8669  -1.8462  -1.8408  -1.8186  -1.8041  -1.7938  -1.7680
    -1.7303  -1.7194  -1.7069  -1.6952  -1.6785  -1.6757  -1.6588  -1.6285
    -1.6242  -1.6176  -1.5995  -1.5901  -1.5893  -1.5617  -1.5565  -1.5525
    -1.5312  -1.5309  -1.5215  -1.4972  -1.4785  -1.4723  -1.4710  -1.4688
    -1.4472  -1.4076  -1.3921  -1.3843  -1.3735  -1.3416  -1.3169  -1.3090
    -1.2684  -1.2476  -1.2312  -1.2251  -1.2198  -1.2071  -1.1895  -1.1767
    -1.1633  -1.1625  -1.1589  -1.1401  -1.1189  -1.1080  -1.0799  -1.0622
    -1.0558  -1.0296  -1.0197  -0.9986  -0.9676  -0.9547  -0.9445  -0.9397
    -0.8711  -0.8662  -0.8606  -0.8526  -0.8522  -0.8149  -0.8048  -0.7817
    -0.7769  -0.7489  -0.7328  -0.6918  -0.6879  -0.6632  -0.6251  -0.6242
    -0.6234  -0.6222  -0.6209  -0.5649  -0.5417  -0.5362  -0.5306  -0.5293
    -0.5166  -0.5090  -0.4749  -0.4706  -0.4674  -0.4426  -0.4363  -0.4346
    -0.4329  -0.4058  -0.3808  -0.3807  -0.3609  -0.3595  -0.3526  -0.3382
    -0.3217  -0.3142  -0.3008  -0.2753  -0.2710  -0.2667  -0.2570  -0.2523
    -0.2487  -0.2391  -0.2277  -0.2257  -0.2205  -0.2163  -0.2121  -0.1937
    -0.1931  -0.1824  -0.1777  -0.1698  -0.1688  -0.1632  -0.1586  -0.1538
    -0.1528  -0.1495  -0.1399  -0.1315  -0.0997  -0.0938  -0.0858  -0.0634
    -0.0534  -0.0325  -0.0319  -0.0152   0.0120   0.0269   0.0360   0.0429
     1.4135   2.0872   2.8675   3.5481   3.6455   3.8874   4.0636   4.0875
     4.3192   4.3236   4.3616   4.4248   4.4967   4.7176   4.7292   4.8023

          k = 0.1722 0.0000 0.0000 (327538 PWs)   bands (ev):

   -18.2543 -18.2543 -18.1575 -18.1575 -18.1149 -18.1149 -18.0736 -18.0736
   -17.9133 -17.9133 -17.8588 -17.8588 -17.8195 -17.8195 -17.7663 -17.7663
   -17.7649 -17.7649 -17.7476 -17.7476 -17.6804 -17.6804 -17.6733 -17.6733
   -17.3157 -17.1852 -17.0370 -16.9699 -16.9638 -16.9555 -16.9162 -16.8737
   -16.8580 -16.8448 -16.8379 -16.8372 -16.8206 -16.8170 -16.8098 -16.7791
   -16.7774 -16.7606 -16.7490 -16.7378 -16.7316 -16.7299 -16.7256 -16.7081
   -16.6971 -16.6753 -16.6736 -16.6658 -16.6624 -16.6119 -16.6031 -16.5924
   -16.5712 -16.5603 -16.5380 -16.5334 -16.5217 -16.5204 -16.5139 -16.5090
   -16.4933 -16.4932 -16.4807 -16.4775 -16.4720 -16.4632 -16.4627 -16.4604
   -16.4536 -16.4524 -16.4501 -16.4475 -16.4375 -16.4347 -16.4231 -16.4119
   -16.3894 -16.3880 -16.3830 -16.3799 -16.3522 -16.3487 -16.3479 -16.3231
   -16.3118 -16.3087 -16.3077 -16.2933 -16.2891 -16.2661 -16.2119 -16.1528
   -12.3947 -12.3944 -12.3928 -12.3714 -12.3644 -12.3639 -12.3588 -12.3582
   -12.3486 -12.3452 -12.3420 -12.3408 -12.3404 -12.3359 -12.3337 -12.3337
   -12.3292 -12.3264 -12.3261 -12.3252 -12.3238 -12.3219 -12.3196 -12.3181
   -12.3152 -12.3134 -12.3132 -12.3131 -12.3122 -12.3093 -12.3061 -12.3050
   -12.3045 -12.3042 -12.3039 -12.3015 -12.3007 -12.2930 -12.2896 -12.2886
   -12.2880 -12.2846 -12.2820 -12.2802 -12.2776 -12.2747 -12.2736 -12.2721
   -12.2683 -12.2658 -12.2642 -12.2627 -12.2590 -12.2578 -12.2565 -12.2555
   -12.2537 -12.2513 -12.2500 -12.2497 -12.2494 -12.2437 -12.2405 -12.2399
   -12.2397 -12.2376 -12.2375 -12.2343 -12.2333 -12.2320 -12.2313 -12.2297
   -12.2283 -12.2279 -12.2273 -12.2263 -12.2252 -12.2236 -12.2207 -12.2189
   -12.2186 -12.2183 -12.2172 -12.2161 -12.2132 -12.2129 -12.2087 -12.2083
   -12.2025 -12.2018 -12.2015 -12.1991 -12.1985 -12.1964 -12.1958 -12.1942
   -12.1941 -12.1892 -12.1865 -12.1857 -12.1826 -12.1812 -12.1802 -12.1798
   -12.1795 -12.1760 -12.1741 -12.1721 -12.1636 -12.1624 -12.1582 -12.1575
   -12.1560 -12.1530 -12.1513 -12.1506 -12.1467 -12.1462 -12.1410 -12.1388
   -12.1382 -12.1349 -12.1322 -12.1303 -12.1282 -12.1260 -12.1255 -12.1241
   -12.1228 -12.1217 -12.1216 -12.1181 -12.1174 -12.1135 -12.1112 -12.1104
   -12.1096 -12.1090 -12.1077 -12.1074 -12.1059 -12.1029 -12.1012 -12.1000
   -12.0993 -12.0980 -12.0958 -12.0922 -12.0912 -12.0911 -12.0906 -12.0889
   -12.0883 -12.0870 -12.0865 -12.0827 -12.0812 -12.0789 -12.0780 -12.0763
   -12.0695 -12.0691 -12.0678 -12.0666 -12.0665 -12.0641 -12.0596 -12.0581
   -12.0575 -12.0551 -12.0549 -12.0519 -12.0481 -12.0438 -12.0396 -12.0390
   -12.0376 -12.0337 -12.0311 -12.0290 -12.0263 -12.0223 -12.0214 -12.0184
   -12.0183 -12.0144 -12.0112 -12.0104 -12.0102 -12.0084 -12.0064 -12.0031
   -12.0005 -12.0005 -11.9982 -11.9975 -11.9969 -11.9957 -11.9904 -11.9888
   -11.9882 -11.9852 -11.9851 -11.9844 -11.9824 -11.9807 -11.9805 -11.9789
   -11.9777 -11.9774 -11.9752 -11.9731 -11.9723 -11.9699 -11.9676 -11.9651
   -11.9624 -11.9619 -11.9579 -11.9540 -11.9479 -11.9453 -11.9439 -11.9423
   -11.9422 -11.9288 -11.9287 -11.9275 -11.9166 -11.9129 -11.8928 -11.8900
   -11.8441 -11.8392 -11.8295 -11.8267 -11.8233 -11.8109 -11.7803 -11.7622
   -11.7600 -11.7316 -11.7280 -11.7253 -11.6968 -11.6719 -11.6375 -11.6335
   -11.5880 -11.5674 -11.5575 -11.5307 -11.5187 -11.5123 -11.4851 -11.4431
   -11.4309 -11.4229 -11.3950 -11.3827 -11.3804 -11.3485 -11.3396 -11.3382
   -11.3369 -11.3314 -11.2994 -11.2938 -11.2922 -11.2885 -11.2831 -11.2706
   -11.2652 -11.1867 -11.1451 -11.1214 -11.1072 -11.0177 -11.0150 -11.0134
    -5.8290  -5.8289  -5.6862  -5.6855  -5.6715  -5.6713  -5.6459  -5.6435
    -5.5260  -5.5253  -5.4615  -5.4596  -5.3540  -5.3540  -5.3356  -5.3290
    -5.1466  -5.1448  -5.0296  -4.9889  -4.9704  -4.9681  -4.9239  -4.9132
    -4.8401  -4.8091  -4.7860  -4.7762  -4.7663  -4.7126  -4.7121  -4.7018
    -4.7009  -4.6703  -4.6640  -4.6450  -4.6231  -4.5889  -4.5847  -4.5480
    -4.5234  -4.4668  -4.4132  -4.3581  -4.3573  -4.3424  -4.2977  -4.2623
    -4.2257  -4.2216  -4.2038  -4.1715  -4.1639  -4.1274  -4.0624  -4.0561
    -4.0529  -4.0487  -3.9745  -3.9386  -3.8877  -3.8499  -3.8374  -3.7951
    -3.7766  -3.7580  -3.6804  -3.6360  -3.6326  -3.5854  -3.5246  -3.4872
    -3.4795  -3.4283  -3.4256  -3.4092  -3.4056  -3.3994  -3.3616  -3.3083
    -3.2992  -3.2786  -3.2248  -3.1902  -3.1678  -3.1321  -3.1207  -3.1157
    -3.0776  -3.0514  -3.0331  -2.9947  -2.9687  -2.9624  -2.9571  -2.9328
    -2.9326  -2.9234  -2.9125  -2.8225  -2.7861  -2.7783  -2.7724  -2.7519
    -2.7239  -2.7152  -2.6756  -2.6728  -2.6370  -2.6187  -2.6138  -2.5782
    -2.5635  -2.5333  -2.5286  -2.4853  -2.4852  -2.4682  -2.4528  -2.3701
    -2.3476  -2.3415  -2.3323  -2.2841  -2.2445  -2.2442  -2.2292  -2.2029
    -2.1887  -2.1640  -2.1446  -2.1390  -2.0832  -2.0661  -2.0605  -2.0173
    -1.9933  -1.9803  -1.9686  -1.9548  -1.9433  -1.9278  -1.9266  -1.9187
    -1.9041  -1.8632  -1.8525  -1.8441  -1.8295  -1.8085  -1.8039  -1.7703
    -1.7240  -1.7231  -1.7176  -1.7010  -1.6796  -1.6777  -1.6664  -1.6341
    -1.6228  -1.6147  -1.6056  -1.6002  -1.5833  -1.5708  -1.5563  -1.5562
    -1.5382  -1.5350  -1.5153  -1.4790  -1.4789  -1.4711  -1.4682  -1.4639
    -1.4377  -1.4020  -1.3950  -1.3766  -1.3759  -1.3525  -1.3062  -1.3023
    -1.2614  -1.2459  -1.2325  -1.2149  -1.2089  -1.2029  -1.2005  -1.1927
    -1.1750  -1.1526  -1.1507  -1.1345  -1.1135  -1.0938  -1.0629  -1.0590
    -1.0590  -1.0399  -1.0309  -0.9968  -0.9614  -0.9506  -0.9412  -0.9395
    -0.8747  -0.8671  -0.8549  -0.8486  -0.8478  -0.8289  -0.8066  -0.7846
    -0.7835  -0.7464  -0.7255  -0.6953  -0.6890  -0.6565  -0.6357  -0.6332
    -0.6303  -0.6253  -0.6220  -0.5638  -0.5576  -0.5375  -0.5321  -0.5277
    -0.5186  -0.5159  -0.4756  -0.4741  -0.4650  -0.4477  -0.4383  -0.4359
    -0.4332  -0.4002  -0.3819  -0.3804  -0.3687  -0.3679  -0.3545  -0.3379
    -0.3255  -0.3198  -0.3034  -0.2795  -0.2745  -0.2737  -0.2581  -0.2523
    -0.2443  -0.2405  -0.2301  -0.2286  -0.2271  -0.2152  -0.2135  -0.1921
    -0.1920  -0.1861  -0.1792  -0.1723  -0.1678  -0.1630  -0.1545  -0.1543
    -0.1533  -0.1444  -0.1370  -0.1257  -0.0992  -0.0921  -0.0829  -0.0600
    -0.0551  -0.0302  -0.0291  -0.0193   0.0135   0.0274   0.0320   0.0440
     1.4608   2.1205   2.8922   3.4677   3.6642   3.8164   4.0794   4.1018
     4.2745   4.3365   4.3764   4.4263   4.5622   4.7259   4.7645   4.7994

          k = 0.1968 0.0000 0.0000 (327554 PWs)   bands (ev):

   -18.2524 -18.2524 -18.1606 -18.1606 -18.1139 -18.1139 -18.0746 -18.0746
   -17.9119 -17.9119 -17.8603 -17.8603 -17.8176 -17.8176 -17.7658 -17.7658
   -17.7641 -17.7641 -17.7489 -17.7489 -17.6806 -17.6806 -17.6738 -17.6738
   -17.3113 -17.1816 -17.0513 -16.9676 -16.9675 -16.9611 -16.9148 -16.8738
   -16.8589 -16.8443 -16.8407 -16.8358 -16.8194 -16.8184 -16.8168 -16.7795
   -16.7779 -16.7595 -16.7504 -16.7354 -16.7289 -16.7285 -16.7173 -16.7014
   -16.6931 -16.6703 -16.6675 -16.6645 -16.6637 -16.6116 -16.6043 -16.5924
   -16.5707 -16.5606 -16.5398 -16.5335 -16.5204 -16.5201 -16.5145 -16.5096
   -16.4962 -16.4950 -16.4802 -16.4767 -16.4705 -16.4642 -16.4633 -16.4614
   -16.4537 -16.4531 -16.4492 -16.4492 -16.4386 -16.4370 -16.4231 -16.4118
   -16.3899 -16.3889 -16.3840 -16.3819 -16.3515 -16.3494 -16.3475 -16.3227
   -16.3137 -16.3098 -16.3051 -16.2928 -16.2894 -16.2614 -16.2134 -16.1548
   -12.3934 -12.3932 -12.3911 -12.3704 -12.3632 -12.3628 -12.3588 -12.3579
   -12.3483 -12.3439 -12.3418 -12.3409 -12.3403 -12.3351 -12.3335 -12.3321
   -12.3281 -12.3272 -12.3264 -12.3248 -12.3236 -12.3216 -12.3205 -12.3192
   -12.3147 -12.3144 -12.3137 -12.3121 -12.3121 -12.3095 -12.3078 -12.3052
   -12.3052 -12.3048 -12.3044 -12.3009 -12.3001 -12.2926 -12.2896 -12.2894
   -12.2887 -12.2850 -12.2832 -12.2803 -12.2783 -12.2750 -12.2747 -12.2716
   -12.2700 -12.2656 -12.2649 -12.2629 -12.2598 -12.2597 -12.2584 -12.2551
   -12.2537 -12.2510 -12.2507 -12.2502 -12.2496 -12.2432 -12.2399 -12.2398
   -12.2397 -12.2375 -12.2366 -12.2340 -12.2328 -12.2320 -12.2315 -12.2288
   -12.2283 -12.2283 -12.2264 -12.2261 -12.2247 -12.2244 -12.2205 -12.2198
   -12.2193 -12.2181 -12.2167 -12.2152 -12.2134 -12.2126 -12.2085 -12.2081
   -12.2033 -12.2024 -12.2014 -12.1991 -12.1985 -12.1965 -12.1954 -12.1937
   -12.1934 -12.1895 -12.1858 -12.1851 -12.1838 -12.1821 -12.1817 -12.1799
   -12.1787 -12.1765 -12.1753 -12.1732 -12.1653 -12.1635 -12.1587 -12.1586
   -12.1578 -12.1529 -12.1515 -12.1499 -12.1464 -12.1457 -12.1415 -12.1405
   -12.1386 -12.1345 -12.1329 -12.1307 -12.1297 -12.1256 -12.1252 -12.1251
   -12.1232 -12.1232 -12.1213 -12.1191 -12.1176 -12.1143 -12.1102 -12.1096
   -12.1090 -12.1078 -12.1073 -12.1068 -12.1058 -12.1031 -12.1006 -12.1003
   -12.0994 -12.0980 -12.0959 -12.0917 -12.0914 -12.0910 -12.0906 -12.0897
   -12.0878 -12.0861 -12.0857 -12.0819 -12.0812 -12.0790 -12.0775 -12.0758
   -12.0687 -12.0684 -12.0673 -12.0661 -12.0661 -12.0637 -12.0584 -12.0576
   -12.0563 -12.0540 -12.0537 -12.0509 -12.0488 -12.0446 -12.0388 -12.0386
   -12.0381 -12.0333 -12.0300 -12.0284 -12.0254 -12.0229 -12.0204 -12.0186
   -12.0186 -12.0132 -12.0104 -12.0104 -12.0089 -12.0079 -12.0071 -12.0037
   -12.0006 -12.0005 -11.9983 -11.9974 -11.9966 -11.9946 -11.9907 -11.9889
   -11.9879 -11.9857 -11.9854 -11.9843 -11.9814 -11.9801 -11.9795 -11.9793
   -11.9781 -11.9771 -11.9760 -11.9731 -11.9730 -11.9705 -11.9682 -11.9643
   -11.9624 -11.9618 -11.9587 -11.9552 -11.9481 -11.9448 -11.9443 -11.9438
   -11.9420 -11.9305 -11.9271 -11.9267 -11.9191 -11.9114 -11.8947 -11.8904
   -11.8445 -11.8401 -11.8298 -11.8287 -11.8204 -11.8038 -11.7762 -11.7671
   -11.7613 -11.7289 -11.7275 -11.7257 -11.6986 -11.6750 -11.6375 -11.6300
   -11.5941 -11.5745 -11.5599 -11.5322 -11.5145 -11.5062 -11.4825 -11.4472
   -11.4388 -11.4249 -11.3946 -11.3840 -11.3764 -11.3467 -11.3417 -11.3402
   -11.3352 -11.3328 -11.2980 -11.2944 -11.2900 -11.2847 -11.2778 -11.2650
   -11.2642 -11.1776 -11.1459 -11.1233 -11.1095 -11.0231 -11.0177 -11.0175
    -5.8264  -5.8262  -5.6916  -5.6908  -5.6713  -5.6710  -5.6462  -5.6439
    -5.5271  -5.5262  -5.4658  -5.4638  -5.3484  -5.3483  -5.3288  -5.3226
    -5.1363  -5.1349  -5.0235  -4.9883  -4.9697  -4.9673  -4.9175  -4.9061
    -4.8321  -4.8112  -4.7894  -4.7844  -4.7631  -4.7229  -4.7139  -4.7100
    -4.7002  -4.6585  -4.6532  -4.6500  -4.6275  -4.5873  -4.5782  -4.5492
    -4.5328  -4.4847  -4.4264  -4.3714  -4.3661  -4.3487  -4.3112  -4.2648
    -4.2287  -4.2232  -4.2091  -4.1753  -4.1587  -4.1253  -4.0568  -4.0518
    -4.0433  -4.0405  -3.9720  -3.9637  -3.9156  -3.8855  -3.8408  -3.8087
    -3.7859  -3.7390  -3.6866  -3.6366  -3.6203  -3.5782  -3.5238  -3.4868
    -3.4837  -3.4313  -3.4254  -3.4009  -3.3949  -3.3757  -3.3610  -3.3056
    -3.2956  -3.2825  -3.2181  -3.1787  -3.1533  -3.1263  -3.1058  -3.1058
    -3.0717  -3.0510  -3.0345  -3.0085  -2.9583  -2.9530  -2.9490  -2.9289
    -2.9243  -2.9106  -2.8747  -2.8265  -2.7868  -2.7816  -2.7796  -2.7486
    -2.7113  -2.7067  -2.6716  -2.6661  -2.6375  -2.6257  -2.6135  -2.5759
    -2.5563  -2.5369  -2.5242  -2.4949  -2.4830  -2.4818  -2.4541  -2.3710
    -2.3417  -2.3365  -2.3237  -2.2804  -2.2607  -2.2420  -2.2402  -2.1997
    -2.1926  -2.1671  -2.1594  -2.1501  -2.0944  -2.0661  -2.0602  -2.0116
    -1.9955  -1.9880  -1.9646  -1.9546  -1.9473  -1.9312  -1.9258  -1.9117
    -1.8972  -1.8620  -1.8600  -1.8419  -1.8415  -1.8169  -1.8133  -1.7738
    -1.7301  -1.7264  -1.7184  -1.7073  -1.6857  -1.6810  -1.6738  -1.6313
    -1.6300  -1.6144  -1.6104  -1.6070  -1.5793  -1.5747  -1.5644  -1.5591
    -1.5427  -1.5392  -1.5072  -1.4791  -1.4711  -1.4637  -1.4591  -1.4524
    -1.4311  -1.4045  -1.3972  -1.3782  -1.3680  -1.3585  -1.2967  -1.2954
    -1.2549  -1.2457  -1.2337  -1.2263  -1.2080  -1.2042  -1.2007  -1.1893
    -1.1868  -1.1428  -1.1408  -1.1264  -1.1094  -1.0769  -1.0625  -1.0620
    -1.0454  -1.0436  -1.0410  -0.9918  -0.9577  -0.9459  -0.9416  -0.9367
    -0.8738  -0.8734  -0.8520  -0.8465  -0.8432  -0.8354  -0.8082  -0.7931
    -0.7873  -0.7438  -0.7186  -0.7018  -0.6861  -0.6654  -0.6462  -0.6446
    -0.6265  -0.6235  -0.6207  -0.5742  -0.5615  -0.5387  -0.5349  -0.5259
    -0.5222  -0.5215  -0.4849  -0.4739  -0.4631  -0.4494  -0.4445  -0.4382
    -0.4308  -0.3955  -0.3832  -0.3792  -0.3776  -0.3757  -0.3547  -0.3405
    -0.3267  -0.3266  -0.3068  -0.2950  -0.2774  -0.2744  -0.2562  -0.2519
    -0.2431  -0.2407  -0.2403  -0.2285  -0.2280  -0.2156  -0.2141  -0.2010
    -0.1916  -0.1804  -0.1803  -0.1747  -0.1670  -0.1618  -0.1558  -0.1528
    -0.1477  -0.1402  -0.1340  -0.1202  -0.0995  -0.0894  -0.0797  -0.0588
    -0.0571  -0.0266  -0.0256  -0.0239   0.0148   0.0274   0.0279   0.0450
     1.5130   2.1582   2.9201   3.3869   3.6856   3.7442   4.0975   4.1195
     4.2190   4.3512   4.3932   4.4348   4.6325   4.7352   4.7377   4.8258

          k = 0.2214 0.0000 0.0000 (327552 PWs)   bands (ev):

   -18.2502 -18.2502 -18.1640 -18.1640 -18.1129 -18.1129 -18.0758 -18.0758
   -17.9102 -17.9102 -17.8619 -17.8619 -17.8155 -17.8155 -17.7654 -17.7654
   -17.7634 -17.7633 -17.7503 -17.7503 -17.6808 -17.6808 -17.6743 -17.6743
   -17.3063 -17.1775 -17.0657 -16.9795 -16.9648 -16.9584 -16.9132 -16.8739
   -16.8599 -16.8439 -16.8436 -16.8393 -16.8237 -16.8183 -16.8171 -16.7815
   -16.7767 -16.7579 -16.7517 -16.7330 -16.7271 -16.7264 -16.7089 -16.6943
   -16.6892 -16.6668 -16.6643 -16.6614 -16.6611 -16.6114 -16.6056 -16.5923
   -16.5702 -16.5609 -16.5415 -16.5336 -16.5196 -16.5189 -16.5150 -16.5105
   -16.4991 -16.4971 -16.4796 -16.4763 -16.4698 -16.4658 -16.4652 -16.4611
   -16.4538 -16.4537 -16.4503 -16.4491 -16.4401 -16.4380 -16.4232 -16.4110
   -16.3905 -16.3901 -16.3851 -16.3841 -16.3508 -16.3507 -16.3460 -16.3220
   -16.3158 -16.3112 -16.3037 -16.2911 -16.2898 -16.2565 -16.2152 -16.1571
   -12.3923 -12.3915 -12.3893 -12.3693 -12.3619 -12.3615 -12.3587 -12.3575
   -12.3480 -12.3425 -12.3415 -12.3415 -12.3398 -12.3343 -12.3332 -12.3303
   -12.3282 -12.3271 -12.3265 -12.3244 -12.3236 -12.3217 -12.3215 -12.3208
   -12.3156 -12.3140 -12.3138 -12.3123 -12.3110 -12.3097 -12.3095 -12.3061
   -12.3055 -12.3050 -12.3049 -12.3004 -12.2993 -12.2924 -12.2904 -12.2893
   -12.2889 -12.2855 -12.2842 -12.2804 -12.2790 -12.2759 -12.2754 -12.2719
   -12.2707 -12.2655 -12.2652 -12.2630 -12.2619 -12.2606 -12.2605 -12.2549
   -12.2536 -12.2528 -12.2505 -12.2500 -12.2495 -12.2429 -12.2401 -12.2398
   -12.2390 -12.2373 -12.2359 -12.2338 -12.2327 -12.2326 -12.2309 -12.2288
   -12.2285 -12.2281 -12.2259 -12.2252 -12.2250 -12.2241 -12.2224 -12.2200
   -12.2192 -12.2179 -12.2169 -12.2138 -12.2125 -12.2118 -12.2088 -12.2078
   -12.2048 -12.2030 -12.2010 -12.1991 -12.1987 -12.1967 -12.1948 -12.1932
   -12.1926 -12.1900 -12.1861 -12.1851 -12.1842 -12.1837 -12.1821 -12.1803
   -12.1773 -12.1764 -12.1763 -12.1743 -12.1670 -12.1656 -12.1599 -12.1595
   -12.1587 -12.1529 -12.1517 -12.1490 -12.1460 -12.1458 -12.1420 -12.1415
   -12.1389 -12.1342 -12.1339 -12.1312 -12.1310 -12.1271 -12.1248 -12.1247
   -12.1242 -12.1237 -12.1209 -12.1209 -12.1175 -12.1153 -12.1096 -12.1093
   -12.1079 -12.1069 -12.1064 -12.1060 -12.1054 -12.1035 -12.1004 -12.0999
   -12.0995 -12.0981 -12.0957 -12.0915 -12.0914 -12.0910 -12.0908 -12.0908
   -12.0871 -12.0852 -12.0849 -12.0816 -12.0807 -12.0798 -12.0762 -12.0752
   -12.0681 -12.0676 -12.0664 -12.0657 -12.0654 -12.0632 -12.0585 -12.0558
   -12.0556 -12.0528 -12.0523 -12.0500 -12.0495 -12.0454 -12.0387 -12.0383
   -12.0378 -12.0329 -12.0292 -12.0277 -12.0246 -12.0236 -12.0195 -12.0189
   -12.0187 -12.0128 -12.0106 -12.0099 -12.0093 -12.0079 -12.0048 -12.0043
   -12.0006 -12.0005 -11.9986 -11.9974 -11.9964 -11.9935 -11.9912 -11.9891
   -11.9879 -11.9866 -11.9855 -11.9841 -11.9824 -11.9807 -11.9795 -11.9773
   -11.9771 -11.9764 -11.9761 -11.9736 -11.9732 -11.9710 -11.9690 -11.9628
   -11.9624 -11.9617 -11.9595 -11.9565 -11.9483 -11.9452 -11.9451 -11.9449
   -11.9417 -11.9326 -11.9259 -11.9246 -11.9203 -11.9115 -11.8975 -11.8877
   -11.8445 -11.8411 -11.8336 -11.8303 -11.8138 -11.7975 -11.7745 -11.7731
   -11.7626 -11.7327 -11.7225 -11.7202 -11.7044 -11.6754 -11.6413 -11.6202
   -11.6007 -11.5817 -11.5626 -11.5345 -11.5179 -11.4935 -11.4795 -11.4524
   -11.4466 -11.4253 -11.3940 -11.3878 -11.3704 -11.3516 -11.3447 -11.3424
   -11.3338 -11.3251 -11.2972 -11.2947 -11.2916 -11.2771 -11.2770 -11.2648
   -11.2532 -11.1686 -11.1467 -11.1252 -11.1119 -11.0291 -11.0221 -11.0207
    -5.8234  -5.8232  -5.6972  -5.6964  -5.6710  -5.6706  -5.6467  -5.6446
    -5.5278  -5.5269  -5.4701  -5.4681  -5.3426  -5.3425  -5.3218  -5.3162
    -5.1250  -5.1240  -5.0171  -4.9878  -4.9708  -4.9646  -4.9101  -4.8963
    -4.8232  -4.8132  -4.7942  -4.7931  -4.7604  -4.7329  -4.7268  -4.7070
    -4.6993  -4.6570  -4.6456  -4.6415  -4.6324  -4.5912  -4.5663  -4.5578
    -4.5355  -4.5004  -4.4406  -4.3870  -4.3749  -4.3556  -4.3249  -4.2663
    -4.2318  -4.2234  -4.2201  -4.1792  -4.1542  -4.1235  -4.0529  -4.0476
    -4.0377  -4.0302  -3.9918  -3.9677  -3.9470  -3.9097  -3.8444  -3.8174
    -3.7945  -3.7197  -3.6934  -3.6375  -3.6082  -3.5706  -3.5228  -3.4865
    -3.4861  -3.4342  -3.4255  -3.3931  -3.3904  -3.3599  -3.3466  -3.3035
    -3.2926  -3.2865  -3.2111  -3.1708  -3.1539  -3.1221  -3.0878  -3.0833
    -3.0643  -3.0504  -3.0404  -3.0174  -2.9471  -2.9459  -2.9408  -2.9243
    -2.9147  -2.9075  -2.8305  -2.8226  -2.7888  -2.7869  -2.7850  -2.7464
    -2.7000  -2.6956  -2.6678  -2.6602  -2.6374  -2.6328  -2.6114  -2.5732
    -2.5486  -2.5402  -2.5206  -2.5047  -2.4967  -2.4784  -2.4519  -2.3722
    -2.3376  -2.3345  -2.3174  -2.2905  -2.2777  -2.2421  -2.2367  -2.2097
    -2.1810  -2.1733  -2.1687  -2.1597  -2.1073  -2.0701  -2.0556  -2.0057
    -1.9967  -1.9938  -1.9661  -1.9575  -1.9487  -1.9285  -1.9217  -1.9067
    -1.8903  -1.8692  -1.8570  -1.8532  -1.8410  -1.8306  -1.8185  -1.7789
    -1.7443  -1.7287  -1.7141  -1.7140  -1.6934  -1.6847  -1.6812  -1.6400
    -1.6259  -1.6242  -1.6193  -1.6017  -1.5861  -1.5723  -1.5659  -1.5629
    -1.5445  -1.5437  -1.4982  -1.4790  -1.4721  -1.4582  -1.4542  -1.4268
    -1.4229  -1.4139  -1.3985  -1.3853  -1.3593  -1.3565  -1.2894  -1.2888
    -1.2519  -1.2488  -1.2464  -1.2355  -1.2186  -1.2033  -1.1958  -1.1945
    -1.1747  -1.1347  -1.1291  -1.1167  -1.1056  -1.0721  -1.0644  -1.0597
    -1.0534  -1.0370  -1.0278  -0.9836  -0.9604  -0.9408  -0.9373  -0.9363
    -0.8807  -0.8677  -0.8558  -0.8511  -0.8457  -0.8224  -0.8081  -0.8040
    -0.7902  -0.7419  -0.7130  -0.7075  -0.6840  -0.6781  -0.6558  -0.6556
    -0.6279  -0.6182  -0.6135  -0.5909  -0.5583  -0.5406  -0.5376  -0.5269
    -0.5252  -0.5248  -0.4960  -0.4741  -0.4620  -0.4509  -0.4498  -0.4409
    -0.4293  -0.3927  -0.3874  -0.3845  -0.3811  -0.3774  -0.3545  -0.3445
    -0.3356  -0.3273  -0.3114  -0.3093  -0.2824  -0.2734  -0.2548  -0.2514
    -0.2500  -0.2466  -0.2368  -0.2282  -0.2279  -0.2205  -0.2131  -0.2071
    -0.1919  -0.1810  -0.1807  -0.1723  -0.1665  -0.1609  -0.1560  -0.1525
    -0.1395  -0.1372  -0.1306  -0.1154  -0.1003  -0.0855  -0.0760  -0.0636
    -0.0548  -0.0289  -0.0220  -0.0219   0.0160   0.0225   0.0283   0.0457
     1.5697   2.1998   2.9513   3.3058   3.6714   3.7095   4.1177   4.1397
     4.1595   4.3677   4.4121   4.4477   4.6938   4.7032   4.7458   4.8394

          k = 0.2460 0.0000 0.0000 (327534 PWs)   bands (ev):

   -18.2477 -18.2477 -18.1677 -18.1677 -18.1117 -18.1117 -18.0771 -18.0771
   -17.9084 -17.9084 -17.8636 -17.8636 -17.8132 -17.8132 -17.7652 -17.7652
   -17.7625 -17.7625 -17.7517 -17.7517 -17.6810 -17.6810 -17.6749 -17.6749
   -17.3008 -17.1729 -17.0800 -16.9914 -16.9619 -16.9553 -16.9115 -16.8740
   -16.8609 -16.8468 -16.8452 -16.8440 -16.8301 -16.8166 -16.8156 -16.7834
   -16.7755 -16.7560 -16.7530 -16.7308 -16.7258 -16.7243 -16.7017 -16.6869
   -16.6837 -16.6691 -16.6578 -16.6577 -16.6557 -16.6112 -16.6072 -16.5921
   -16.5697 -16.5612 -16.5433 -16.5338 -16.5191 -16.5174 -16.5156 -16.5116
   -16.5022 -16.4994 -16.4789 -16.4766 -16.4720 -16.4662 -16.4656 -16.4620
   -16.4545 -16.4537 -16.4505 -16.4504 -16.4413 -16.4375 -16.4233 -16.4099
   -16.3917 -16.3912 -16.3864 -16.3863 -16.3518 -16.3501 -16.3444 -16.3210
   -16.3179 -16.3127 -16.3035 -16.2903 -16.2882 -16.2515 -16.2172 -16.1596
   -12.3910 -12.3897 -12.3873 -12.3681 -12.3606 -12.3602 -12.3588 -12.3570
   -12.3479 -12.3420 -12.3412 -12.3411 -12.3392 -12.3336 -12.3329 -12.3290
   -12.3285 -12.3267 -12.3265 -12.3244 -12.3242 -12.3225 -12.3224 -12.3215
   -12.3165 -12.3143 -12.3128 -12.3125 -12.3110 -12.3101 -12.3099 -12.3070
   -12.3058 -12.3052 -12.3050 -12.3000 -12.2985 -12.2925 -12.2906 -12.2894
   -12.2892 -12.2861 -12.2848 -12.2808 -12.2794 -12.2771 -12.2757 -12.2739
   -12.2698 -12.2660 -12.2648 -12.2640 -12.2628 -12.2628 -12.2614 -12.2554
   -12.2549 -12.2528 -12.2507 -12.2495 -12.2492 -12.2428 -12.2401 -12.2398
   -12.2385 -12.2371 -12.2354 -12.2336 -12.2332 -12.2328 -12.2302 -12.2293
   -12.2291 -12.2276 -12.2259 -12.2256 -12.2243 -12.2240 -12.2232 -12.2208
   -12.2193 -12.2176 -12.2164 -12.2143 -12.2109 -12.2095 -12.2092 -12.2077
   -12.2064 -12.2037 -12.2006 -12.1991 -12.1991 -12.1969 -12.1945 -12.1925
   -12.1918 -12.1906 -12.1863 -12.1863 -12.1859 -12.1824 -12.1823 -12.1805
   -12.1773 -12.1763 -12.1759 -12.1754 -12.1685 -12.1680 -12.1615 -12.1606
   -12.1590 -12.1528 -12.1517 -12.1482 -12.1463 -12.1457 -12.1424 -12.1421
   -12.1391 -12.1350 -12.1340 -12.1326 -12.1310 -12.1285 -12.1264 -12.1246
   -12.1242 -12.1231 -12.1224 -12.1202 -12.1176 -12.1164 -12.1098 -12.1086
   -12.1074 -12.1067 -12.1052 -12.1050 -12.1044 -12.1041 -12.1001 -12.0994
   -12.0989 -12.0983 -12.0955 -12.0920 -12.0914 -12.0911 -12.0910 -12.0909
   -12.0863 -12.0844 -12.0840 -12.0822 -12.0800 -12.0794 -12.0752 -12.0745
   -12.0679 -12.0664 -12.0656 -12.0652 -12.0645 -12.0629 -12.0584 -12.0554
   -12.0535 -12.0517 -12.0511 -12.0502 -12.0489 -12.0460 -12.0394 -12.0381
   -12.0369 -12.0327 -12.0286 -12.0270 -12.0241 -12.0238 -12.0190 -12.0186
   -12.0185 -12.0127 -12.0110 -12.0094 -12.0093 -12.0088 -12.0053 -12.0017
   -12.0007 -12.0005 -11.9989 -11.9973 -11.9961 -11.9923 -11.9917 -11.9894
   -11.9879 -11.9875 -11.9855 -11.9840 -11.9834 -11.9819 -11.9796 -11.9780
   -11.9760 -11.9755 -11.9744 -11.9740 -11.9732 -11.9715 -11.9698 -11.9624
   -11.9623 -11.9615 -11.9583 -11.9577 -11.9486 -11.9463 -11.9463 -11.9454
   -11.9411 -11.9346 -11.9251 -11.9216 -11.9204 -11.9132 -11.8984 -11.8848
   -11.8440 -11.8419 -11.8378 -11.8313 -11.8084 -11.7919 -11.7815 -11.7711
   -11.7639 -11.7367 -11.7201 -11.7132 -11.7098 -11.6729 -11.6446 -11.6092
   -11.6077 -11.5890 -11.5654 -11.5376 -11.5222 -11.4815 -11.4757 -11.4583
   -11.4543 -11.4246 -11.3936 -11.3916 -11.3653 -11.3613 -11.3448 -11.3427
   -11.3323 -11.3173 -11.2970 -11.2939 -11.2933 -11.2771 -11.2693 -11.2646
   -11.2413 -11.1598 -11.1475 -11.1270 -11.1146 -11.0356 -11.0272 -11.0241
    -5.8201  -5.8199  -5.7031  -5.7023  -5.6706  -5.6702  -5.6475  -5.6455
    -5.5283  -5.5272  -5.4744  -5.4724  -5.3367  -5.3366  -5.3149  -5.3098
    -5.1128  -5.1122  -5.0102  -4.9872  -4.9710  -4.9622  -4.9018  -4.8838
    -4.8146  -4.8135  -4.8052  -4.7973  -4.7624  -4.7401  -4.7381  -4.7036
    -4.6982  -4.6662  -4.6378  -4.6318  -4.6292  -4.5969  -4.5716  -4.5533
    -4.5337  -4.5126  -4.4554  -4.4042  -4.3842  -4.3630  -4.3389  -4.2668
    -4.2373  -4.2354  -4.2223  -4.1833  -4.1503  -4.1221  -4.0505  -4.0449
    -4.0322  -4.0241  -4.0226  -3.9775  -3.9611  -3.9207  -3.8484  -3.8231
    -3.8026  -3.7021  -3.7006  -3.6387  -3.5961  -3.5628  -3.5216  -3.4862
    -3.4857  -3.4368  -3.4258  -3.3863  -3.3862  -3.3581  -3.3195  -3.3021
    -3.2897  -3.2895  -3.2042  -3.1654  -3.1586  -3.1179  -3.0726  -3.0594
    -3.0551  -3.0495  -3.0493  -3.0190  -2.9393  -2.9354  -2.9330  -2.9187
    -2.9047  -2.9037  -2.8348  -2.7993  -2.7879  -2.7868  -2.7730  -2.7456
    -2.6960  -2.6770  -2.6635  -2.6548  -2.6395  -2.6356  -2.6060  -2.5705
    -2.5428  -2.5408  -2.5185  -2.5145  -2.5123  -2.4725  -2.4456  -2.3735
    -2.3358  -2.3353  -2.3217  -2.3141  -2.2760  -2.2395  -2.2342  -2.2187
    -2.1860  -2.1726  -2.1686  -2.1651  -2.1192  -2.0785  -2.0491  -2.0010
    -1.9976  -1.9963  -1.9701  -1.9630  -1.9478  -1.9204  -1.9162  -1.9037
    -1.8848  -1.8740  -1.8634  -1.8530  -1.8516  -1.8335  -1.8240  -1.7856
    -1.7603  -1.7301  -1.7212  -1.7126  -1.6980  -1.6886  -1.6882  -1.6521
    -1.6402  -1.6269  -1.6180  -1.5990  -1.5890  -1.5767  -1.5739  -1.5511
    -1.5502  -1.5439  -1.4884  -1.4785  -1.4740  -1.4532  -1.4490  -1.4265
    -1.4243  -1.3989  -1.3934  -1.3931  -1.3545  -1.3510  -1.2849  -1.2830
    -1.2776  -1.2476  -1.2434  -1.2393  -1.2355  -1.2001  -1.1993  -1.1890
    -1.1587  -1.1265  -1.1179  -1.1070  -1.1021  -1.0819  -1.0654  -1.0631
    -1.0436  -1.0305  -1.0110  -0.9724  -0.9667  -0.9430  -0.9386  -0.9228
    -0.8875  -0.8648  -0.8602  -0.8510  -0.8460  -0.8150  -0.8139  -0.8018
    -0.7931  -0.7429  -0.7127  -0.7094  -0.6881  -0.6856  -0.6658  -0.6607
    -0.6294  -0.6148  -0.6068  -0.6062  -0.5550  -0.5437  -0.5407  -0.5295
    -0.5279  -0.5256  -0.5063  -0.4744  -0.4633  -0.4560  -0.4517  -0.4427
    -0.4289  -0.3965  -0.3943  -0.3861  -0.3828  -0.3753  -0.3542  -0.3487
    -0.3476  -0.3298  -0.3265  -0.3094  -0.2882  -0.2711  -0.2654  -0.2514
    -0.2509  -0.2471  -0.2339  -0.2286  -0.2278  -0.2268  -0.2121  -0.2097
    -0.1928  -0.1838  -0.1809  -0.1679  -0.1662  -0.1611  -0.1545  -0.1523
    -0.1353  -0.1304  -0.1270  -0.1114  -0.1015  -0.0805  -0.0720  -0.0688
    -0.0528  -0.0341  -0.0183  -0.0173   0.0167   0.0174   0.0285   0.0461
     1.6302   2.2450   2.9855   3.2246   3.5984   3.7359   4.0983   4.1401
     4.1623   4.3860   4.4328   4.4635   4.6450   4.7571   4.7749   4.8441

          k = 0.0174 0.0174 0.0000 (327599 PWs)   bands (ev):

   -18.2607 -18.2607 -18.1465 -18.1465 -18.1182 -18.1182 -18.0704 -18.0704
   -17.9184 -17.9184 -17.8537 -17.8537 -17.8261 -17.8261 -17.7686 -17.7686
   -17.7675 -17.7675 -17.7429 -17.7429 -17.6797 -17.6797 -17.6717 -17.6717
   -17.3298 -17.1968 -16.9775 -16.9730 -16.9635 -16.9226 -16.8852 -16.8811
   -16.8725 -16.8631 -16.8510 -16.8471 -16.8285 -16.7918 -16.7839 -16.7768
   -16.7615 -16.7523 -16.7507 -16.7469 -16.7463 -16.7393 -16.7373 -16.7372
   -16.7302 -16.7052 -16.6855 -16.6711 -16.6546 -16.6128 -16.5990 -16.5924
   -16.5729 -16.5593 -16.5330 -16.5308 -16.5263 -16.5214 -16.5103 -16.5079
   -16.4849 -16.4833 -16.4824 -16.4809 -16.4790 -16.4717 -16.4600 -16.4600
   -16.4533 -16.4495 -16.4470 -16.4403 -16.4391 -16.4233 -16.4199 -16.4050
   -16.3882 -16.3881 -16.3798 -16.3730 -16.3552 -16.3531 -16.3379 -16.3255
   -16.3210 -16.3051 -16.3047 -16.2915 -16.2890 -16.2848 -16.2067 -16.1463
   -12.3994 -12.3987 -12.3973 -12.3745 -12.3689 -12.3681 -12.3594 -12.3588
   -12.3498 -12.3494 -12.3423 -12.3414 -12.3394 -12.3387 -12.3383 -12.3341
   -12.3328 -12.3277 -12.3276 -12.3259 -12.3245 -12.3211 -12.3201 -12.3171
   -12.3169 -12.3156 -12.3122 -12.3109 -12.3093 -12.3075 -12.3061 -12.3053
   -12.3033 -12.2998 -12.2995 -12.2991 -12.2973 -12.2958 -12.2910 -12.2907
   -12.2835 -12.2791 -12.2770 -12.2752 -12.2738 -12.2714 -12.2695 -12.2667
   -12.2661 -12.2642 -12.2610 -12.2609 -12.2593 -12.2585 -12.2543 -12.2536
   -12.2504 -12.2497 -12.2485 -12.2481 -12.2467 -12.2461 -12.2453 -12.2447
   -12.2437 -12.2388 -12.2387 -12.2382 -12.2356 -12.2337 -12.2336 -12.2301
   -12.2295 -12.2285 -12.2283 -12.2272 -12.2258 -12.2255 -12.2199 -12.2192
   -12.2169 -12.2167 -12.2162 -12.2146 -12.2140 -12.2107 -12.2102 -12.2094
   -12.2039 -12.2033 -12.2021 -12.1989 -12.1974 -12.1968 -12.1964 -12.1937
   -12.1934 -12.1922 -12.1901 -12.1893 -12.1841 -12.1799 -12.1783 -12.1756
   -12.1710 -12.1690 -12.1660 -12.1620 -12.1619 -12.1598 -12.1564 -12.1552
   -12.1548 -12.1548 -12.1524 -12.1491 -12.1475 -12.1442 -12.1402 -12.1364
   -12.1350 -12.1329 -12.1295 -12.1263 -12.1259 -12.1249 -12.1248 -12.1247
   -12.1226 -12.1197 -12.1173 -12.1172 -12.1153 -12.1140 -12.1131 -12.1128
   -12.1094 -12.1085 -12.1078 -12.1070 -12.1057 -12.1055 -12.1031 -12.0991
   -12.0964 -12.0962 -12.0959 -12.0948 -12.0943 -12.0938 -12.0932 -12.0931
   -12.0915 -12.0878 -12.0865 -12.0853 -12.0838 -12.0805 -12.0768 -12.0764
   -12.0727 -12.0718 -12.0703 -12.0672 -12.0666 -12.0646 -12.0634 -12.0623
   -12.0590 -12.0583 -12.0554 -12.0535 -12.0476 -12.0445 -12.0395 -12.0390
   -12.0384 -12.0358 -12.0356 -12.0344 -12.0317 -12.0276 -12.0224 -12.0209
   -12.0199 -12.0164 -12.0137 -12.0096 -12.0087 -12.0058 -12.0047 -12.0033
   -12.0012 -12.0009 -12.0001 -11.9991 -11.9973 -11.9972 -11.9960 -11.9933
   -11.9886 -11.9852 -11.9847 -11.9847 -11.9842 -11.9805 -11.9789 -11.9786
   -11.9769 -11.9737 -11.9727 -11.9714 -11.9682 -11.9665 -11.9641 -11.9625
   -11.9621 -11.9617 -11.9593 -11.9571 -11.9475 -11.9464 -11.9422 -11.9420
   -11.9381 -11.9330 -11.9329 -11.9245 -11.9154 -11.9048 -11.8853 -11.8582
   -11.8531 -11.8432 -11.8349 -11.8320 -11.8307 -11.8286 -11.7906 -11.7820
   -11.7534 -11.7282 -11.7180 -11.7133 -11.6936 -11.6906 -11.6142 -11.6080
   -11.5800 -11.5658 -11.5485 -11.5314 -11.5312 -11.5201 -11.4942 -11.4594
   -11.3977 -11.3887 -11.3823 -11.3793 -11.3717 -11.3667 -11.3580 -11.3521
   -11.3463 -11.3313 -11.3306 -11.3061 -11.2902 -11.2827 -11.2710 -11.2702
   -11.2662 -11.2415 -11.1426 -11.1142 -11.0997 -11.0064 -11.0003 -11.0000
    -5.8376  -5.8375  -5.6728  -5.6726  -5.6635  -5.6635  -5.6493  -5.6459
    -5.5194  -5.5187  -5.4424  -5.4406  -5.3778  -5.3778  -5.3626  -5.3542
    -5.1817  -5.1787  -5.0523  -4.9908  -4.9886  -4.9558  -4.9467  -4.9203
    -4.8662  -4.7971  -4.7827  -4.7746  -4.7448  -4.7218  -4.7129  -4.7128
    -4.6966  -4.6706  -4.6518  -4.6450  -4.6203  -4.6088  -4.5772  -4.5537
    -4.4778  -4.3856  -4.3697  -4.3246  -4.3196  -4.2851  -4.2447  -4.2379
    -4.2348  -4.2274  -4.2007  -4.1719  -4.1577  -4.1449  -4.1422  -4.1048
    -4.0637  -4.0440  -3.9755  -3.9079  -3.8281  -3.7813  -3.7806  -3.7382
    -3.6955  -3.6695  -3.6581  -3.6329  -3.5701  -3.5623  -3.5315  -3.5092
    -3.5064  -3.5046  -3.4305  -3.4274  -3.4178  -3.4147  -3.3889  -3.3830
    -3.3604  -3.3243  -3.2815  -3.2574  -3.2502  -3.1871  -3.1603  -3.1370
    -3.0873  -3.0519  -3.0401  -3.0259  -3.0035  -2.9944  -2.9599  -2.9567
    -2.9424  -2.9319  -2.9293  -2.7906  -2.7770  -2.7754  -2.7706  -2.7692
    -2.7587  -2.7503  -2.7135  -2.6907  -2.6459  -2.6213  -2.6078  -2.5723
    -2.5596  -2.5582  -2.5043  -2.4447  -2.4419  -2.4267  -2.4258  -2.4226
    -2.3854  -2.3749  -2.3600  -2.3123  -2.2686  -2.2661  -2.2177  -2.1411
    -2.1401  -2.1244  -2.0874  -2.0864  -2.0749  -2.0644  -2.0193  -1.9872
    -1.9829  -1.9768  -1.9732  -1.9615  -1.9546  -1.9385  -1.9205  -1.9049
    -1.9022  -1.8905  -1.8499  -1.7989  -1.7923  -1.7861  -1.7704  -1.7657
    -1.7600  -1.7048  -1.6925  -1.6871  -1.6812  -1.6702  -1.6655  -1.6239
    -1.6011  -1.5978  -1.5903  -1.5861  -1.5820  -1.5584  -1.5568  -1.5360
    -1.5146  -1.5127  -1.5091  -1.5017  -1.5007  -1.4970  -1.4910  -1.4648
    -1.4552  -1.4467  -1.4047  -1.3738  -1.3558  -1.3556  -1.3130  -1.3015
    -1.2990  -1.2978  -1.2892  -1.2610  -1.2286  -1.2199  -1.1999  -1.1890
    -1.1654  -1.1553  -1.1489  -1.1368  -1.1307  -1.1063  -1.1020  -1.0736
    -1.0410  -0.9930  -0.9838  -0.9798  -0.9782  -0.9754  -0.9690  -0.9326
    -0.9117  -0.8977  -0.8573  -0.8285  -0.8198  -0.8009  -0.7986  -0.7897
    -0.7709  -0.7530  -0.7329  -0.7258  -0.7078  -0.6595  -0.6176  -0.6139
    -0.5870  -0.5750  -0.5596  -0.5588  -0.5581  -0.5225  -0.5214  -0.5185
    -0.4981  -0.4854  -0.4799  -0.4764  -0.4698  -0.4515  -0.4390  -0.4343
    -0.4197  -0.4065  -0.3753  -0.3745  -0.3492  -0.3478  -0.3176  -0.3145
    -0.3033  -0.3001  -0.2978  -0.2916  -0.2746  -0.2525  -0.2488  -0.2482
    -0.2477  -0.2394  -0.2388  -0.2219  -0.2212  -0.2093  -0.2019  -0.1895
    -0.1880  -0.1864  -0.1826  -0.1770  -0.1659  -0.1627  -0.1561  -0.1557
    -0.1525  -0.1468  -0.1338  -0.1319  -0.1151  -0.0963  -0.0954  -0.0821
    -0.0626  -0.0430  -0.0247  -0.0031   0.0062   0.0252   0.0382   0.0474
     1.2756   1.9933   2.7995   3.5942   3.9656   3.9686   4.0766   4.0800
     4.2840   4.2841   4.2889   4.3832   4.3882   4.6789   4.7052   4.7973

          k = 0.0348 0.0348 0.0000 (327589 PWs)   bands (ev):

   -18.2602 -18.2602 -18.1468 -18.1468 -18.1186 -18.1186 -18.0707 -18.0707
   -17.9178 -17.9178 -17.8537 -17.8537 -17.8260 -17.8260 -17.7686 -17.7686
   -17.7673 -17.7673 -17.7431 -17.7431 -17.6798 -17.6798 -17.6718 -17.6718
   -17.3289 -17.1961 -16.9771 -16.9760 -16.9674 -16.9242 -16.8912 -16.8779
   -16.8701 -16.8597 -16.8500 -16.8469 -16.8286 -16.7914 -16.7864 -16.7755
   -16.7638 -16.7513 -16.7505 -16.7480 -16.7457 -16.7398 -16.7363 -16.7328
   -16.7305 -16.7026 -16.6857 -16.6708 -16.6540 -16.6127 -16.5990 -16.5926
   -16.5729 -16.5593 -16.5333 -16.5311 -16.5264 -16.5216 -16.5102 -16.5080
   -16.4856 -16.4836 -16.4833 -16.4813 -16.4771 -16.4717 -16.4601 -16.4598
   -16.4528 -16.4497 -16.4473 -16.4404 -16.4390 -16.4232 -16.4205 -16.4054
   -16.3886 -16.3886 -16.3802 -16.3736 -16.3545 -16.3534 -16.3380 -16.3245
   -16.3208 -16.3052 -16.3051 -16.2909 -16.2891 -16.2842 -16.2071 -16.1467
   -12.3991 -12.3983 -12.3971 -12.3744 -12.3686 -12.3678 -12.3595 -12.3584
   -12.3495 -12.3493 -12.3423 -12.3415 -12.3391 -12.3385 -12.3380 -12.3342
   -12.3326 -12.3277 -12.3277 -12.3259 -12.3251 -12.3212 -12.3190 -12.3173
   -12.3170 -12.3150 -12.3127 -12.3109 -12.3099 -12.3068 -12.3068 -12.3054
   -12.3037 -12.3004 -12.2993 -12.2991 -12.2973 -12.2954 -12.2910 -12.2900
   -12.2841 -12.2792 -12.2770 -12.2757 -12.2737 -12.2721 -12.2709 -12.2668
   -12.2666 -12.2636 -12.2615 -12.2605 -12.2594 -12.2574 -12.2549 -12.2546
   -12.2504 -12.2497 -12.2486 -12.2483 -12.2470 -12.2456 -12.2454 -12.2444
   -12.2432 -12.2385 -12.2382 -12.2382 -12.2355 -12.2337 -12.2335 -12.2300
   -12.2295 -12.2286 -12.2285 -12.2270 -12.2255 -12.2252 -12.2204 -12.2190
   -12.2171 -12.2167 -12.2159 -12.2147 -12.2137 -12.2105 -12.2104 -12.2093
   -12.2036 -12.2033 -12.2020 -12.1991 -12.1977 -12.1974 -12.1965 -12.1934
   -12.1933 -12.1924 -12.1897 -12.1889 -12.1846 -12.1795 -12.1786 -12.1758
   -12.1712 -12.1695 -12.1667 -12.1630 -12.1620 -12.1592 -12.1567 -12.1558
   -12.1547 -12.1546 -12.1524 -12.1486 -12.1481 -12.1442 -12.1402 -12.1370
   -12.1354 -12.1326 -12.1299 -12.1274 -12.1259 -12.1251 -12.1249 -12.1244
   -12.1225 -12.1203 -12.1173 -12.1167 -12.1150 -12.1139 -12.1138 -12.1125
   -12.1099 -12.1088 -12.1082 -12.1078 -12.1049 -12.1044 -12.1031 -12.0991
   -12.0968 -12.0964 -12.0959 -12.0949 -12.0941 -12.0935 -12.0929 -12.0926
   -12.0912 -12.0864 -12.0863 -12.0856 -12.0831 -12.0807 -12.0763 -12.0762
   -12.0728 -12.0726 -12.0704 -12.0674 -12.0666 -12.0656 -12.0632 -12.0619
   -12.0584 -12.0583 -12.0543 -12.0532 -12.0465 -12.0447 -12.0411 -12.0402
   -12.0386 -12.0355 -12.0341 -12.0330 -12.0313 -12.0274 -12.0227 -12.0209
   -12.0198 -12.0156 -12.0141 -12.0098 -12.0087 -12.0060 -12.0041 -12.0036
   -12.0011 -12.0010 -12.0001 -11.9997 -11.9972 -11.9964 -11.9951 -11.9932
   -11.9886 -11.9853 -11.9849 -11.9847 -11.9842 -11.9806 -11.9788 -11.9784
   -11.9770 -11.9738 -11.9729 -11.9715 -11.9685 -11.9680 -11.9637 -11.9624
   -11.9623 -11.9617 -11.9590 -11.9566 -11.9475 -11.9464 -11.9429 -11.9413
   -11.9379 -11.9344 -11.9322 -11.9245 -11.9153 -11.9037 -11.8900 -11.8609
   -11.8528 -11.8428 -11.8345 -11.8330 -11.8302 -11.8211 -11.7911 -11.7826
   -11.7505 -11.7311 -11.7151 -11.7145 -11.6932 -11.6929 -11.6136 -11.6108
   -11.5798 -11.5660 -11.5520 -11.5327 -11.5305 -11.5152 -11.4943 -11.4579
   -11.4016 -11.3905 -11.3884 -11.3792 -11.3674 -11.3672 -11.3573 -11.3488
   -11.3459 -11.3311 -11.3300 -11.3057 -11.2887 -11.2818 -11.2755 -11.2704
   -11.2642 -11.2370 -11.1426 -11.1146 -11.1002 -11.0071 -11.0012 -11.0009
    -5.8371  -5.8370  -5.6744  -5.6741  -5.6644  -5.6643  -5.6484  -5.6452
    -5.5196  -5.5189  -5.4435  -5.4419  -5.3759  -5.3759  -5.3608  -5.3526
    -5.1796  -5.1766  -5.0505  -4.9899  -4.9875  -4.9561  -4.9459  -4.9199
    -4.8648  -4.7981  -4.7824  -4.7744  -4.7454  -4.7233  -4.7135  -4.7131
    -4.6975  -4.6698  -4.6563  -4.6483  -4.6119  -4.6094  -4.5759  -4.5533
    -4.4812  -4.3890  -4.3744  -4.3240  -4.3205  -4.2947  -4.2406  -4.2400
    -4.2382  -4.2289  -4.2027  -4.1747  -4.1583  -4.1413  -4.1320  -4.1147
    -4.0516  -4.0510  -3.9718  -3.9001  -3.8358  -3.7860  -3.7830  -3.7427
    -3.7035  -3.6621  -3.6589  -3.6308  -3.5950  -3.5841  -3.5531  -3.5351
    -3.4849  -3.4788  -3.4298  -3.4181  -3.4142  -3.3975  -3.3737  -3.3651
    -3.3562  -3.3216  -3.2801  -3.2598  -3.2478  -3.1830  -3.1552  -3.1373
    -3.0905  -3.0513  -3.0383  -3.0261  -3.0035  -2.9916  -2.9599  -2.9552
    -2.9448  -2.9336  -2.9273  -2.7926  -2.7846  -2.7761  -2.7704  -2.7653
    -2.7544  -2.7480  -2.7157  -2.6888  -2.6549  -2.6096  -2.6020  -2.5732
    -2.5614  -2.5563  -2.5034  -2.4513  -2.4465  -2.4279  -2.4243  -2.4120
    -2.3820  -2.3764  -2.3594  -2.3078  -2.2659  -2.2642  -2.2185  -2.1490
    -2.1441  -2.1203  -2.0919  -2.0910  -2.0796  -2.0645  -2.0301  -1.9998
    -1.9912  -1.9797  -1.9736  -1.9617  -1.9555  -1.9319  -1.9228  -1.9042
    -1.8957  -1.8814  -1.8497  -1.8002  -1.7944  -1.7891  -1.7741  -1.7677
    -1.7589  -1.7024  -1.6916  -1.6876  -1.6797  -1.6717  -1.6639  -1.6258
    -1.6014  -1.5980  -1.5921  -1.5830  -1.5775  -1.5659  -1.5545  -1.5390
    -1.5209  -1.5129  -1.5093  -1.5048  -1.5015  -1.4920  -1.4896  -1.4597
    -1.4518  -1.4500  -1.4070  -1.3713  -1.3549  -1.3532  -1.3178  -1.3021
    -1.2959  -1.2881  -1.2775  -1.2582  -1.2358  -1.2217  -1.1919  -1.1897
    -1.1682  -1.1586  -1.1423  -1.1312  -1.1254  -1.1086  -1.1052  -1.0719
    -1.0416  -0.9967  -0.9859  -0.9814  -0.9793  -0.9762  -0.9701  -0.9253
    -0.9182  -0.8909  -0.8586  -0.8306  -0.8242  -0.7994  -0.7981  -0.7822
    -0.7741  -0.7536  -0.7357  -0.7236  -0.7066  -0.6598  -0.6192  -0.6191
    -0.5915  -0.5792  -0.5624  -0.5600  -0.5556  -0.5255  -0.5210  -0.5193
    -0.5036  -0.4852  -0.4798  -0.4766  -0.4685  -0.4510  -0.4390  -0.4318
    -0.4200  -0.4083  -0.3758  -0.3726  -0.3492  -0.3469  -0.3214  -0.3189
    -0.3041  -0.3006  -0.2961  -0.2932  -0.2723  -0.2529  -0.2512  -0.2490
    -0.2481  -0.2398  -0.2371  -0.2225  -0.2206  -0.2090  -0.2010  -0.1924
    -0.1911  -0.1864  -0.1815  -0.1813  -0.1658  -0.1636  -0.1564  -0.1556
    -0.1495  -0.1417  -0.1347  -0.1333  -0.1122  -0.0956  -0.0955  -0.0811
    -0.0622  -0.0425  -0.0257  -0.0034   0.0062   0.0253   0.0381   0.0469
     1.2881   2.0016   2.8054   3.5987   3.9137   3.9157   4.1288   4.1336
     4.2380   4.2393   4.2921   4.4330   4.4360   4.6468   4.6661   4.8389

          k = 0.0522 0.0522 0.0000 (327558 PWs)   bands (ev):

   -18.2595 -18.2595 -18.1471 -18.1471 -18.1192 -18.1192 -18.0713 -18.0713
   -17.9168 -17.9168 -17.8536 -17.8536 -17.8259 -17.8259 -17.7687 -17.7687
   -17.7670 -17.7670 -17.7434 -17.7434 -17.6799 -17.6799 -17.6720 -17.6720
   -17.3275 -17.1949 -16.9807 -16.9765 -16.9730 -16.9268 -16.8984 -16.8731
   -16.8667 -16.8581 -16.8475 -16.8463 -16.8289 -16.7913 -16.7894 -16.7743
   -16.7661 -16.7532 -16.7497 -16.7454 -16.7440 -16.7401 -16.7353 -16.7302
   -16.7285 -16.6991 -16.6859 -16.6701 -16.6530 -16.6126 -16.5990 -16.5929
   -16.5728 -16.5593 -16.5338 -16.5314 -16.5266 -16.5219 -16.5100 -16.5081
   -16.4868 -16.4844 -16.4837 -16.4816 -16.4752 -16.4719 -16.4604 -16.4595
   -16.4521 -16.4501 -16.4477 -16.4407 -16.4388 -16.4232 -16.4215 -16.4060
   -16.3896 -16.3892 -16.3807 -16.3748 -16.3536 -16.3532 -16.3382 -16.3230
   -16.3204 -16.3057 -16.3055 -16.2900 -16.2893 -16.2833 -16.2076 -16.1474
   -12.3987 -12.3977 -12.3967 -12.3741 -12.3683 -12.3673 -12.3596 -12.3579
   -12.3491 -12.3490 -12.3423 -12.3415 -12.3390 -12.3384 -12.3372 -12.3344
   -12.3323 -12.3280 -12.3278 -12.3260 -12.3252 -12.3214 -12.3177 -12.3172
   -12.3171 -12.3140 -12.3136 -12.3109 -12.3104 -12.3077 -12.3062 -12.3057
   -12.3041 -12.3015 -12.2994 -12.2984 -12.2975 -12.2949 -12.2910 -12.2890
   -12.2852 -12.2792 -12.2769 -12.2765 -12.2737 -12.2735 -12.2714 -12.2684
   -12.2666 -12.2631 -12.2623 -12.2598 -12.2597 -12.2562 -12.2560 -12.2548
   -12.2510 -12.2499 -12.2491 -12.2482 -12.2470 -12.2459 -12.2446 -12.2439
   -12.2426 -12.2384 -12.2380 -12.2376 -12.2355 -12.2337 -12.2333 -12.2298
   -12.2297 -12.2289 -12.2286 -12.2268 -12.2252 -12.2244 -12.2210 -12.2188
   -12.2173 -12.2168 -12.2158 -12.2147 -12.2133 -12.2108 -12.2099 -12.2093
   -12.2034 -12.2033 -12.2018 -12.1994 -12.1981 -12.1980 -12.1968 -12.1933
   -12.1930 -12.1924 -12.1893 -12.1887 -12.1849 -12.1793 -12.1787 -12.1762
   -12.1715 -12.1701 -12.1678 -12.1642 -12.1621 -12.1588 -12.1573 -12.1562
   -12.1546 -12.1545 -12.1524 -12.1488 -12.1481 -12.1442 -12.1403 -12.1376
   -12.1358 -12.1325 -12.1305 -12.1289 -12.1260 -12.1257 -12.1248 -12.1241
   -12.1223 -12.1209 -12.1173 -12.1161 -12.1149 -12.1147 -12.1139 -12.1118
   -12.1105 -12.1101 -12.1083 -12.1079 -12.1042 -12.1033 -12.1030 -12.0993
   -12.0972 -12.0971 -12.0960 -12.0956 -12.0938 -12.0926 -12.0925 -12.0922
   -12.0899 -12.0858 -12.0857 -12.0850 -12.0825 -12.0810 -12.0764 -12.0752
   -12.0732 -12.0729 -12.0705 -12.0677 -12.0666 -12.0666 -12.0632 -12.0616
   -12.0580 -12.0574 -12.0529 -12.0528 -12.0453 -12.0446 -12.0428 -12.0411
   -12.0387 -12.0352 -12.0326 -12.0316 -12.0308 -12.0268 -12.0230 -12.0208
   -12.0195 -12.0148 -12.0146 -12.0100 -12.0088 -12.0060 -12.0041 -12.0033
   -12.0013 -12.0009 -12.0004 -11.9999 -11.9972 -11.9954 -11.9939 -11.9931
   -11.9886 -11.9853 -11.9851 -11.9848 -11.9842 -11.9808 -11.9791 -11.9777
   -11.9771 -11.9737 -11.9732 -11.9717 -11.9701 -11.9684 -11.9639 -11.9629
   -11.9619 -11.9617 -11.9589 -11.9557 -11.9476 -11.9464 -11.9437 -11.9403
   -11.9375 -11.9361 -11.9316 -11.9243 -11.9151 -11.9022 -11.8965 -11.8630
   -11.8524 -11.8424 -11.8346 -11.8338 -11.8293 -11.8124 -11.7913 -11.7833
   -11.7463 -11.7339 -11.7178 -11.7110 -11.6971 -11.6915 -11.6180 -11.6097
   -11.5817 -11.5648 -11.5559 -11.5338 -11.5295 -11.5104 -11.4937 -11.4563
   -11.4065 -11.3959 -11.3926 -11.3784 -11.3688 -11.3626 -11.3562 -11.3453
   -11.3448 -11.3307 -11.3291 -11.3050 -11.2864 -11.2812 -11.2804 -11.2707
   -11.2612 -11.2315 -11.1426 -11.1152 -11.1011 -11.0082 -11.0027 -11.0022
    -5.8363  -5.8363  -5.6770  -5.6765  -5.6656  -5.6654  -5.6472  -5.6443
    -5.5199  -5.5192  -5.4453  -5.4438  -5.3729  -5.3728  -5.3580  -5.3500
    -5.1761  -5.1732  -5.0475  -4.9884  -4.9857  -4.9566  -4.9445  -4.9191
    -4.8627  -4.7997  -4.7819  -4.7740  -4.7465  -4.7258  -4.7145  -4.7137
    -4.6992  -4.6685  -4.6642  -4.6481  -4.6105  -4.6032  -4.5736  -4.5526
    -4.4865  -4.3945  -4.3815  -4.3239  -4.3220  -4.3060  -4.2473  -4.2445
    -4.2335  -4.2315  -4.2047  -4.1751  -4.1593  -4.1381  -4.1220  -4.1217
    -4.0616  -4.0373  -3.9669  -3.8880  -3.8501  -3.7907  -3.7856  -3.7486
    -3.7143  -3.6609  -3.6574  -3.6394  -3.6199  -3.6083  -3.5678  -3.5477
    -3.4669  -3.4522  -3.4290  -3.4184  -3.4118  -3.3785  -3.3616  -3.3381
    -3.3376  -3.3168  -3.2774  -3.2616  -3.2458  -3.1764  -3.1470  -3.1374
    -3.0956  -3.0505  -3.0352  -3.0260  -3.0035  -2.9874  -2.9602  -2.9532
    -2.9466  -2.9356  -2.9255  -2.7946  -2.7931  -2.7766  -2.7714  -2.7589
    -2.7546  -2.7418  -2.7179  -2.6855  -2.6629  -2.5976  -2.5939  -2.5743
    -2.5640  -2.5532  -2.5021  -2.4592  -2.4505  -2.4304  -2.4218  -2.4008
    -2.3778  -2.3776  -2.3575  -2.3012  -2.2618  -2.2609  -2.2201  -2.1583
    -2.1505  -2.1171  -2.1019  -2.0959  -2.0848  -2.0681  -2.0425  -2.0150
    -2.0104  -1.9771  -1.9749  -1.9625  -1.9545  -1.9278  -1.9209  -1.9046
    -1.8896  -1.8730  -1.8485  -1.8043  -1.7973  -1.7914  -1.7811  -1.7705
    -1.7583  -1.6978  -1.6915  -1.6886  -1.6772  -1.6738  -1.6592  -1.6282
    -1.6025  -1.5950  -1.5937  -1.5801  -1.5767  -1.5756  -1.5495  -1.5409
    -1.5287  -1.5169  -1.5128  -1.5062  -1.5027  -1.4894  -1.4860  -1.4536
    -1.4504  -1.4449  -1.4095  -1.3674  -1.3538  -1.3501  -1.3214  -1.3025
    -1.2919  -1.2766  -1.2612  -1.2537  -1.2422  -1.2241  -1.1910  -1.1833
    -1.1700  -1.1616  -1.1355  -1.1265  -1.1185  -1.1098  -1.1083  -1.0698
    -1.0418  -1.0011  -0.9948  -0.9846  -0.9782  -0.9725  -0.9713  -0.9244
    -0.9167  -0.8843  -0.8607  -0.8329  -0.8287  -0.8004  -0.7951  -0.7805
    -0.7731  -0.7547  -0.7391  -0.7192  -0.7056  -0.6628  -0.6249  -0.6221
    -0.5997  -0.5820  -0.5670  -0.5629  -0.5535  -0.5297  -0.5215  -0.5196
    -0.5092  -0.4860  -0.4815  -0.4772  -0.4650  -0.4499  -0.4391  -0.4285
    -0.4203  -0.4111  -0.3766  -0.3705  -0.3499  -0.3451  -0.3266  -0.3247
    -0.3051  -0.3032  -0.2998  -0.2883  -0.2696  -0.2546  -0.2536  -0.2501
    -0.2493  -0.2413  -0.2343  -0.2244  -0.2187  -0.2085  -0.2010  -0.1975
    -0.1953  -0.1874  -0.1854  -0.1779  -0.1658  -0.1645  -0.1580  -0.1530
    -0.1455  -0.1417  -0.1349  -0.1300  -0.1088  -0.0958  -0.0946  -0.0794
    -0.0616  -0.0417  -0.0273  -0.0039   0.0062   0.0255   0.0379   0.0463
     1.3088   2.0153   2.8152   3.6062   3.8620   3.8639   4.1590   4.1728
     4.2077   4.2181   4.2980   4.4817   4.4822   4.6110   4.6300   4.8810

          k = 0.0696 0.0696 0.0000 (327566 PWs)   bands (ev):

   -18.2585 -18.2585 -18.1476 -18.1476 -18.1202 -18.1202 -18.0720 -18.0720
   -17.9155 -17.9155 -17.8534 -17.8534 -17.8257 -17.8257 -17.7689 -17.7689
   -17.7665 -17.7665 -17.7439 -17.7439 -17.6800 -17.6800 -17.6722 -17.6722
   -17.3254 -17.1932 -16.9866 -16.9802 -16.9753 -16.9303 -16.9059 -16.8676
   -16.8629 -16.8582 -16.8462 -16.8435 -16.8293 -16.7922 -16.7920 -16.7730
   -16.7679 -16.7547 -16.7477 -16.7426 -16.7425 -16.7400 -16.7339 -16.7288
   -16.7245 -16.6951 -16.6861 -16.6693 -16.6518 -16.6125 -16.5991 -16.5933
   -16.5728 -16.5593 -16.5346 -16.5319 -16.5268 -16.5223 -16.5096 -16.5084
   -16.4880 -16.4850 -16.4846 -16.4816 -16.4733 -16.4721 -16.4609 -16.4591
   -16.4511 -16.4507 -16.4483 -16.4412 -16.4384 -16.4234 -16.4226 -16.4068
   -16.3911 -16.3900 -16.3811 -16.3764 -16.3537 -16.3517 -16.3386 -16.3209
   -16.3200 -16.3065 -16.3059 -16.2895 -16.2888 -16.2820 -16.2084 -16.1484
   -12.3983 -12.3966 -12.3962 -12.3738 -12.3678 -12.3665 -12.3596 -12.3574
   -12.3489 -12.3484 -12.3422 -12.3415 -12.3391 -12.3382 -12.3360 -12.3348
   -12.3318 -12.3289 -12.3279 -12.3261 -12.3248 -12.3217 -12.3174 -12.3173
   -12.3162 -12.3146 -12.3130 -12.3109 -12.3107 -12.3087 -12.3062 -12.3057
   -12.3043 -12.3027 -12.2995 -12.2977 -12.2977 -12.2944 -12.2909 -12.2880
   -12.2866 -12.2793 -12.2774 -12.2770 -12.2752 -12.2731 -12.2721 -12.2699
   -12.2668 -12.2635 -12.2631 -12.2606 -12.2589 -12.2567 -12.2565 -12.2536
   -12.2514 -12.2502 -12.2502 -12.2478 -12.2468 -12.2463 -12.2440 -12.2433
   -12.2418 -12.2387 -12.2374 -12.2370 -12.2356 -12.2337 -12.2329 -12.2303
   -12.2296 -12.2290 -12.2286 -12.2264 -12.2251 -12.2235 -12.2216 -12.2186
   -12.2175 -12.2169 -12.2157 -12.2148 -12.2130 -12.2111 -12.2093 -12.2092
   -12.2037 -12.2034 -12.2012 -12.1999 -12.1985 -12.1985 -12.1972 -12.1931
   -12.1929 -12.1923 -12.1889 -12.1889 -12.1846 -12.1799 -12.1782 -12.1767
   -12.1720 -12.1710 -12.1691 -12.1653 -12.1622 -12.1589 -12.1581 -12.1562
   -12.1547 -12.1546 -12.1524 -12.1495 -12.1476 -12.1441 -12.1408 -12.1379
   -12.1363 -12.1329 -12.1309 -12.1306 -12.1263 -12.1261 -12.1248 -12.1237
   -12.1220 -12.1214 -12.1174 -12.1161 -12.1157 -12.1148 -12.1136 -12.1113
   -12.1111 -12.1109 -12.1085 -12.1077 -12.1038 -12.1028 -12.1024 -12.0998
   -12.0983 -12.0974 -12.0962 -12.0961 -12.0930 -12.0920 -12.0920 -12.0917
   -12.0882 -12.0856 -12.0850 -12.0838 -12.0818 -12.0813 -12.0768 -12.0745
   -12.0732 -12.0725 -12.0706 -12.0682 -12.0675 -12.0666 -12.0631 -12.0616
   -12.0575 -12.0565 -12.0521 -12.0512 -12.0459 -12.0445 -12.0430 -12.0410
   -12.0385 -12.0349 -12.0317 -12.0302 -12.0300 -12.0259 -12.0232 -12.0207
   -12.0191 -12.0154 -12.0137 -12.0101 -12.0089 -12.0059 -12.0045 -12.0025
   -12.0016 -12.0009 -12.0007 -11.9996 -11.9972 -11.9946 -11.9929 -11.9927
   -11.9886 -11.9855 -11.9852 -11.9848 -11.9842 -11.9809 -11.9796 -11.9776
   -11.9764 -11.9737 -11.9737 -11.9719 -11.9718 -11.9687 -11.9645 -11.9635
   -11.9617 -11.9616 -11.9591 -11.9544 -11.9476 -11.9464 -11.9446 -11.9392
   -11.9378 -11.9368 -11.9314 -11.9235 -11.9149 -11.9038 -11.9006 -11.8645
   -11.8518 -11.8420 -11.8365 -11.8329 -11.8280 -11.8052 -11.7897 -11.7837
   -11.7416 -11.7363 -11.7210 -11.7080 -11.7016 -11.6893 -11.6252 -11.6069
   -11.5863 -11.5622 -11.5591 -11.5348 -11.5282 -11.5078 -11.4913 -11.4559
   -11.4118 -11.4037 -11.3936 -11.3770 -11.3711 -11.3577 -11.3549 -11.3447
   -11.3410 -11.3303 -11.3279 -11.3042 -11.2873 -11.2833 -11.2783 -11.2709
   -11.2572 -11.2254 -11.1426 -11.1161 -11.1022 -11.0099 -11.0049 -11.0041
    -5.8352  -5.8352  -5.6804  -5.6797  -5.6667  -5.6666  -5.6462  -5.6435
    -5.5202  -5.5194  -5.4476  -5.4463  -5.3688  -5.3688  -5.3542  -5.3465
    -5.1713  -5.1683  -5.0433  -4.9863  -4.9831  -4.9571  -4.9426  -4.9180
    -4.8598  -4.8017  -4.7811  -4.7736  -4.7480  -4.7291  -4.7157  -4.7144
    -4.7019  -4.6717  -4.6667  -4.6471  -4.6122  -4.5956  -4.5701  -4.5517
    -4.4937  -4.4016  -4.3902  -4.3248  -4.3240  -4.3178  -4.2555  -4.2500
    -4.2351  -4.2327  -4.2062  -4.1738  -4.1602  -4.1393  -4.1208  -4.1144
    -4.0724  -4.0241  -3.9608  -3.8728  -3.8699  -3.7933  -3.7887  -3.7566
    -3.7286  -3.6641  -3.6608  -3.6594  -3.6429  -3.6376  -3.5656  -3.5428
    -3.4521  -3.4335  -3.4283  -3.4184  -3.4014  -3.3678  -3.3530  -3.3174
    -3.3060  -3.3037  -3.2727  -3.2618  -3.2441  -3.1675  -3.1372  -3.1359
    -3.1024  -3.0495  -3.0307  -3.0255  -3.0029  -2.9820  -2.9611  -2.9521
    -2.9464  -2.9363  -2.9248  -2.8022  -2.7961  -2.7762  -2.7730  -2.7571
    -2.7511  -2.7349  -2.7190  -2.6812  -2.6695  -2.5873  -2.5856  -2.5740
    -2.5662  -2.5493  -2.5007  -2.4669  -2.4546  -2.4340  -2.4185  -2.3901
    -2.3778  -2.3740  -2.3530  -2.2936  -2.2570  -2.2565  -2.2226  -2.1682
    -2.1594  -2.1156  -2.1146  -2.1018  -2.0901  -2.0770  -2.0560  -2.0306
    -2.0256  -1.9781  -1.9764  -1.9643  -1.9520  -1.9308  -1.9117  -1.9061
    -1.8873  -1.8664  -1.8458  -1.8111  -1.8001  -1.7949  -1.7884  -1.7739
    -1.7598  -1.6952  -1.6913  -1.6883  -1.6762  -1.6739  -1.6526  -1.6295
    -1.6030  -1.6001  -1.5886  -1.5864  -1.5798  -1.5720  -1.5464  -1.5439
    -1.5356  -1.5216  -1.5181  -1.5129  -1.4999  -1.4891  -1.4792  -1.4492
    -1.4463  -1.4340  -1.4114  -1.3617  -1.3520  -1.3475  -1.3242  -1.3021
    -1.2881  -1.2637  -1.2514  -1.2472  -1.2388  -1.2263  -1.1926  -1.1754
    -1.1708  -1.1629  -1.1322  -1.1287  -1.1124  -1.1097  -1.1004  -1.0684
    -1.0413  -1.0078  -1.0041  -0.9870  -0.9767  -0.9726  -0.9676  -0.9296
    -0.9090  -0.8782  -0.8633  -0.8345  -0.8331  -0.8023  -0.7926  -0.7866
    -0.7669  -0.7563  -0.7418  -0.7128  -0.7052  -0.6707  -0.6280  -0.6269
    -0.6105  -0.5836  -0.5734  -0.5666  -0.5532  -0.5351  -0.5229  -0.5194
    -0.5138  -0.4875  -0.4841  -0.4779  -0.4607  -0.4483  -0.4395  -0.4259
    -0.4200  -0.4148  -0.3777  -0.3692  -0.3512  -0.3433  -0.3322  -0.3316
    -0.3103  -0.3065  -0.3007  -0.2826  -0.2681  -0.2581  -0.2548  -0.2514
    -0.2510  -0.2438  -0.2322  -0.2264  -0.2171  -0.2088  -0.2052  -0.2022
    -0.1964  -0.1889  -0.1886  -0.1735  -0.1659  -0.1646  -0.1606  -0.1506
    -0.1432  -0.1407  -0.1335  -0.1239  -0.1054  -0.0961  -0.0939  -0.0772
    -0.0608  -0.0409  -0.0293  -0.0046   0.0062   0.0258   0.0375   0.0453
     1.3370   2.0343   2.8289   3.6166   3.8114   3.8133   4.1288   4.1376
     4.2535   4.2589   4.3062   4.5144   4.5229   4.5831   4.6080   4.9205

          k = 0.0870 0.0870 0.0000 (327592 PWs)   bands (ev):

   -18.2572 -18.2572 -18.1483 -18.1483 -18.1213 -18.1213 -18.0730 -18.0730
   -17.9138 -17.9138 -17.8532 -17.8532 -17.8255 -17.8255 -17.7691 -17.7691
   -17.7660 -17.7660 -17.7444 -17.7444 -17.6801 -17.6801 -17.6725 -17.6725
   -17.3228 -17.1911 -16.9933 -16.9879 -16.9742 -16.9347 -16.9136 -16.8622
   -16.8617 -16.8570 -16.8451 -16.8410 -16.8295 -16.7942 -16.7941 -16.7718
   -16.7690 -16.7546 -16.7452 -16.7418 -16.7395 -16.7391 -16.7318 -16.7266
   -16.7210 -16.6909 -16.6859 -16.6680 -16.6503 -16.6124 -16.5991 -16.5939
   -16.5728 -16.5593 -16.5356 -16.5325 -16.5271 -16.5228 -16.5091 -16.5087
   -16.4893 -16.4860 -16.4857 -16.4813 -16.4723 -16.4715 -16.4617 -16.4589
   -16.4516 -16.4499 -16.4488 -16.4418 -16.4379 -16.4247 -16.4229 -16.4079
   -16.3929 -16.3910 -16.3814 -16.3785 -16.3534 -16.3500 -16.3392 -16.3194
   -16.3184 -16.3074 -16.3064 -16.2898 -16.2873 -16.2805 -16.2094 -16.1497
   -12.3977 -12.3956 -12.3953 -12.3734 -12.3672 -12.3654 -12.3595 -12.3569
   -12.3485 -12.3477 -12.3419 -12.3415 -12.3392 -12.3380 -12.3352 -12.3346
   -12.3311 -12.3299 -12.3280 -12.3261 -12.3241 -12.3221 -12.3179 -12.3173
   -12.3157 -12.3149 -12.3120 -12.3110 -12.3105 -12.3096 -12.3070 -12.3056
   -12.3041 -12.3037 -12.2996 -12.2979 -12.2972 -12.2941 -12.2909 -12.2882
   -12.2871 -12.2794 -12.2785 -12.2780 -12.2757 -12.2733 -12.2725 -12.2710
   -12.2671 -12.2650 -12.2634 -12.2617 -12.2580 -12.2575 -12.2571 -12.2523
   -12.2515 -12.2512 -12.2504 -12.2473 -12.2468 -12.2464 -12.2434 -12.2426
   -12.2410 -12.2390 -12.2367 -12.2364 -12.2357 -12.2335 -12.2327 -12.2308
   -12.2297 -12.2288 -12.2285 -12.2260 -12.2252 -12.2225 -12.2219 -12.2185
   -12.2176 -12.2171 -12.2156 -12.2150 -12.2129 -12.2112 -12.2090 -12.2083
   -12.2042 -12.2036 -12.2006 -12.2002 -12.1990 -12.1988 -12.1978 -12.1930
   -12.1928 -12.1921 -12.1897 -12.1885 -12.1838 -12.1807 -12.1776 -12.1775
   -12.1725 -12.1719 -12.1706 -12.1665 -12.1624 -12.1595 -12.1590 -12.1560
   -12.1552 -12.1552 -12.1524 -12.1502 -12.1473 -12.1439 -12.1415 -12.1377
   -12.1370 -12.1340 -12.1322 -12.1309 -12.1271 -12.1265 -12.1249 -12.1234
   -12.1222 -12.1214 -12.1176 -12.1171 -12.1154 -12.1153 -12.1129 -12.1122
   -12.1116 -12.1099 -12.1085 -12.1073 -12.1037 -12.1027 -12.1019 -12.1004
   -12.0993 -12.0974 -12.0966 -12.0960 -12.0920 -12.0919 -12.0913 -12.0910
   -12.0865 -12.0853 -12.0840 -12.0835 -12.0810 -12.0809 -12.0773 -12.0747
   -12.0725 -12.0711 -12.0706 -12.0688 -12.0683 -12.0664 -12.0630 -12.0619
   -12.0567 -12.0561 -12.0512 -12.0495 -12.0465 -12.0460 -12.0426 -12.0392
   -12.0382 -12.0344 -12.0312 -12.0293 -12.0290 -12.0250 -12.0230 -12.0205
   -12.0188 -12.0159 -12.0132 -12.0099 -12.0089 -12.0055 -12.0049 -12.0019
   -12.0016 -12.0013 -12.0004 -11.9992 -11.9972 -11.9938 -11.9926 -11.9916
   -11.9884 -11.9859 -11.9850 -11.9849 -11.9842 -11.9810 -11.9802 -11.9781
   -11.9751 -11.9748 -11.9736 -11.9730 -11.9720 -11.9690 -11.9652 -11.9640
   -11.9618 -11.9615 -11.9596 -11.9529 -11.9478 -11.9465 -11.9453 -11.9398
   -11.9374 -11.9360 -11.9318 -11.9221 -11.9146 -11.9107 -11.8992 -11.8657
   -11.8512 -11.8417 -11.8385 -11.8321 -11.8265 -11.8023 -11.7843 -11.7837
   -11.7378 -11.7374 -11.7245 -11.7061 -11.7058 -11.6860 -11.6334 -11.6038
   -11.5926 -11.5643 -11.5566 -11.5359 -11.5267 -11.5079 -11.4868 -11.4577
   -11.4176 -11.4115 -11.3923 -11.3751 -11.3738 -11.3534 -11.3533 -11.3440
   -11.3377 -11.3298 -11.3266 -11.3031 -11.2935 -11.2798 -11.2757 -11.2712
   -11.2526 -11.2192 -11.1426 -11.1172 -11.1038 -11.0120 -11.0076 -11.0064
    -5.8339  -5.8338  -5.6844  -5.6835  -5.6680  -5.6679  -5.6455  -5.6431
    -5.5205  -5.5196  -5.4502  -5.4490  -5.3641  -5.3640  -5.3495  -5.3423
    -5.1651  -5.1622  -5.0380  -4.9838  -4.9798  -4.9576  -4.9402  -4.9166
    -4.8562  -4.8040  -4.7800  -4.7733  -4.7498  -4.7332  -4.7171  -4.7150
    -4.7060  -4.6780  -4.6644  -4.6457  -4.6144  -4.5896  -4.5650  -4.5507
    -4.5022  -4.4099  -4.3999  -4.3296  -4.3271  -4.3266  -4.2637  -4.2568
    -4.2395  -4.2360  -4.2084  -4.1729  -4.1600  -4.1411  -4.1154  -4.1103
    -4.0833  -4.0123  -3.9533  -3.8932  -3.8564  -3.7955  -3.7916  -3.7654
    -3.7482  -3.6883  -3.6824  -3.6643  -3.6588  -3.6538  -3.5533  -3.5285
    -3.4398  -3.4295  -3.4248  -3.4181  -3.3800  -3.3608  -3.3428  -3.3098
    -3.2803  -3.2757  -3.2622  -3.2587  -3.2423  -3.1569  -3.1363  -3.1226
    -3.1102  -3.0485  -3.0248  -3.0243  -3.0010  -2.9759  -2.9626  -2.9537
    -2.9440  -2.9333  -2.9252  -2.8115  -2.7969  -2.7749  -2.7746  -2.7615
    -2.7422  -2.7286  -2.7180  -2.6770  -2.6735  -2.5832  -2.5806  -2.5680
    -2.5656  -2.5450  -2.4990  -2.4745  -2.4584  -2.4386  -2.4148  -2.3835
    -2.3764  -2.3676  -2.3458  -2.2859  -2.2528  -2.2511  -2.2266  -2.1781
    -2.1704  -2.1296  -2.1146  -2.1099  -2.0959  -2.0876  -2.0711  -2.0494
    -2.0302  -1.9838  -1.9779  -1.9671  -1.9487  -1.9343  -1.9092  -1.9034
    -1.8887  -1.8609  -1.8429  -1.8189  -1.8029  -1.8020  -1.7908  -1.7779
    -1.7634  -1.7019  -1.6879  -1.6850  -1.6794  -1.6697  -1.6463  -1.6290
    -1.6086  -1.6037  -1.5914  -1.5886  -1.5768  -1.5684  -1.5542  -1.5425
    -1.5386  -1.5285  -1.5179  -1.5175  -1.5008  -1.4909  -1.4702  -1.4460
    -1.4384  -1.4216  -1.4116  -1.3538  -1.3492  -1.3460  -1.3264  -1.3001
    -1.2854  -1.2534  -1.2510  -1.2391  -1.2265  -1.2222  -1.1944  -1.1711
    -1.1711  -1.1594  -1.1380  -1.1335  -1.1080  -1.0991  -1.0886  -1.0689
    -1.0404  -1.0193  -1.0082  -0.9880  -0.9766  -0.9742  -0.9613  -0.9335
    -0.9031  -0.8728  -0.8662  -0.8378  -0.8352  -0.8050  -0.7930  -0.7915
    -0.7640  -0.7575  -0.7431  -0.7059  -0.7057  -0.6820  -0.6340  -0.6283
    -0.6230  -0.5842  -0.5809  -0.5708  -0.5547  -0.5410  -0.5246  -0.5193
    -0.5165  -0.4894  -0.4866  -0.4787  -0.4564  -0.4463  -0.4404  -0.4258
    -0.4193  -0.4174  -0.3793  -0.3696  -0.3533  -0.3429  -0.3386  -0.3374
    -0.3184  -0.3082  -0.3011  -0.2768  -0.2689  -0.2615  -0.2563  -0.2544
    -0.2518  -0.2473  -0.2338  -0.2262  -0.2177  -0.2131  -0.2104  -0.2005
    -0.1950  -0.1924  -0.1900  -0.1712  -0.1658  -0.1637  -0.1618  -0.1508
    -0.1414  -0.1351  -0.1304  -0.1178  -0.1023  -0.0965  -0.0933  -0.0747
    -0.0599  -0.0402  -0.0313  -0.0055   0.0061   0.0262   0.0370   0.0442
     1.3724   2.0584   2.8464   3.6298   3.7619   3.7640   4.0857   4.0927
     4.3087   4.3144   4.3186   4.5093   4.5157   4.6032   4.6249   4.9559

          k = 0.1044 0.1044 0.0000 (327569 PWs)   bands (ev):

   -18.2556 -18.2556 -18.1490 -18.1490 -18.1227 -18.1227 -18.0743 -18.0743
   -17.9118 -17.9118 -17.8529 -17.8529 -17.8252 -17.8252 -17.7695 -17.7695
   -17.7653 -17.7653 -17.7450 -17.7450 -17.6803 -17.6803 -17.6728 -17.6728
   -17.3195 -17.1884 -17.0007 -16.9961 -16.9727 -16.9396 -16.9213 -16.8637
   -16.8578 -16.8542 -16.8432 -16.8403 -16.8289 -16.7977 -16.7941 -16.7706
   -16.7694 -16.7528 -16.7423 -16.7413 -16.7375 -16.7366 -16.7289 -16.7238
   -16.7180 -16.6868 -16.6854 -16.6664 -16.6486 -16.6122 -16.5992 -16.5944
   -16.5728 -16.5593 -16.5367 -16.5332 -16.5275 -16.5233 -16.5091 -16.5085
   -16.4904 -16.4877 -16.4864 -16.4810 -16.4726 -16.4698 -16.4628 -16.4587
   -16.4528 -16.4492 -16.4487 -16.4425 -16.4372 -16.4265 -16.4230 -16.4091
   -16.3949 -16.3922 -16.3819 -16.3810 -16.3527 -16.3481 -16.3398 -16.3189
   -16.3157 -16.3082 -16.3070 -16.2901 -16.2855 -16.2788 -16.2106 -16.1512
   -12.3970 -12.3948 -12.3938 -12.3729 -12.3665 -12.3641 -12.3593 -12.3562
   -12.3482 -12.3469 -12.3417 -12.3414 -12.3392 -12.3378 -12.3357 -12.3331
   -12.3312 -12.3303 -12.3282 -12.3261 -12.3232 -12.3226 -12.3184 -12.3178
   -12.3161 -12.3144 -12.3114 -12.3110 -12.3103 -12.3096 -12.3081 -12.3056
   -12.3045 -12.3037 -12.2996 -12.2979 -12.2969 -12.2939 -12.2909 -12.2897
   -12.2863 -12.2797 -12.2795 -12.2793 -12.2757 -12.2748 -12.2719 -12.2718
   -12.2679 -12.2664 -12.2639 -12.2630 -12.2587 -12.2574 -12.2572 -12.2530
   -12.2514 -12.2505 -12.2502 -12.2472 -12.2469 -12.2461 -12.2429 -12.2419
   -12.2403 -12.2393 -12.2362 -12.2358 -12.2357 -12.2333 -12.2330 -12.2307
   -12.2298 -12.2285 -12.2282 -12.2257 -12.2255 -12.2221 -12.2217 -12.2185
   -12.2178 -12.2173 -12.2155 -12.2154 -12.2131 -12.2112 -12.2086 -12.2075
   -12.2049 -12.2038 -12.2005 -12.2003 -12.1994 -12.1990 -12.1983 -12.1932
   -12.1923 -12.1920 -12.1906 -12.1881 -12.1828 -12.1815 -12.1783 -12.1771
   -12.1732 -12.1729 -12.1721 -12.1675 -12.1625 -12.1603 -12.1600 -12.1564
   -12.1560 -12.1556 -12.1523 -12.1509 -12.1471 -12.1435 -12.1422 -12.1377
   -12.1373 -12.1351 -12.1336 -12.1311 -12.1279 -12.1271 -12.1249 -12.1233
   -12.1226 -12.1212 -12.1179 -12.1177 -12.1156 -12.1154 -12.1131 -12.1122
   -12.1120 -12.1089 -12.1082 -12.1067 -12.1037 -12.1029 -12.1022 -12.1009
   -12.1000 -12.0974 -12.0971 -12.0956 -12.0920 -12.0911 -12.0905 -12.0904
   -12.0856 -12.0847 -12.0834 -12.0831 -12.0800 -12.0799 -12.0777 -12.0753
   -12.0714 -12.0704 -12.0697 -12.0691 -12.0688 -12.0661 -12.0627 -12.0624
   -12.0559 -12.0557 -12.0505 -12.0486 -12.0466 -12.0465 -12.0426 -12.0376
   -12.0369 -12.0338 -12.0308 -12.0288 -12.0281 -12.0244 -12.0223 -12.0202
   -12.0189 -12.0156 -12.0132 -12.0097 -12.0088 -12.0052 -12.0048 -12.0023
   -12.0016 -12.0008 -12.0001 -11.9987 -11.9972 -11.9933 -11.9922 -11.9910
   -11.9881 -11.9863 -11.9852 -11.9847 -11.9840 -11.9810 -11.9809 -11.9787
   -11.9763 -11.9742 -11.9735 -11.9734 -11.9713 -11.9693 -11.9661 -11.9645
   -11.9618 -11.9616 -11.9603 -11.9522 -11.9480 -11.9469 -11.9450 -11.9407
   -11.9363 -11.9350 -11.9326 -11.9201 -11.9167 -11.9143 -11.8980 -11.8668
   -11.8507 -11.8414 -11.8404 -11.8316 -11.8246 -11.8020 -11.7834 -11.7777
   -11.7379 -11.7352 -11.7279 -11.7079 -11.7050 -11.6817 -11.6423 -11.6006
   -11.5999 -11.5685 -11.5527 -11.5369 -11.5249 -11.5096 -11.4814 -11.4618
   -11.4239 -11.4189 -11.3885 -11.3766 -11.3725 -11.3515 -11.3496 -11.3429
   -11.3349 -11.3291 -11.3252 -11.3019 -11.2993 -11.2758 -11.2730 -11.2711
   -11.2474 -11.2130 -11.1426 -11.1185 -11.1056 -11.0147 -11.0110 -11.0091
    -5.8322  -5.8321  -5.6887  -5.6878  -5.6693  -5.6693  -5.6453  -5.6431
    -5.5205  -5.5196  -5.4529  -5.4520  -5.3586  -5.3586  -5.3442  -5.3374
    -5.1577  -5.1548  -5.0315  -4.9808  -4.9758  -4.9580  -4.9374  -4.9147
    -4.8521  -4.8065  -4.7787  -4.7730  -4.7521  -4.7378  -4.7191  -4.7154
    -4.7112  -4.6825  -4.6618  -4.6440  -4.6174  -4.5853  -4.5586  -4.5498
    -4.5118  -4.4188  -4.4100  -4.3411  -4.3310  -4.3298  -4.2715  -4.2648
    -4.2446  -4.2420  -4.2127  -4.1746  -4.1580  -4.1402  -4.1099  -4.1089
    -4.0939  -4.0025  -3.9452  -3.9184  -3.8419  -3.8014  -3.7943  -3.7712
    -3.7710  -3.7172  -3.7162  -3.6677  -3.6652  -3.6545  -3.5372  -3.5105
    -3.4302  -3.4293  -3.4205  -3.4170  -3.3565  -3.3549  -3.3329  -3.3032
    -3.2641  -3.2621  -3.2489  -3.2378  -3.2351  -3.1456  -3.1346  -3.1169
    -3.1079  -3.0474  -3.0224  -3.0174  -2.9973  -2.9698  -2.9639  -2.9564
    -2.9401  -2.9271  -2.9263  -2.8206  -2.7970  -2.7771  -2.7726  -2.7665
    -2.7325  -2.7237  -2.7144  -2.6794  -2.6689  -2.5830  -2.5811  -2.5603
    -2.5586  -2.5413  -2.4967  -2.4817  -2.4617  -2.4441  -2.4107  -2.3829
    -2.3735  -2.3567  -2.3368  -2.2789  -2.2509  -2.2459  -2.2311  -2.1865
    -2.1835  -2.1448  -2.1220  -2.1156  -2.1018  -2.0954  -2.0846  -2.0650
    -2.0323  -1.9919  -1.9816  -1.9713  -1.9463  -1.9370  -1.9144  -1.8976
    -1.8924  -1.8548  -1.8430  -1.8262  -1.8083  -1.8025  -1.7926  -1.7836
    -1.7675  -1.7106  -1.6888  -1.6834  -1.6816  -1.6661  -1.6430  -1.6260
    -1.6170  -1.6057  -1.5927  -1.5901  -1.5791  -1.5717  -1.5490  -1.5476
    -1.5394  -1.5348  -1.5169  -1.5145  -1.5041  -1.4934  -1.4615  -1.4437
    -1.4276  -1.4091  -1.4089  -1.3467  -1.3464  -1.3431  -1.3273  -1.2970
    -1.2847  -1.2532  -1.2409  -1.2339  -1.2183  -1.2077  -1.1965  -1.1714
    -1.1706  -1.1512  -1.1492  -1.1357  -1.1002  -1.0884  -1.0751  -1.0719
    -1.0398  -1.0307  -1.0106  -0.9875  -0.9782  -0.9757  -0.9537  -0.9356
    -0.8994  -0.8689  -0.8689  -0.8430  -0.8351  -0.8084  -0.7984  -0.7922
    -0.7659  -0.7577  -0.7424  -0.7075  -0.7020  -0.6906  -0.6437  -0.6366
    -0.6277  -0.5890  -0.5842  -0.5752  -0.5574  -0.5469  -0.5267  -0.5192
    -0.5179  -0.4914  -0.4886  -0.4793  -0.4524  -0.4448  -0.4417  -0.4278
    -0.4242  -0.4137  -0.3817  -0.3719  -0.3565  -0.3471  -0.3431  -0.3417
    -0.3250  -0.3105  -0.3016  -0.2722  -0.2721  -0.2643  -0.2599  -0.2586
    -0.2545  -0.2501  -0.2362  -0.2262  -0.2222  -0.2174  -0.2123  -0.1972
    -0.1935  -0.1932  -0.1909  -0.1735  -0.1670  -0.1618  -0.1577  -0.1521
    -0.1370  -0.1293  -0.1256  -0.1119  -0.0994  -0.0968  -0.0928  -0.0723
    -0.0590  -0.0402  -0.0325  -0.0066   0.0061   0.0267   0.0361   0.0430
     1.4143   2.0873   2.8675   3.6457   3.7139   3.7164   4.0418   4.0481
     4.3283   4.3701   4.3720   4.4794   4.4817   4.6509   4.6676   4.9474

          k = 0.1218 0.1218 0.0000 (327535 PWs)   bands (ev):

   -18.2538 -18.2538 -18.1499 -18.1499 -18.1243 -18.1243 -18.0758 -18.0758
   -17.9095 -17.9095 -17.8526 -17.8526 -17.8249 -17.8249 -17.7699 -17.7699
   -17.7646 -17.7646 -17.7457 -17.7457 -17.6805 -17.6805 -17.6732 -17.6732
   -17.3157 -17.1853 -17.0084 -17.0045 -16.9710 -16.9449 -16.9290 -16.8668
   -16.8555 -16.8529 -16.8416 -16.8400 -16.8268 -16.8022 -16.7922 -16.7695
   -16.7693 -16.7495 -16.7407 -16.7390 -16.7353 -16.7336 -16.7255 -16.7204
   -16.7154 -16.6845 -16.6829 -16.6643 -16.6467 -16.6119 -16.5992 -16.5950
   -16.5728 -16.5593 -16.5380 -16.5340 -16.5279 -16.5238 -16.5096 -16.5078
   -16.4914 -16.4895 -16.4870 -16.4807 -16.4730 -16.4682 -16.4642 -16.4589
   -16.4541 -16.4495 -16.4477 -16.4432 -16.4366 -16.4284 -16.4234 -16.4104
   -16.3970 -16.3935 -16.3838 -16.3824 -16.3515 -16.3461 -16.3406 -16.3185
   -16.3128 -16.3089 -16.3077 -16.2904 -16.2836 -16.2769 -16.2119 -16.1530
   -12.3962 -12.3938 -12.3920 -12.3724 -12.3658 -12.3627 -12.3589 -12.3556
   -12.3478 -12.3462 -12.3414 -12.3412 -12.3393 -12.3375 -12.3364 -12.3324
   -12.3317 -12.3298 -12.3286 -12.3262 -12.3232 -12.3222 -12.3190 -12.3187
   -12.3162 -12.3145 -12.3120 -12.3108 -12.3095 -12.3093 -12.3086 -12.3055
   -12.3053 -12.3032 -12.2998 -12.2977 -12.2970 -12.2938 -12.2909 -12.2908
   -12.2858 -12.2810 -12.2807 -12.2791 -12.2770 -12.2749 -12.2726 -12.2714
   -12.2690 -12.2673 -12.2647 -12.2644 -12.2599 -12.2575 -12.2566 -12.2542
   -12.2514 -12.2504 -12.2490 -12.2477 -12.2463 -12.2459 -12.2425 -12.2413
   -12.2396 -12.2396 -12.2359 -12.2358 -12.2353 -12.2336 -12.2327 -12.2303
   -12.2300 -12.2280 -12.2279 -12.2263 -12.2250 -12.2220 -12.2211 -12.2188
   -12.2179 -12.2176 -12.2158 -12.2153 -12.2134 -12.2112 -12.2084 -12.2066
   -12.2053 -12.2042 -12.2007 -12.2004 -12.1997 -12.1991 -12.1987 -12.1935
   -12.1921 -12.1918 -12.1914 -12.1876 -12.1826 -12.1815 -12.1793 -12.1767
   -12.1742 -12.1736 -12.1733 -12.1683 -12.1627 -12.1612 -12.1611 -12.1580
   -12.1571 -12.1555 -12.1522 -12.1516 -12.1470 -12.1430 -12.1426 -12.1384
   -12.1368 -12.1363 -12.1346 -12.1313 -12.1288 -12.1281 -12.1250 -12.1232
   -12.1231 -12.1213 -12.1182 -12.1179 -12.1158 -12.1155 -12.1136 -12.1129
   -12.1112 -12.1079 -12.1079 -12.1060 -12.1037 -12.1032 -12.1032 -12.1011
   -12.1002 -12.0975 -12.0973 -12.0951 -12.0920 -12.0906 -12.0901 -12.0895
   -12.0859 -12.0840 -12.0823 -12.0822 -12.0789 -12.0787 -12.0778 -12.0760
   -12.0704 -12.0699 -12.0699 -12.0690 -12.0676 -12.0657 -12.0630 -12.0623
   -12.0558 -12.0546 -12.0504 -12.0491 -12.0455 -12.0455 -12.0425 -12.0370
   -12.0349 -12.0329 -12.0304 -12.0285 -12.0275 -12.0241 -12.0213 -12.0197
   -12.0195 -12.0146 -12.0135 -12.0097 -12.0086 -12.0055 -12.0040 -12.0026
   -12.0017 -12.0000 -11.9997 -11.9982 -11.9971 -11.9930 -11.9918 -11.9910
   -11.9878 -11.9868 -11.9853 -11.9850 -11.9832 -11.9814 -11.9808 -11.9794
   -11.9776 -11.9741 -11.9737 -11.9735 -11.9697 -11.9695 -11.9670 -11.9647
   -11.9621 -11.9618 -11.9611 -11.9531 -11.9484 -11.9477 -11.9433 -11.9411
   -11.9351 -11.9338 -11.9338 -11.9213 -11.9175 -11.9140 -11.8971 -11.8679
   -11.8504 -11.8417 -11.8411 -11.8315 -11.8227 -11.8022 -11.7829 -11.7731
   -11.7366 -11.7359 -11.7308 -11.7064 -11.7045 -11.6769 -11.6514 -11.6075
   -11.5974 -11.5733 -11.5501 -11.5375 -11.5230 -11.5119 -11.4759 -11.4676
   -11.4306 -11.4253 -11.3832 -11.3794 -11.3690 -11.3494 -11.3469 -11.3411
   -11.3327 -11.3284 -11.3242 -11.3044 -11.3006 -11.2724 -11.2717 -11.2685
   -11.2420 -11.2069 -11.1428 -11.1199 -11.1078 -11.0180 -11.0149 -11.0122
    -5.8302  -5.8302  -5.6934  -5.6923  -5.6708  -5.6707  -5.6455  -5.6436
    -5.5203  -5.5193  -5.4558  -5.4550  -5.3527  -5.3526  -5.3384  -5.3320
    -5.1491  -5.1462  -5.0240  -4.9774  -4.9711  -4.9582  -4.9343  -4.9124
    -4.8475  -4.8092  -4.7771  -4.7728  -4.7548  -4.7427  -4.7226  -4.7160
    -4.7155  -4.6854  -4.6589  -4.6420  -4.6212  -4.5824  -4.5516  -4.5489
    -4.5223  -4.4278  -4.4198  -4.3521  -4.3365  -4.3334  -4.2792  -4.2739
    -4.2504  -4.2498  -4.2189  -4.1787  -4.1563  -4.1370  -4.1096  -4.1061
    -4.1032  -3.9950  -3.9444  -3.9384  -3.8384  -3.8136  -3.8013  -3.7840
    -3.7699  -3.7504  -3.7416  -3.6710  -3.6642  -3.6506  -3.5206  -3.4914
    -3.4313  -3.4210  -3.4160  -3.4140  -3.3486  -3.3372  -3.3248  -3.2944
    -3.2558  -3.2526  -3.2415  -3.2221  -3.2076  -3.1383  -3.1323  -3.1152
    -3.0931  -3.0462  -3.0196  -3.0075  -2.9917  -2.9679  -2.9643  -2.9547
    -2.9378  -2.9255  -2.9189  -2.8291  -2.7964  -2.7793  -2.7763  -2.7655
    -2.7221  -2.7200  -2.7089  -2.6819  -2.6628  -2.5838  -2.5828  -2.5538
    -2.5500  -2.5393  -2.4935  -2.4881  -2.4645  -2.4499  -2.4064  -2.3851
    -2.3694  -2.3443  -2.3270  -2.2737  -2.2530  -2.2468  -2.2309  -2.1980
    -2.1926  -2.1596  -2.1362  -2.1199  -2.1061  -2.1014  -2.0930  -2.0761
    -2.0344  -2.0022  -1.9880  -1.9767  -1.9462  -1.9381  -1.9214  -1.8969
    -1.8945  -1.8482  -1.8478  -1.8310  -1.8086  -1.8014  -1.7951  -1.7913
    -1.7702  -1.7205  -1.6926  -1.6871  -1.6819  -1.6669  -1.6452  -1.6219
    -1.6218  -1.6086  -1.5979  -1.5915  -1.5823  -1.5684  -1.5582  -1.5449
    -1.5390  -1.5372  -1.5153  -1.5129  -1.5001  -1.4946  -1.4546  -1.4423
    -1.4156  -1.4025  -1.3976  -1.3500  -1.3424  -1.3312  -1.3253  -1.2938
    -1.2851  -1.2499  -1.2365  -1.2292  -1.2026  -1.1989  -1.1974  -1.1719
    -1.1707  -1.1624  -1.1457  -1.1296  -1.0934  -1.0791  -1.0767  -1.0602
    -1.0403  -1.0403  -1.0113  -0.9854  -0.9814  -0.9770  -0.9453  -0.9363
    -0.8977  -0.8711  -0.8678  -0.8474  -0.8349  -0.8122  -0.8029  -0.7948
    -0.7712  -0.7586  -0.7400  -0.7098  -0.7073  -0.6890  -0.6565  -0.6503
    -0.6273  -0.5969  -0.5846  -0.5797  -0.5607  -0.5513  -0.5294  -0.5192
    -0.5189  -0.4935  -0.4893  -0.4796  -0.4491  -0.4463  -0.4416  -0.4307
    -0.4292  -0.4102  -0.3855  -0.3755  -0.3615  -0.3527  -0.3491  -0.3456
    -0.3277  -0.3134  -0.3024  -0.2776  -0.2708  -0.2671  -0.2653  -0.2641
    -0.2607  -0.2506  -0.2361  -0.2275  -0.2266  -0.2206  -0.2130  -0.2002
    -0.1936  -0.1892  -0.1864  -0.1773  -0.1682  -0.1591  -0.1525  -0.1522
    -0.1318  -0.1239  -0.1187  -0.1063  -0.0968  -0.0968  -0.0923  -0.0698
    -0.0581  -0.0412  -0.0325  -0.0078   0.0060   0.0273   0.0349   0.0416
     1.4620   2.1208   2.8921   3.6602   3.6673   3.6742   3.9987   4.0045
     4.3430   4.4275   4.4278   4.4456   4.4482   4.7021   4.7163   4.8818

          k = 0.1392 0.1392 0.0000 (327473 PWs)   bands (ev):

   -18.2516 -18.2516 -18.1508 -18.1508 -18.1260 -18.1260 -18.0775 -18.0775
   -17.9069 -17.9069 -17.8522 -17.8522 -17.8245 -17.8245 -17.7705 -17.7705
   -17.7639 -17.7639 -17.7465 -17.7465 -17.6807 -17.6807 -17.6736 -17.6736
   -17.3114 -17.1818 -17.0162 -17.0130 -16.9691 -16.9505 -16.9366 -16.8710
   -16.8559 -16.8537 -16.8436 -16.8359 -16.8229 -16.8073 -16.7887 -16.7692
   -16.7680 -16.7453 -16.7399 -16.7354 -16.7323 -16.7307 -16.7218 -16.7166
   -16.7131 -16.6831 -16.6793 -16.6618 -16.6447 -16.6116 -16.5993 -16.5956
   -16.5729 -16.5593 -16.5393 -16.5349 -16.5283 -16.5243 -16.5101 -16.5071
   -16.4924 -16.4915 -16.4876 -16.4805 -16.4733 -16.4670 -16.4657 -16.4594
   -16.4557 -16.4496 -16.4471 -16.4437 -16.4360 -16.4302 -16.4239 -16.4117
   -16.3989 -16.3952 -16.3869 -16.3833 -16.3498 -16.3440 -16.3413 -16.3183
   -16.3099 -16.3093 -16.3085 -16.2908 -16.2814 -16.2749 -16.2135 -16.1550
   -12.3953 -12.3927 -12.3900 -12.3719 -12.3650 -12.3611 -12.3585 -12.3549
   -12.3473 -12.3454 -12.3413 -12.3409 -12.3392 -12.3372 -12.3371 -12.3336
   -12.3307 -12.3294 -12.3290 -12.3262 -12.3238 -12.3211 -12.3197 -12.3195
   -12.3163 -12.3144 -12.3126 -12.3113 -12.3102 -12.3081 -12.3078 -12.3059
   -12.3051 -12.3027 -12.3001 -12.2974 -12.2972 -12.2939 -12.2915 -12.2910
   -12.2856 -12.2822 -12.2818 -12.2787 -12.2787 -12.2747 -12.2733 -12.2717
   -12.2700 -12.2676 -12.2659 -12.2657 -12.2608 -12.2577 -12.2563 -12.2551
   -12.2515 -12.2501 -12.2483 -12.2480 -12.2458 -12.2456 -12.2423 -12.2406
   -12.2398 -12.2389 -12.2357 -12.2356 -12.2350 -12.2340 -12.2321 -12.2302
   -12.2297 -12.2275 -12.2274 -12.2268 -12.2246 -12.2219 -12.2208 -12.2192
   -12.2180 -12.2180 -12.2164 -12.2150 -12.2138 -12.2112 -12.2086 -12.2060
   -12.2053 -12.2047 -12.2008 -12.2008 -12.1999 -12.1993 -12.1988 -12.1941
   -12.1923 -12.1922 -12.1911 -12.1872 -12.1833 -12.1806 -12.1803 -12.1762
   -12.1753 -12.1748 -12.1736 -12.1691 -12.1632 -12.1623 -12.1620 -12.1601
   -12.1581 -12.1558 -12.1524 -12.1521 -12.1470 -12.1428 -12.1426 -12.1390
   -12.1372 -12.1362 -12.1353 -12.1317 -12.1298 -12.1293 -12.1252 -12.1236
   -12.1232 -12.1215 -12.1185 -12.1178 -12.1162 -12.1157 -12.1137 -12.1136
   -12.1103 -12.1076 -12.1075 -12.1053 -12.1044 -12.1037 -12.1029 -12.1012
   -12.1003 -12.0978 -12.0973 -12.0946 -12.0919 -12.0904 -12.0896 -12.0887
   -12.0862 -12.0831 -12.0816 -12.0806 -12.0786 -12.0778 -12.0775 -12.0761
   -12.0704 -12.0703 -12.0688 -12.0684 -12.0664 -12.0651 -12.0635 -12.0618
   -12.0557 -12.0542 -12.0507 -12.0490 -12.0441 -12.0440 -12.0424 -12.0363
   -12.0335 -12.0317 -12.0299 -12.0283 -12.0271 -12.0238 -12.0204 -12.0203
   -12.0188 -12.0137 -12.0135 -12.0097 -12.0085 -12.0057 -12.0033 -12.0030
   -12.0015 -11.9993 -11.9991 -11.9977 -11.9971 -11.9928 -11.9915 -11.9914
   -11.9879 -11.9873 -11.9854 -11.9853 -11.9830 -11.9809 -11.9807 -11.9800
   -11.9787 -11.9743 -11.9741 -11.9732 -11.9702 -11.9684 -11.9678 -11.9638
   -11.9626 -11.9619 -11.9618 -11.9555 -11.9488 -11.9485 -11.9411 -11.9407
   -11.9351 -11.9339 -11.9325 -11.9240 -11.9147 -11.9136 -11.8965 -11.8692
   -11.8506 -11.8422 -11.8408 -11.8320 -11.8206 -11.8023 -11.7821 -11.7713
   -11.7410 -11.7361 -11.7292 -11.7040 -11.7020 -11.6723 -11.6600 -11.6153
   -11.5944 -11.5788 -11.5497 -11.5377 -11.5211 -11.5137 -11.4745 -11.4711
   -11.4375 -11.4303 -11.3821 -11.3778 -11.3645 -11.3469 -11.3448 -11.3388
   -11.3309 -11.3275 -11.3238 -11.3080 -11.2992 -11.2726 -11.2675 -11.2645
   -11.2365 -11.2010 -11.1430 -11.1213 -11.1104 -11.0219 -11.0193 -11.0156
    -5.8280  -5.8280  -5.6982  -5.6971  -5.6724  -5.6723  -5.6463  -5.6445
    -5.5199  -5.5187  -5.4586  -5.4580  -5.3465  -5.3463  -5.3322  -5.3262
    -5.1393  -5.1365  -5.0154  -4.9737  -4.9658  -4.9581  -4.9308  -4.9095
    -4.8425  -4.8118  -4.7753  -4.7727  -4.7584  -4.7474  -4.7287  -4.7188
    -4.7152  -4.6872  -4.6556  -4.6398  -4.6257  -4.5804  -4.5481  -4.5451
    -4.5334  -4.4362  -4.4290  -4.3625  -4.3436  -4.3375  -4.2868  -4.2841
    -4.2591  -4.2565  -4.2263  -4.1845  -4.1568  -4.1332  -4.1186  -4.1054
    -4.1030  -3.9907  -3.9695  -3.9354  -3.8574  -3.8304  -3.8111  -3.7835
    -3.7828  -3.7633  -3.7509  -3.6742  -3.6572  -3.6435  -3.5051  -3.4728
    -3.4320  -3.4169  -3.4109  -3.4062  -3.3414  -3.3253  -3.3184  -3.2819
    -3.2498  -3.2446  -3.2345  -3.2021  -3.1905  -3.1366  -3.1243  -3.1023
    -3.0794  -3.0451  -3.0159  -2.9941  -2.9852  -2.9711  -2.9627  -2.9468
    -2.9398  -2.9197  -2.9093  -2.8367  -2.7956  -2.7838  -2.7810  -2.7601
    -2.7166  -2.7114  -2.7028  -2.6829  -2.6571  -2.5869  -2.5813  -2.5485
    -2.5441  -2.5392  -2.4930  -2.4888  -2.4667  -2.4558  -2.4018  -2.3883
    -2.3648  -2.3325  -2.3176  -2.2724  -2.2594  -2.2546  -2.2255  -2.2117
    -2.1974  -2.1715  -2.1498  -2.1277  -2.1074  -2.1073  -2.0954  -2.0826
    -2.0375  -2.0141  -1.9973  -1.9835  -1.9484  -1.9385  -1.9296  -1.9007
    -1.8931  -1.8555  -1.8406  -1.8340  -1.8068  -1.8035  -1.7971  -1.7951
    -1.7713  -1.7311  -1.6989  -1.6913  -1.6857  -1.6732  -1.6525  -1.6238
    -1.6226  -1.6106  -1.6050  -1.5900  -1.5789  -1.5687  -1.5656  -1.5466
    -1.5412  -1.5368  -1.5179  -1.5099  -1.4914  -1.4867  -1.4498  -1.4414
    -1.4045  -1.3917  -1.3881  -1.3552  -1.3377  -1.3205  -1.3179  -1.2912
    -1.2848  -1.2443  -1.2361  -1.2248  -1.2005  -1.1908  -1.1872  -1.1742
    -1.1717  -1.1705  -1.1429  -1.1172  -1.0940  -1.0778  -1.0717  -1.0463
    -1.0450  -1.0422  -1.0110  -0.9854  -0.9823  -0.9769  -0.9384  -0.9344
    -0.8976  -0.8727  -0.8711  -0.8490  -0.8351  -0.8154  -0.8081  -0.7988
    -0.7789  -0.7594  -0.7367  -0.7125  -0.7120  -0.6867  -0.6725  -0.6631
    -0.6275  -0.6036  -0.5868  -0.5842  -0.5644  -0.5531  -0.5331  -0.5200
    -0.5193  -0.4952  -0.4887  -0.4796  -0.4506  -0.4474  -0.4416  -0.4336
    -0.4333  -0.4077  -0.3910  -0.3793  -0.3677  -0.3612  -0.3530  -0.3496
    -0.3277  -0.3172  -0.3042  -0.2852  -0.2757  -0.2738  -0.2722  -0.2689
    -0.2636  -0.2507  -0.2338  -0.2295  -0.2283  -0.2236  -0.2133  -0.2031
    -0.1948  -0.1877  -0.1800  -0.1783  -0.1692  -0.1566  -0.1503  -0.1465
    -0.1260  -0.1188  -0.1106  -0.1012  -0.0964  -0.0945  -0.0920  -0.0675
    -0.0572  -0.0426  -0.0316  -0.0091   0.0058   0.0279   0.0333   0.0400
     1.5150   2.1587   2.9201   3.6223   3.6237   3.6874   3.9566   3.9622
     4.3592   4.4062   4.4074   4.4900   4.4921   4.7535   4.7656   4.8140

          k = 0.1566 0.1566 0.0000 (327478 PWs)   bands (ev):

   -18.2492 -18.2492 -18.1518 -18.1518 -18.1279 -18.1279 -18.0795 -18.0795
   -17.9041 -17.9041 -17.8516 -17.8516 -17.8241 -17.8241 -17.7712 -17.7712
   -17.7632 -17.7632 -17.7473 -17.7473 -17.6809 -17.6809 -17.6741 -17.6741
   -17.3065 -17.1778 -17.0241 -17.0214 -16.9669 -16.9562 -16.9441 -16.8764
   -16.8585 -16.8566 -16.8450 -16.8314 -16.8182 -16.8122 -16.7844 -16.7685
   -16.7665 -16.7408 -16.7389 -16.7318 -16.7284 -16.7278 -16.7181 -16.7124
   -16.7106 -16.6815 -16.6761 -16.6589 -16.6426 -16.6112 -16.5992 -16.5962
   -16.5730 -16.5594 -16.5407 -16.5358 -16.5287 -16.5247 -16.5108 -16.5063
   -16.4936 -16.4936 -16.4878 -16.4805 -16.4736 -16.4674 -16.4663 -16.4601
   -16.4572 -16.4497 -16.4475 -16.4435 -16.4356 -16.4319 -16.4247 -16.4129
   -16.4006 -16.3972 -16.3900 -16.3844 -16.3477 -16.3419 -16.3418 -16.3185
   -16.3094 -16.3091 -16.3068 -16.2913 -16.2792 -16.2727 -16.2153 -16.1573
   -12.3942 -12.3914 -12.3878 -12.3712 -12.3642 -12.3595 -12.3580 -12.3542
   -12.3468 -12.3446 -12.3414 -12.3406 -12.3391 -12.3378 -12.3368 -12.3349
   -12.3305 -12.3295 -12.3294 -12.3263 -12.3243 -12.3207 -12.3200 -12.3199
   -12.3165 -12.3139 -12.3131 -12.3122 -12.3107 -12.3080 -12.3063 -12.3063
   -12.3042 -12.3023 -12.3008 -12.2979 -12.2967 -12.2939 -12.2918 -12.2912
   -12.2856 -12.2832 -12.2825 -12.2802 -12.2782 -12.2754 -12.2735 -12.2726
   -12.2708 -12.2675 -12.2673 -12.2667 -12.2613 -12.2578 -12.2569 -12.2550
   -12.2518 -12.2497 -12.2485 -12.2476 -12.2460 -12.2447 -12.2423 -12.2401
   -12.2399 -12.2381 -12.2356 -12.2354 -12.2348 -12.2341 -12.2315 -12.2305
   -12.2292 -12.2271 -12.2270 -12.2269 -12.2242 -12.2219 -12.2209 -12.2198
   -12.2183 -12.2181 -12.2169 -12.2146 -12.2142 -12.2113 -12.2094 -12.2063
   -12.2049 -12.2049 -12.2012 -12.2009 -12.1999 -12.1995 -12.1988 -12.1948
   -12.1928 -12.1924 -12.1906 -12.1868 -12.1839 -12.1813 -12.1797 -12.1763
   -12.1758 -12.1757 -12.1738 -12.1699 -12.1649 -12.1630 -12.1625 -12.1621
   -12.1589 -12.1563 -12.1533 -12.1519 -12.1470 -12.1427 -12.1426 -12.1397
   -12.1376 -12.1358 -12.1356 -12.1323 -12.1306 -12.1305 -12.1255 -12.1241
   -12.1232 -12.1220 -12.1191 -12.1175 -12.1166 -12.1159 -12.1140 -12.1133
   -12.1095 -12.1078 -12.1075 -12.1053 -12.1049 -12.1037 -12.1023 -12.1013
   -12.1000 -12.0979 -12.0972 -12.0941 -12.0917 -12.0908 -12.0892 -12.0883
   -12.0858 -12.0821 -12.0811 -12.0792 -12.0792 -12.0776 -12.0762 -12.0752
   -12.0707 -12.0707 -12.0683 -12.0671 -12.0656 -12.0645 -12.0636 -12.0610
   -12.0556 -12.0545 -12.0510 -12.0477 -12.0431 -12.0426 -12.0417 -12.0356
   -12.0324 -12.0304 -12.0295 -12.0280 -12.0270 -12.0233 -12.0211 -12.0195
   -12.0178 -12.0138 -12.0123 -12.0097 -12.0085 -12.0059 -12.0033 -12.0030
   -12.0010 -11.9989 -11.9983 -11.9970 -11.9967 -11.9927 -11.9918 -11.9912
   -11.9886 -11.9879 -11.9853 -11.9853 -11.9832 -11.9813 -11.9801 -11.9799
   -11.9797 -11.9749 -11.9743 -11.9727 -11.9704 -11.9685 -11.9683 -11.9638
   -11.9632 -11.9618 -11.9615 -11.9571 -11.9493 -11.9493 -11.9409 -11.9378
   -11.9366 -11.9325 -11.9311 -11.9251 -11.9131 -11.9115 -11.8961 -11.8706
   -11.8512 -11.8420 -11.8405 -11.8328 -11.8186 -11.8023 -11.7812 -11.7714
   -11.7468 -11.7392 -11.7244 -11.7029 -11.6962 -11.6715 -11.6642 -11.6230
   -11.5914 -11.5853 -11.5514 -11.5388 -11.5195 -11.5142 -11.4818 -11.4675
   -11.4442 -11.4336 -11.3844 -11.3730 -11.3596 -11.3443 -11.3426 -11.3364
   -11.3294 -11.3263 -11.3243 -11.3092 -11.2976 -11.2728 -11.2633 -11.2601
   -11.2312 -11.1953 -11.1435 -11.1228 -11.1132 -11.0264 -11.0243 -11.0192
    -5.8255  -5.8255  -5.7031  -5.7020  -5.6740  -5.6739  -5.6476  -5.6460
    -5.5190  -5.5178  -5.4614  -5.4608  -5.3399  -5.3398  -5.3257  -5.3201
    -5.1284  -5.1257  -5.0058  -4.9699  -4.9597  -4.9578  -4.9270  -4.9059
    -4.8370  -4.8144  -4.7738  -4.7727  -4.7629  -4.7510  -4.7358  -4.7207
    -4.7144  -4.6880  -4.6521  -4.6377  -4.6309  -4.5788  -4.5477  -4.5448
    -4.5398  -4.4433  -4.4372  -4.3723  -4.3522  -4.3421  -4.2951  -4.2947
    -4.2696  -4.2630  -4.2341  -4.1916  -4.1607  -4.1300  -4.1297  -4.1087
    -4.0979  -4.0011  -3.9808  -3.9394  -3.8848  -3.8524  -3.8298  -3.8072
    -3.7766  -3.7558  -3.7429  -3.6769  -3.6447  -3.6338  -3.4918  -3.4558
    -3.4317  -3.4141  -3.4049  -3.3957  -3.3330  -3.3191  -3.3129  -3.2684
    -3.2454  -3.2394  -3.2228  -3.1891  -3.1826  -3.1282  -3.1118  -3.0843
    -3.0674  -3.0437  -3.0114  -2.9800  -2.9773  -2.9749  -2.9579  -2.9434
    -2.9367  -2.9111  -2.8989  -2.8431  -2.7953  -2.7918  -2.7816  -2.7535
    -2.7131  -2.7017  -2.6965  -2.6815  -2.6524  -2.5899  -2.5782  -2.5466
    -2.5421  -2.5397  -2.4948  -2.4829  -2.4684  -2.4615  -2.3971  -2.3923
    -2.3606  -2.3223  -2.3101  -2.2781  -2.2677  -2.2637  -2.2252  -2.2170
    -2.2053  -2.1764  -2.1604  -2.1367  -2.1116  -2.1071  -2.0947  -2.0849
    -2.0422  -2.0268  -2.0092  -1.9913  -1.9520  -1.9401  -1.9382  -1.9032
    -1.8924  -1.8620  -1.8366  -1.8354  -1.8107  -1.8073  -1.7956  -1.7908
    -1.7716  -1.7417  -1.7071  -1.6968  -1.6930  -1.6818  -1.6642  -1.6293
    -1.6257  -1.6122  -1.6047  -1.5949  -1.5781  -1.5738  -1.5614  -1.5477
    -1.5433  -1.5417  -1.5138  -1.5085  -1.4841  -1.4713  -1.4461  -1.4409
    -1.3947  -1.3808  -1.3781  -1.3609  -1.3318  -1.3141  -1.3041  -1.2897
    -1.2822  -1.2372  -1.2355  -1.2305  -1.1982  -1.1898  -1.1865  -1.1722
    -1.1696  -1.1645  -1.1394  -1.1053  -1.1014  -1.0757  -1.0657  -1.0465
    -1.0455  -1.0304  -1.0105  -0.9894  -0.9793  -0.9743  -0.9373  -0.9274
    -0.8987  -0.8770  -0.8743  -0.8489  -0.8361  -0.8171  -0.8156  -0.8038
    -0.7864  -0.7586  -0.7334  -0.7153  -0.7148  -0.6900  -0.6868  -0.6754
    -0.6291  -0.6080  -0.5915  -0.5889  -0.5687  -0.5522  -0.5382  -0.5207
    -0.5199  -0.4966  -0.4870  -0.4797  -0.4564  -0.4495  -0.4445  -0.4349
    -0.4343  -0.4067  -0.3985  -0.3827  -0.3744  -0.3701  -0.3546  -0.3543
    -0.3273  -0.3223  -0.3078  -0.2962  -0.2831  -0.2830  -0.2777  -0.2760
    -0.2624  -0.2510  -0.2320  -0.2304  -0.2283  -0.2269  -0.2124  -0.2050
    -0.1959  -0.1894  -0.1794  -0.1710  -0.1693  -0.1548  -0.1446  -0.1411
    -0.1200  -0.1140  -0.1025  -0.0969  -0.0949  -0.0921  -0.0916  -0.0652
    -0.0564  -0.0437  -0.0303  -0.0105   0.0055   0.0287   0.0314   0.0382
     1.5727   2.2006   2.9513   3.5789   3.5808   3.7111   3.9158   3.9212
     4.3657   4.3703   4.3837   4.5501   4.5515   4.7437   4.8036   4.8151

          k = 0.1740 0.1740 0.0000 (327481 PWs)   bands (ev):

   -18.2466 -18.2466 -18.1529 -18.1529 -18.1299 -18.1299 -18.0817 -18.0817
   -17.9010 -17.9010 -17.8510 -17.8510 -17.8236 -17.8236 -17.7720 -17.7720
   -17.7625 -17.7625 -17.7480 -17.7480 -17.6811 -17.6811 -17.6745 -17.6745
   -17.3010 -17.1734 -17.0320 -17.0296 -16.9650 -16.9616 -16.9514 -16.8832
   -16.8626 -16.8605 -16.8458 -16.8270 -16.8193 -16.8109 -16.7800 -16.7674
   -16.7646 -16.7378 -16.7367 -16.7280 -16.7250 -16.7237 -16.7143 -16.7078
   -16.7073 -16.6797 -16.6732 -16.6557 -16.6405 -16.6106 -16.5991 -16.5967
   -16.5732 -16.5595 -16.5419 -16.5367 -16.5291 -16.5251 -16.5115 -16.5056
   -16.4958 -16.4950 -16.4878 -16.4808 -16.4742 -16.4688 -16.4666 -16.4609
   -16.4583 -16.4499 -16.4488 -16.4429 -16.4356 -16.4332 -16.4258 -16.4139
   -16.4020 -16.3999 -16.3929 -16.3859 -16.3453 -16.3421 -16.3398 -16.3190
   -16.3104 -16.3085 -16.3039 -16.2918 -16.2769 -16.2704 -16.2173 -16.1599
   -12.3931 -12.3900 -12.3855 -12.3706 -12.3633 -12.3578 -12.3575 -12.3534
   -12.3464 -12.3439 -12.3417 -12.3403 -12.3390 -12.3386 -12.3363 -12.3361
   -12.3311 -12.3299 -12.3298 -12.3266 -12.3246 -12.3217 -12.3203 -12.3194
   -12.3167 -12.3136 -12.3130 -12.3128 -12.3110 -12.3082 -12.3064 -12.3053
   -12.3031 -12.3017 -12.3017 -12.2984 -12.2965 -12.2940 -12.2918 -12.2914
   -12.2857 -12.2836 -12.2829 -12.2815 -12.2779 -12.2767 -12.2736 -12.2732
   -12.2716 -12.2693 -12.2676 -12.2663 -12.2616 -12.2581 -12.2578 -12.2547
   -12.2521 -12.2493 -12.2488 -12.2473 -12.2463 -12.2438 -12.2425 -12.2405
   -12.2392 -12.2375 -12.2358 -12.2352 -12.2344 -12.2339 -12.2310 -12.2306
   -12.2287 -12.2271 -12.2266 -12.2263 -12.2240 -12.2220 -12.2213 -12.2204
   -12.2186 -12.2182 -12.2174 -12.2148 -12.2141 -12.2114 -12.2103 -12.2073
   -12.2048 -12.2045 -12.2018 -12.2009 -12.1999 -12.1996 -12.1986 -12.1956
   -12.1931 -12.1926 -12.1905 -12.1864 -12.1842 -12.1824 -12.1792 -12.1772
   -12.1762 -12.1754 -12.1741 -12.1706 -12.1670 -12.1644 -12.1635 -12.1625
   -12.1595 -12.1570 -12.1541 -12.1516 -12.1471 -12.1428 -12.1424 -12.1405
   -12.1374 -12.1361 -12.1351 -12.1333 -12.1315 -12.1309 -12.1260 -12.1246
   -12.1233 -12.1226 -12.1200 -12.1171 -12.1168 -12.1161 -12.1141 -12.1127
   -12.1088 -12.1085 -12.1078 -12.1053 -12.1049 -12.1036 -12.1020 -12.1015
   -12.0989 -12.0978 -12.0970 -12.0935 -12.0915 -12.0913 -12.0888 -12.0881
   -12.0850 -12.0813 -12.0807 -12.0798 -12.0780 -12.0774 -12.0750 -12.0740
   -12.0712 -12.0711 -12.0676 -12.0661 -12.0654 -12.0636 -12.0630 -12.0599
   -12.0554 -12.0551 -12.0513 -12.0460 -12.0430 -12.0414 -12.0402 -12.0349
   -12.0315 -12.0293 -12.0293 -12.0275 -12.0270 -12.0227 -12.0215 -12.0188
   -12.0170 -12.0137 -12.0113 -12.0096 -12.0084 -12.0060 -12.0036 -12.0031
   -12.0004 -11.9987 -11.9980 -11.9964 -11.9958 -11.9932 -11.9915 -11.9911
   -11.9896 -11.9884 -11.9851 -11.9849 -11.9834 -11.9822 -11.9805 -11.9797
   -11.9793 -11.9756 -11.9747 -11.9725 -11.9703 -11.9690 -11.9679 -11.9659
   -11.9637 -11.9624 -11.9618 -11.9544 -11.9501 -11.9500 -11.9408 -11.9381
   -11.9351 -11.9310 -11.9296 -11.9250 -11.9126 -11.9079 -11.8958 -11.8722
   -11.8519 -11.8413 -11.8404 -11.8338 -11.8168 -11.8025 -11.7802 -11.7720
   -11.7530 -11.7426 -11.7213 -11.7015 -11.6901 -11.6765 -11.6608 -11.6304
   -11.5926 -11.5883 -11.5545 -11.5419 -11.5188 -11.5132 -11.4888 -11.4653
   -11.4504 -11.4346 -11.3862 -11.3688 -11.3558 -11.3419 -11.3408 -11.3344
   -11.3281 -11.3246 -11.3234 -11.3082 -11.2957 -11.2729 -11.2593 -11.2553
   -11.2262 -11.1898 -11.1441 -11.1243 -11.1165 -11.0314 -11.0298 -11.0231
    -5.8228  -5.8228  -5.7081  -5.7070  -5.6758  -5.6757  -5.6493  -5.6479
    -5.5179  -5.5166  -5.4641  -5.4636  -5.3333  -5.3330  -5.3191  -5.3139
    -5.1166  -5.1140  -4.9952  -4.9661  -4.9570  -4.9531  -4.9229  -4.9014
    -4.8310  -4.8167  -4.7744  -4.7730  -4.7666  -4.7531  -4.7429  -4.7221
    -4.7131  -4.6882  -4.6483  -4.6366  -4.6355  -4.5776  -4.5571  -4.5471
    -4.5363  -4.4484  -4.4443  -4.3814  -4.3621  -4.3472  -4.3068  -4.3033
    -4.2812  -4.2697  -4.2421  -4.1999  -4.1689  -4.1393  -4.1294  -4.1163
    -4.0911  -4.0248  -3.9781  -3.9547  -3.9081  -3.8800  -3.8533  -3.8229
    -3.7641  -3.7482  -3.7296  -3.6785  -3.6267  -3.6216  -3.4815  -3.4415
    -3.4301  -3.4110  -3.3981  -3.3837  -3.3233  -3.3153  -3.3073  -3.2584
    -3.2404  -3.2388  -3.2073  -3.1953  -3.1639  -3.1179  -3.0949  -3.0645
    -3.0570  -3.0416  -3.0060  -2.9781  -2.9775  -2.9594  -2.9498  -2.9435
    -2.9258  -2.9012  -2.8878  -2.8480  -2.7992  -2.7964  -2.7800  -2.7462
    -2.7094  -2.6954  -2.6904  -2.6756  -2.6490  -2.5927  -2.5740  -2.5497
    -2.5445  -2.5390  -2.4926  -2.4758  -2.4696  -2.4668  -2.3968  -2.3927
    -2.3575  -2.3161  -2.3062  -2.2901  -2.2747  -2.2745  -2.2278  -2.2162
    -2.2150  -2.1753  -2.1659  -2.1450  -2.1137  -2.1072  -2.0926  -2.0832
    -2.0484  -2.0394  -2.0224  -1.9995  -1.9566  -1.9462  -1.9433  -1.9044
    -1.8925  -1.8669  -1.8392  -1.8351  -1.8136  -1.8100  -1.7908  -1.7858
    -1.7704  -1.7520  -1.7175  -1.7030  -1.7026  -1.6906  -1.6788  -1.6358
    -1.6289  -1.6139  -1.6061  -1.6048  -1.5827  -1.5730  -1.5557  -1.5541
    -1.5460  -1.5380  -1.5074  -1.5060  -1.4753  -1.4584  -1.4413  -1.4409
    -1.3853  -1.3761  -1.3654  -1.3636  -1.3238  -1.3083  -1.2912  -1.2902
    -1.2758  -1.2459  -1.2341  -1.2289  -1.2024  -1.1885  -1.1833  -1.1696
    -1.1679  -1.1506  -1.1348  -1.1076  -1.0977  -1.0749  -1.0599  -1.0490
    -1.0411  -1.0182  -1.0112  -0.9919  -0.9751  -0.9702  -0.9375  -0.9218
    -0.9006  -0.8821  -0.8771  -0.8504  -0.8368  -0.8234  -0.8176  -0.8087
    -0.7923  -0.7560  -0.7318  -0.7181  -0.7175  -0.7071  -0.6890  -0.6868
    -0.6331  -0.6085  -0.5982  -0.5941  -0.5737  -0.5498  -0.5450  -0.5213
    -0.5204  -0.4973  -0.4847  -0.4807  -0.4637  -0.4554  -0.4484  -0.4355
    -0.4325  -0.4083  -0.4074  -0.3852  -0.3810  -0.3768  -0.3599  -0.3557
    -0.3287  -0.3273  -0.3136  -0.3091  -0.2937  -0.2909  -0.2842  -0.2787
    -0.2611  -0.2517  -0.2348  -0.2305  -0.2287  -0.2268  -0.2100  -0.2055
    -0.1970  -0.1924  -0.1781  -0.1670  -0.1656  -0.1523  -0.1363  -0.1357
    -0.1137  -0.1096  -0.0967  -0.0944  -0.0918  -0.0897  -0.0886  -0.0628
    -0.0555  -0.0441  -0.0290  -0.0119   0.0051   0.0292   0.0294   0.0361
     1.6345   2.2463   2.9855   3.5372   3.5394   3.7373   3.8765   3.8817
     4.3339   4.3351   4.4007   4.6107   4.6114   4.6724   4.8109   4.8161

     Writing all to output data dir ./tmp/slab.save/ :
     XML data file, pseudopotentials, collected wavefunctions
 
     init_run     :     27.95s CPU     33.36s WALL (       1 calls)
     electrons    :  29706.85s CPU  30030.91s WALL (       1 calls)

     Called by init_run:
     wfcinit      :      0.00s CPU      0.00s WALL (       1 calls)
     wfcinit:atom :      0.39s CPU      0.39s WALL (      21 calls)
     wfcinit:wfcr :     33.01s CPU     66.38s WALL (      21 calls)
     potinit      :     19.72s CPU     20.15s WALL (       1 calls)
     hinit0       :      5.13s CPU      5.35s WALL (       1 calls)

     Called by electrons:
     c_bands      :  29706.85s CPU  30030.84s WALL (       1 calls)
     v_of_rho     :      0.30s CPU      0.40s WALL (       1 calls)
     v_h          :      0.16s CPU      0.22s WALL (       1 calls)
     v_xc         :      0.14s CPU      0.19s WALL (       1 calls)
     newd         :      0.19s CPU      0.30s WALL (       1 calls)
                                        0.30s GPU  (       1 calls)
     PAW_pot      :      9.87s CPU      9.92s WALL (       1 calls)

     Called by c_bands:
     init_us_2    :      0.28s CPU      0.29s WALL (      21 calls)
     ccgdiagg     :  29541.64s CPU  29752.36s WALL (     126 calls)
     wfcrot       :    139.42s CPU    196.96s WALL (     126 calls)
                                      196.96s GPU  (     126 calls)

     Called by sum_band:

     Called by *cgdiagg:
     h_psi        :  10304.54s CPU  10475.03s WALL ( 1002895 calls)
                                    10364.81s GPU  ( 1002895 calls)
     s_psi        :  10051.10s CPU  10097.75s WALL ( 2005664 calls)

     Called by h_psi:
     h_psi:calbec :     17.02s CPU   2762.03s WALL ( 1002895 calls)
                                     2755.53s GPU  ( 1002895 calls)
     vloc_psi     :    855.36s CPU    965.37s WALL ( 1002895 calls)
                                      958.19s GPU  ( 1002895 calls)
     add_vuspsi   :   3692.87s CPU   6597.55s WALL ( 1002895 calls)
                                     6590.98s GPU  ( 1002895 calls)
     hs_1psi      :  13895.28s CPU  16906.66s WALL ( 1002769 calls)
                                    16797.68s GPU  ( 1002769 calls)
     s_1psi       :   6407.77s CPU   9308.56s WALL ( 1002769 calls)
                                     9297.83s GPU  ( 1002769 calls)

     General routines
     calbec       :     26.15s CPU     27.16s WALL ( 2005664 calls)
     fft          :      6.32s CPU      6.46s WALL (      13 calls)
                                        0.11s GPU  (      12 calls)
     ffts         :      3.03s CPU      3.06s WALL (       1 calls)
     fftw         :     24.18s CPU    622.64s WALL ( 2016962 calls)
                                      609.67s GPU  ( 2016962 calls)
     interpolate  :      9.40s CPU      9.56s WALL (       1 calls)
     davcio       :      5.11s CPU     96.91s WALL (      42 calls)
 
     Parallel routines

     PAW routines
     PAW_pot      :      9.87s CPU      9.92s WALL (       1 calls)
 
     PWSCF        :      8h15m CPU      8h22m WALL

 
   This run was terminated on:  11:59:29   4Oct2026            

=------------------------------------------------------------------------------=
   JOB DONE.
=------------------------------------------------------------------------------=
Warning: ieee_invalid is signaling
Warning: ieee_divide_by_zero is signaling
Warning: ieee_inexact is signaling
FORTRAN STOP
