
     Program PWSCF v.7.5 starts on  5Oct2026 at 18:22:37 

     This program is part of the open-source Quantum ESPRESSO suite
     for quantum simulation of materials; please cite
         "P. Giannozzi et al., J. Phys.:Condens. Matter 21 395502 (2009);
         "P. Giannozzi et al., J. Phys.:Condens. Matter 29 465901 (2017);
         "P. Giannozzi et al., J. Chem. Phys. 152 154105 (2020);
          URL http://www.quantum-espresso.org", 
     in publications or presentations arising from this work. More details at
     http://www.quantum-espresso.org/quote

     Parallel version (MPI & OpenMP), running on      33 processor cores
     Number of MPI processes:                33
     Threads/MPI process:                     1

     MPI processes distributed on     1 nodes
     153915 MiB available memory on the printing compute node when the environment starts

     Reading input from scf.in

     Current dimensions of program PWSCF are:
     Max number of different atomic species (ntypx) = 10
     Max number of k-points (npk) =  40000
     Max angular momentum in pseudopotentials (lmaxx) =  4
     file In.pbe-dn-kjpaw_psl.1.0.0.UPF: wavefunction(s)  5S 5P 4D renormalized
     file O.pbe-n-kjpaw_psl.1.0.0.UPF: wavefunction(s)  2S 2P renormalized
     file W.pbe-spn-kjpaw_psl.1.0.0.UPF: wavefunction(s)  6S 5P 5D renormalized
     file H.pbe-kjpaw_psl.1.0.0.UPF: wavefunction(s)  1S renormalized
     Message from routine setup:
     using ibrav=0 with symmetry is DISCOURAGED, use correct ibrav instead

     R & G space division:  proc/nbgrp/npool/nimage =      33
     Subspace diagonalization in iterative solution of the eigenvalue problem:
     one sub-group per band group will be used
     ELPA distributed-memory algorithm (size of sub-group:  5*  5 procs)


     Parallelization info
     --------------------
     sticks:   dense  smooth     PW     G-vecs:    dense   smooth      PW
     Min         519     260     67               224621    79418   10473
     Max         520     261     68               224650    79437   10494
     Sum       17157    8585   2225              7413147  2620949  345857

     Using Slab Decomposition



     bravais-lattice index     =            0
     lattice parameter (alat)  =      19.4980  a.u.
     unit-cell volume          =   32429.1953 (a.u.)^3
     number of atoms/cell      =          176
     number of atomic types    =            4
     number of electrons       =      1329.00
     number of Kohn-Sham states=          688
     kinetic-energy cutoff     =      71.0000  Ry
     charge density cutoff     =     568.0000  Ry
     scf convergence threshold =      1.0E-08
     mixing beta               =       0.1000
     number of iterations used =            8  local-TF  mixing
     Exchange-correlation= SLA  PW   PBX  PBC
                           (   1   4   3   4   0   0   0)

     celldm(1)=  19.498036  celldm(2)=   0.000000  celldm(3)=   0.000000
     celldm(4)=   0.000000  celldm(5)=   0.000000  celldm(6)=   0.000000

     crystal axes: (cart. coord. in units of alat)
               a(1) = (   1.000000   0.000000   0.000000 )  
               a(2) = (   0.000000   0.999087   0.000000 )  
               a(3) = (   0.000000   0.000000   4.378852 )  

     reciprocal axes: (cart. coord. in units 2 pi/alat)
               b(1) = (  1.000000  0.000000  0.000000 )  
               b(2) = (  0.000000  1.000914  0.000000 )  
               b(3) = (  0.000000  0.000000  0.228370 )  


     PseudoPot. # 1 for In read from file:
     ./In.pbe-dn-kjpaw_psl.1.0.0.UPF
     MD5 check sum: 235b15e6a7fdfd96486e0ecdcb5b12c6
     Pseudo is Projector augmented-wave + core cor, Zval = 13.0
     Generated using &quot;atomic&quot; code by A. Dal Corso  v.6.3
     Shape of augmentation charge: PSQ
     Using radial grid of 1241 points,  6 beta functions with: 
                l(1) =   0
                l(2) =   0
                l(3) =   1
                l(4) =   1
                l(5) =   2
                l(6) =   2
     Q(r) pseudized with 0 coefficients 


     PseudoPot. # 2 for O  read from file:
     ./O.pbe-n-kjpaw_psl.1.0.0.UPF
     MD5 check sum: e99d9cef9b487d1ca56f5b95ecd0fd7a
     Pseudo is Projector augmented-wave + core cor, Zval =  6.0
     Generated using &quot;atomic&quot; code by A. Dal Corso  v.6.3
     Shape of augmentation charge: PSQ
     Using radial grid of 1095 points,  4 beta functions with: 
                l(1) =   0
                l(2) =   0
                l(3) =   1
                l(4) =   1
     Q(r) pseudized with 0 coefficients 


     PseudoPot. # 3 for W  read from file:
     ./W.pbe-spn-kjpaw_psl.1.0.0.UPF
     MD5 check sum: 03c3df5b60893f488392c7401945500a
     Pseudo is Projector augmented-wave + core cor, Zval = 14.0
     Generated using &quot;atomic&quot; code by A. Dal Corso  v.6.2.2
     Shape of augmentation charge: PSQ
     Using radial grid of 1273 points,  6 beta functions with: 
                l(1) =   0
                l(2) =   0
                l(3) =   1
                l(4) =   1
                l(5) =   2
                l(6) =   2
     Q(r) pseudized with 0 coefficients 


     PseudoPot. # 4 for H  read from file:
     ./H.pbe-kjpaw_psl.1.0.0.UPF
     MD5 check sum: d81a744832360e4a8af0b0b5b123bc2a
     Pseudo is Projector augmented-wave, Zval =  1.0
     Generated using &quot;atomic&quot; code by A. Dal Corso  v.6.3MaX
     Shape of augmentation charge: PSQ
     Using radial grid of  929 points,  2 beta functions with: 
                l(1) =   0
                l(2) =   0
     Q(r) pseudized with 0 coefficients 


     atomic species   valence    mass     pseudopotential
     In               13.00   114.81800     In( 1.00)
     O                 6.00    15.99900     O ( 1.00)
     W                14.00   183.84000     W ( 1.00)
     H                 1.00     1.00800     H ( 1.00)

      2 Sym. Ops. (no inversion) found ( 1 have fractional translation)


                                    s                        frac. trans.

      isym =  1     identity                                     

 cryst.   s( 1) = (     1          0          0      )
                  (     0          1          0      )
                  (     0          0          1      )

 cart.    s( 1) = (  1.0000000  0.0000000  0.0000000 )
                  (  0.0000000  1.0000000  0.0000000 )
                  (  0.0000000  0.0000000  1.0000000 )


      isym =  2     180 deg rotation - cart. axis [0,1,0]        

 cryst.   s( 2) = (    -1          0          0      )    f =(  0.5000000 )
                  (     0          1          0      )       (  0.0000000 )
                  (     0          0         -1      )       (  0.0000000 )

 cart.    s( 2) = ( -1.0000000  0.0000000  0.0000000 )    f =(  0.5000000 )
                  (  0.0000000  1.0000000  0.0000000 )       (  0.0000000 )
                  (  0.0000000  0.0000000 -1.0000000 )       (  0.0000000 )


   Cartesian axes

     site n.     atom                  positions (alat units)
         1        In     tau(   1) = (   0.2470210   0.2524900   1.4353217  )
         2        In     tau(   2) = (   0.7515011   0.2473290   1.4359990  )
         3        In     tau(   3) = (   0.2457116   0.2519226   1.9356322  )
         4        In     tau(   4) = (   0.2531090   0.7519046   1.4346745  )
         5        In     tau(   5) = (   0.4654424   0.5019577   1.9362614  )
         6        In     tau(   6) = (   0.0360283   0.5016358   1.4364889  )
         7        In     tau(   7) = (   0.7515663   0.4654492   1.6848595  )
         8        In     tau(   8) = (   0.2472300   0.0343502   1.6849406  )
         9        In     tau(   9) = (   0.5003911   0.7508108   1.6546197  )
        10        In     tau(  10) = (   0.0363481  -0.0050240   1.9374344  )
        11        In     tau(  11) = (   0.4642791   0.0027131   1.4381918  )
        12        In     tau(  12) = (  -0.0010795   0.2498300   1.6538355  )
        13        O      tau(  13) = (   0.3880458   0.1568400   1.5667732  )
        14        O      tau(  14) = (   0.6106318   0.3443654   1.5670860  )
        15        O      tau(  15) = (   0.1048612   0.1529782   1.8092460  )
        16        O      tau(  16) = (   0.8883621   0.3424891   1.8089211  )
        17        O      tau(  17) = (   0.3814208   0.3931594   1.3407148  )
        18        O      tau(  18) = (   0.3845053   0.6108951   1.5338923  )
        19        O      tau(  19) = (   0.6184904   0.1059236   1.3410558  )
        20        O      tau(  20) = (   0.6166536   0.8906724   1.5387874  )
        21        O      tau(  21) = (   0.1543437   0.3822450   1.5778651  )
        22        O      tau(  22) = (   0.3443134   0.3836421   1.7978763  )
        23        O      tau(  23) = (   0.1856058   0.6008933   1.3034030  )
        24        O      tau(  24) = (   0.3444401   0.6159651   2.0779069  )
        25        O      tau(  25) = (   0.0984170   0.3418192   1.3124281  )
        26        O      tau(  26) = (   0.9011448   0.1576681   1.3150269  )
        27        O      tau(  27) = (   0.3896261   0.3443076   2.0670937  )
        28        O      tau(  28) = (   0.6179961   0.1474376   2.0778640  )
        29        O      tau(  29) = (   0.1153861   0.1105471   1.5348885  )
        30        O      tau(  30) = (   0.1184407   0.8928262   1.3410983  )
        31        O      tau(  31) = (   0.8835922   0.3894655   1.5344764  )
        32        O      tau(  32) = (   0.8813914   0.6068224   1.3420488  )
        33        O      tau(  33) = (   0.3146195   0.1012818   1.3048578  )
        34        O      tau(  34) = (   0.1440328   0.1172595   2.0801596  )
        35        O      tau(  35) = (   0.3451893   0.8825988   1.5780980  )
        36        O      tau(  36) = (   0.1553862   0.8805835   1.7975416  )
        37        In     tau(  37) = (   0.7522899   0.7443062   1.9334123  )
        38        In     tau(  38) = (   0.2525297   0.7488666   1.9354956  )
        39        In     tau(  39) = (   0.7482878   0.7474291   1.4388370  )
        40        In     tau(  40) = (   0.7434579   0.2553947   1.9372050  )
        41        In     tau(  41) = (   0.9640490  -0.0023356   1.4381213  )
        42        In     tau(  42) = (   0.5283680   0.0036500   1.9332589  )
        43        In     tau(  43) = (   0.0015462   0.2533561   2.1618638  )
        44        In     tau(  44) = (   0.0023087   0.7485955   1.7183020  )
        45        In     tau(  45) = (   0.5355400   0.4981924   1.4371067  )
        46        In     tau(  46) = (   0.9689649   0.4979848   1.9355459  )
        47        In     tau(  47) = (   0.2514769   0.5343583   1.6842785  )
        48        In     tau(  48) = (   0.7498053   0.9669029   1.6888711  )
        49        In     tau(  49) = (   0.4966085   0.2532354   1.7180039  )
        50        In     tau(  50) = (   0.4936574   0.7434562   2.1604200  )
        51        O      tau(  51) = (   0.8896401   0.6512796   2.0702003  )
        52        O      tau(  52) = (   0.1154093   0.8431129   2.0702664  )
        53        O      tau(  53) = (   0.5998744   0.6585956   1.3155832  )
        54        O      tau(  54) = (   0.4024670   0.8420944   1.3135354  )
        55        O      tau(  55) = (   0.8820816   0.8901738   1.8449797  )
        56        O      tau(  56) = (   0.8623823   0.0829250   2.0593522  )
        57        O      tau(  57) = (   0.1195582   0.6091839   1.8400640  )
        58        O      tau(  58) = (   0.1171303   0.3899128   2.0373433  )
        59        O      tau(  59) = (   0.6646310   0.8932419   2.0972163  )
        60        O      tau(  60) = (   0.8145743   0.8974552   1.3066435  )
        61        O      tau(  61) = (   0.6522125   0.1205089   1.8015714  )
        62        O      tau(  62) = (   0.8438580   0.1176979   1.5792004  )
        63        O      tau(  63) = (   0.6110564   0.8466912   1.8141500  )
        64        O      tau(  64) = (   0.3916069   0.6556313   1.8058229  )
        65        O      tau(  65) = (   0.8893295   0.8441326   1.5696839  )
        66        O      tau(  66) = (   0.1117151   0.6558048   1.5651165  )
        67        O      tau(  67) = (   0.6173987   0.6163096   2.0364042  )
        68        O      tau(  68) = (   0.6162093   0.3933435   1.8411312  )
        69        O      tau(  69) = (   0.3897216   0.8888267   2.0379008  )
        70        O      tau(  70) = (   0.3780435   0.1123845   1.8405088  )
        71        O      tau(  71) = (   0.8488158   0.6158643   1.7962521  )
        72        O      tau(  72) = (   0.6547522   0.6179259   1.5800112  )
        73        O      tau(  73) = (   0.8458650   0.3749094   2.0794381  )
        74        O      tau(  74) = (   0.6844992   0.3982307   1.3047652  )
        75        In     tau(  75) = (   0.2542884   0.2519226   2.4432198  )
        76        In     tau(  76) = (   0.7565421   0.2553947   2.4416470  )
        77        In     tau(  77) = (   0.2529790   0.2524900   2.9435303  )
        78        In     tau(  78) = (   0.2474703   0.7488666   2.4433564  )
        79        In     tau(  79) = (   0.4639717   0.5016358   2.9423631  )
        80        In     tau(  80) = (   0.0345576   0.5019577   2.4425907  )
        81        In     tau(  81) = (   0.7484337   0.4654492   2.6939925  )
        82        In     tau(  82) = (   0.2527700   0.0343502   2.6939114  )
        83        In     tau(  83) = (   0.4976913   0.7485955   2.6605500  )
        84        In     tau(  84) = (   0.4984538   0.2533561   2.2169882  )
        85        In     tau(  85) = (   0.0357209   0.0027131   2.9406602  )
        86        In     tau(  86) = (   0.4636519  -0.0050240   2.4414176  )
        87        W      tau(  87) = (   0.7500000   0.0242803   2.1894260  )
        88        In     tau(  88) = (   0.2500000   0.4654937   2.1894260  )
        89        In     tau(  89) = (   0.0063426   0.7434562   2.2184320  )
        90        In     tau(  90) = (   0.0033915   0.2532354   2.6608481  )
        91        O      tau(  91) = (   0.3951388   0.1529782   2.5696060  )
        92        O      tau(  92) = (   0.6116379   0.3424891   2.5699309  )
        93        O      tau(  93) = (   0.1119542   0.1568400   2.8120788  )
        94        O      tau(  94) = (   0.8893682   0.3443654   2.8117660  )
        95        O      tau(  95) = (   0.3828697   0.3899128   2.3415087  )
        96        O      tau(  96) = (   0.3804418   0.6091839   2.5387880  )
        97        O      tau(  97) = (   0.6376177   0.0829250   2.3194998  )
        98        O      tau(  98) = (   0.6179184   0.8901738   2.5338723  )
        99        O      tau(  99) = (   0.1556866   0.3836421   2.5809757  )
       100        O      tau( 100) = (   0.3456563   0.3822450   2.8009869  )
       101        O      tau( 101) = (   0.1555599   0.6159651   2.3009451  )
       102        O      tau( 102) = (   0.3143942   0.6008933   3.0754490  )
       103        O      tau( 103) = (   0.1103739   0.3443076   2.3117583  )
       104        O      tau( 104) = (   0.8820039   0.1474376   2.3009880  )
       105        O      tau( 105) = (   0.4015831   0.3418192   3.0664239  )
       106        O      tau( 106) = (   0.5988552   0.1576681   3.0638251  )
       107        O      tau( 107) = (   0.1219565   0.1123845   2.5383432  )
       108        O      tau( 108) = (   0.1102784   0.8888267   2.3409512  )
       109        O      tau( 109) = (   0.8837907   0.3933435   2.5377208  )
       110        O      tau( 110) = (   0.8826013   0.6163096   2.3424478  )
       111        O      tau( 111) = (   0.3559672   0.1172595   2.2986924  )
       112        O      tau( 112) = (   0.1853805   0.1012818   3.0739942  )
       113        O      tau( 113) = (   0.3446138   0.8805835   2.5813104  )
       114        O      tau( 114) = (   0.1548107   0.8825988   2.8007540  )
       115        In     tau( 115) = (   0.7517122   0.7474291   2.9400150  )
       116        In     tau( 116) = (   0.2468910   0.7519046   2.9441775  )
       117        In     tau( 117) = (   0.7477101   0.7443062   2.4454397  )
       118        In     tau( 118) = (   0.7484989   0.2473290   2.9428530  )
       119        In     tau( 119) = (   0.9716320   0.0036500   2.4455931  )
       120        In     tau( 120) = (   0.5359510  -0.0023356   2.9407307  )
       121        In     tau( 121) = (   0.2500000   0.9670384   2.1894260  )
       122        In     tau( 122) = (   0.7500000   0.5318358   2.1894260  )
       123        In     tau( 123) = (  -0.0003911   0.7508108   2.7242323  )
       124        In     tau( 124) = (   0.5310351   0.4979848   2.4433061  )
       125        In     tau( 125) = (   0.9644600   0.4981924   2.9417453  )
       126        In     tau( 126) = (   0.2485231   0.5343583   2.6945735  )
       127        In     tau( 127) = (   0.7501947   0.9669029   2.6899809  )
       128        In     tau( 128) = (   0.5010795   0.2498300   2.7250165  )
       129        O      tau( 129) = (   0.9001256   0.6585956   3.0632688  )
       130        O      tau( 130) = (   0.0975330   0.8420944   3.0653166  )
       131        O      tau( 131) = (   0.6103599   0.6512796   2.3086517  )
       132        O      tau( 132) = (   0.3845907   0.8431129   2.3085856  )
       133        O      tau( 133) = (   0.8833464   0.8906724   2.8400646  )
       134        O      tau( 134) = (   0.8815096   0.1059236   3.0377962  )
       135        O      tau( 135) = (   0.1154947   0.6108951   2.8449597  )
       136        O      tau( 136) = (   0.1185792   0.3931594   3.0381372  )
       137        O      tau( 137) = (   0.6854257   0.8974552   3.0722085  )
       138        O      tau( 138) = (   0.8353690   0.8932419   2.2816357  )
       139        O      tau( 139) = (   0.6561420   0.1176979   2.7996516  )
       140        O      tau( 140) = (   0.8477875   0.1205089   2.5772806  )
       141        O      tau( 141) = (   0.6106705   0.8441326   2.8091681  )
       142        O      tau( 142) = (   0.3882849   0.6558048   2.8137355  )
       143        O      tau( 143) = (   0.8889436   0.8466912   2.5647020  )
       144        O      tau( 144) = (   0.1083931   0.6556313   2.5730291  )
       145        O      tau( 145) = (   0.6186086   0.6068224   3.0368032  )
       146        O      tau( 146) = (   0.6164078   0.3894655   2.8443756  )
       147        O      tau( 147) = (   0.3815593   0.8928262   3.0377537  )
       148        O      tau( 148) = (   0.3846139   0.1105471   2.8439635  )
       149        O      tau( 149) = (   0.8452478   0.6179259   2.7988408  )
       150        O      tau( 150) = (   0.6511842   0.6158643   2.5825999  )
       151        O      tau( 151) = (   0.8155008   0.3982307   3.0740868  )
       152        O      tau( 152) = (   0.6541350   0.3749094   2.2994139  )
       153        H      tau( 153) = (   0.3224913   0.4625122   1.3113172  )
       154        H      tau( 154) = (   0.6777455   0.0363585   1.3127733  )
       155        H      tau( 155) = (   0.1381674   0.6434089   1.2337000  )
       156        H      tau( 156) = (   0.1371989   0.3789997   1.2349616  )
       157        H      tau( 157) = (   0.8642256   0.1216461   1.2361385  )
       158        H      tau( 158) = (   0.1772525   0.9624386   1.3120872  )
       159        H      tau( 159) = (   0.8220910   0.5376590   1.3130535  )
       160        H      tau( 160) = (   0.3621545   0.1439006   1.2352772  )
       161        H      tau( 161) = (   0.6376870   0.6232895   1.2367839  )
       162        H      tau( 162) = (   0.3645949   0.8796631   1.2358017  )
       163        H      tau( 163) = (   0.8613118   0.8539848   1.2370191  )
       164        H      tau( 164) = (   0.6369225   0.3557848   1.2350922  )
       165        H      tau( 165) = (   0.3618326   0.6434089   3.1451520  )
       166        H      tau( 166) = (   0.3628011   0.3789997   3.1438904  )
       167        H      tau( 167) = (   0.6357744   0.1216461   3.1427135  )
       168        H      tau( 168) = (   0.1378455   0.1439006   3.1435748  )
       169        H      tau( 169) = (   0.8623130   0.6232895   3.1420681  )
       170        H      tau( 170) = (   0.1354051   0.8796631   3.1430503  )
       171        H      tau( 171) = (   0.8222545   0.0363585   3.0660787  )
       172        H      tau( 172) = (   0.1775087   0.4625122   3.0675348  )
       173        H      tau( 173) = (   0.6386882   0.8539848   3.1418329  )
       174        H      tau( 174) = (   0.6779090   0.5376590   3.0657985  )
       175        H      tau( 175) = (   0.3227475   0.9624386   3.0667648  )
       176        H      tau( 176) = (   0.8630775   0.3557848   3.1437598  )

   Crystallographic axes

     site n.     atom                  positions (cryst. coord.)
         1        In     tau(   1) = (  0.2470210  0.2527207  0.3277849  )
         2        In     tau(   2) = (  0.7515011  0.2475550  0.3279396  )
         3        In     tau(   3) = (  0.2457116  0.2521528  0.4420410  )
         4        In     tau(   4) = (  0.2531090  0.7525917  0.3276371  )
         5        In     tau(   5) = (  0.4654424  0.5024164  0.4421847  )
         6        In     tau(   6) = (  0.0360283  0.5020942  0.3280515  )
         7        In     tau(   7) = (  0.7515663  0.4658746  0.3847720  )
         8        In     tau(   8) = (  0.2472300  0.0343816  0.3847905  )
         9        In     tau(   9) = (  0.5003911  0.7514969  0.3778661  )
        10        In     tau(  10) = (  0.0363481 -0.0050286  0.4424526  )
        11        In     tau(  11) = (  0.4642791  0.0027156  0.3284404  )
        12        In     tau(  12) = ( -0.0010795  0.2500583  0.3776870  )
        13        O      tau(  13) = (  0.3880458  0.1569834  0.3578046  )
        14        O      tau(  14) = (  0.6106318  0.3446801  0.3578760  )
        15        O      tau(  15) = (  0.1048612  0.1531180  0.4131782  )
        16        O      tau(  16) = (  0.8883621  0.3428021  0.4131040  )
        17        O      tau(  17) = (  0.3814208  0.3935187  0.3061795  )
        18        O      tau(  18) = (  0.3845053  0.6114534  0.3502955  )
        19        O      tau(  19) = (  0.6184904  0.1060204  0.3062574  )
        20        O      tau(  20) = (  0.6166536  0.8914864  0.3514134  )
        21        O      tau(  21) = (  0.1543437  0.3825943  0.3603376  )
        22        O      tau(  22) = (  0.3443134  0.3839927  0.4105816  )
        23        O      tau(  23) = (  0.1856058  0.6014424  0.2976586  )
        24        O      tau(  24) = (  0.3444401  0.6165280  0.4745323  )
        25        O      tau(  25) = (  0.0984170  0.3421315  0.2997197  )
        26        O      tau(  26) = (  0.9011448  0.1578122  0.3003132  )
        27        O      tau(  27) = (  0.3896261  0.3446222  0.4720629  )
        28        O      tau(  28) = (  0.6179961  0.1475723  0.4745226  )
        29        O      tau(  29) = (  0.1153861  0.1106481  0.3505230  )
        30        O      tau(  30) = (  0.1184407  0.8936421  0.3062671  )
        31        O      tau(  31) = (  0.8835922  0.3898214  0.3504289  )
        32        O      tau(  32) = (  0.8813914  0.6073770  0.3064842  )
        33        O      tau(  33) = (  0.3146195  0.1013744  0.2979908  )
        34        O      tau(  34) = (  0.1440328  0.1173666  0.4750468  )
        35        O      tau(  35) = (  0.3451893  0.8834054  0.3603908  )
        36        O      tau(  36) = (  0.1553862  0.8813882  0.4105052  )
        37        In     tau(  37) = (  0.7522899  0.7449864  0.4415341  )
        38        In     tau(  38) = (  0.2525297  0.7495510  0.4420098  )
        39        In     tau(  39) = (  0.7482878  0.7481121  0.3285877  )
        40        In     tau(  40) = (  0.7434579  0.2556281  0.4424002  )
        41        In     tau(  41) = (  0.9640490 -0.0023377  0.3284243  )
        42        In     tau(  42) = (  0.5283680  0.0036533  0.4414990  )
        43        In     tau(  43) = (  0.0015462  0.2535876  0.4937056  )
        44        In     tau(  44) = (  0.0023087  0.7492796  0.3924092  )
        45        In     tau(  45) = (  0.5355400  0.4986477  0.3281926  )
        46        In     tau(  46) = (  0.9689649  0.4984399  0.4420213  )
        47        In     tau(  47) = (  0.2514769  0.5348466  0.3846393  )
        48        In     tau(  48) = (  0.7498053  0.9677865  0.3856881  )
        49        In     tau(  49) = (  0.4966085  0.2534668  0.3923412  )
        50        In     tau(  50) = (  0.4936574  0.7441356  0.4933759  )
        51        O      tau(  51) = (  0.8896401  0.6518748  0.4727724  )
        52        O      tau(  52) = (  0.1154093  0.8438834  0.4727875  )
        53        O      tau(  53) = (  0.5998744  0.6591975  0.3004402  )
        54        O      tau(  54) = (  0.4024670  0.8428640  0.2999726  )
        55        O      tau(  55) = (  0.8820816  0.8909873  0.4213387  )
        56        O      tau(  56) = (  0.8623823  0.0830008  0.4702950  )
        57        O      tau(  57) = (  0.1195582  0.6097406  0.4202161  )
        58        O      tau(  58) = (  0.1171303  0.3902691  0.4652688  )
        59        O      tau(  59) = (  0.6646310  0.8940581  0.4789420  )
        60        O      tau(  60) = (  0.8145743  0.8982753  0.2983987  )
        61        O      tau(  61) = (  0.6522125  0.1206190  0.4114255  )
        62        O      tau(  62) = (  0.8438580  0.1178055  0.3606426  )
        63        O      tau(  63) = (  0.6110564  0.8474649  0.4142981  )
        64        O      tau(  64) = (  0.3916069  0.6562304  0.4123964  )
        65        O      tau(  65) = (  0.8893295  0.8449040  0.3584693  )
        66        O      tau(  66) = (  0.1117151  0.6564041  0.3574262  )
        67        O      tau(  67) = (  0.6173987  0.6168728  0.4650544  )
        68        O      tau(  68) = (  0.6162093  0.3937030  0.4204598  )
        69        O      tau(  69) = (  0.3897216  0.8896390  0.4653961  )
        70        O      tau(  70) = (  0.3780435  0.1124872  0.4203176  )
        71        O      tau(  71) = (  0.8488158  0.6164271  0.4102107  )
        72        O      tau(  72) = (  0.6547522  0.6184906  0.3608277  )
        73        O      tau(  73) = (  0.8458650  0.3752520  0.4748820  )
        74        O      tau(  74) = (  0.6844992  0.3985946  0.2979697  )
        75        In     tau(  75) = (  0.2542884  0.2521528  0.5579590  )
        76        In     tau(  76) = (  0.7565421  0.2556281  0.5575998  )
        77        In     tau(  77) = (  0.2529790  0.2527207  0.6722151  )
        78        In     tau(  78) = (  0.2474703  0.7495510  0.5579902  )
        79        In     tau(  79) = (  0.4639717  0.5020942  0.6719485  )
        80        In     tau(  80) = (  0.0345576  0.5024164  0.5578153  )
        81        In     tau(  81) = (  0.7484337  0.4658746  0.6152280  )
        82        In     tau(  82) = (  0.2527700  0.0343816  0.6152095  )
        83        In     tau(  83) = (  0.4976913  0.7492796  0.6075908  )
        84        In     tau(  84) = (  0.4984538  0.2535876  0.5062944  )
        85        In     tau(  85) = (  0.0357209  0.0027156  0.6715596  )
        86        In     tau(  86) = (  0.4636519 -0.0050286  0.5575474  )
        87        W      tau(  87) = (  0.7500000  0.0243025  0.5000000  )
        88        In     tau(  88) = (  0.2500000  0.4659190  0.5000000  )
        89        In     tau(  89) = (  0.0063426  0.7441356  0.5066241  )
        90        In     tau(  90) = (  0.0033915  0.2534668  0.6076588  )
        91        O      tau(  91) = (  0.3951388  0.1531180  0.5868218  )
        92        O      tau(  92) = (  0.6116379  0.3428021  0.5868960  )
        93        O      tau(  93) = (  0.1119542  0.1569834  0.6421954  )
        94        O      tau(  94) = (  0.8893682  0.3446801  0.6421240  )
        95        O      tau(  95) = (  0.3828697  0.3902691  0.5347312  )
        96        O      tau(  96) = (  0.3804418  0.6097406  0.5797839  )
        97        O      tau(  97) = (  0.6376177  0.0830008  0.5297050  )
        98        O      tau(  98) = (  0.6179184  0.8909873  0.5786613  )
        99        O      tau(  99) = (  0.1556866  0.3839927  0.5894184  )
       100        O      tau( 100) = (  0.3456563  0.3825943  0.6396624  )
       101        O      tau( 101) = (  0.1555599  0.6165280  0.5254677  )
       102        O      tau( 102) = (  0.3143942  0.6014424  0.7023414  )
       103        O      tau( 103) = (  0.1103739  0.3446222  0.5279371  )
       104        O      tau( 104) = (  0.8820039  0.1475723  0.5254774  )
       105        O      tau( 105) = (  0.4015831  0.3421315  0.7002803  )
       106        O      tau( 106) = (  0.5988552  0.1578122  0.6996868  )
       107        O      tau( 107) = (  0.1219565  0.1124872  0.5796824  )
       108        O      tau( 108) = (  0.1102784  0.8896390  0.5346039  )
       109        O      tau( 109) = (  0.8837907  0.3937030  0.5795402  )
       110        O      tau( 110) = (  0.8826013  0.6168728  0.5349456  )
       111        O      tau( 111) = (  0.3559672  0.1173666  0.5249532  )
       112        O      tau( 112) = (  0.1853805  0.1013744  0.7020092  )
       113        O      tau( 113) = (  0.3446138  0.8813882  0.5894948  )
       114        O      tau( 114) = (  0.1548107  0.8834054  0.6396092  )
       115        In     tau( 115) = (  0.7517122  0.7481121  0.6714123  )
       116        In     tau( 116) = (  0.2468910  0.7525917  0.6723629  )
       117        In     tau( 117) = (  0.7477101  0.7449864  0.5584659  )
       118        In     tau( 118) = (  0.7484989  0.2475550  0.6720604  )
       119        In     tau( 119) = (  0.9716320  0.0036533  0.5585010  )
       120        In     tau( 120) = (  0.5359510 -0.0023377  0.6715757  )
       121        In     tau( 121) = (  0.2500000  0.9679221  0.5000000  )
       122        In     tau( 122) = (  0.7500000  0.5323218  0.5000000  )
       123        In     tau( 123) = ( -0.0003911  0.7514969  0.6221339  )
       124        In     tau( 124) = (  0.5310351  0.4984399  0.5579787  )
       125        In     tau( 125) = (  0.9644600  0.4986477  0.6718074  )
       126        In     tau( 126) = (  0.2485231  0.5348466  0.6153607  )
       127        In     tau( 127) = (  0.7501947  0.9677865  0.6143119  )
       128        In     tau( 128) = (  0.5010795  0.2500583  0.6223130  )
       129        O      tau( 129) = (  0.9001256  0.6591975  0.6995598  )
       130        O      tau( 130) = (  0.0975330  0.8428640  0.7000274  )
       131        O      tau( 131) = (  0.6103599  0.6518748  0.5272276  )
       132        O      tau( 132) = (  0.3845907  0.8438834  0.5272125  )
       133        O      tau( 133) = (  0.8833464  0.8914864  0.6485866  )
       134        O      tau( 134) = (  0.8815096  0.1060204  0.6937426  )
       135        O      tau( 135) = (  0.1154947  0.6114534  0.6497045  )
       136        O      tau( 136) = (  0.1185792  0.3935187  0.6938205  )
       137        O      tau( 137) = (  0.6854257  0.8982753  0.7016013  )
       138        O      tau( 138) = (  0.8353690  0.8940581  0.5210580  )
       139        O      tau( 139) = (  0.6561420  0.1178055  0.6393574  )
       140        O      tau( 140) = (  0.8477875  0.1206190  0.5885745  )
       141        O      tau( 141) = (  0.6106705  0.8449040  0.6415307  )
       142        O      tau( 142) = (  0.3882849  0.6564041  0.6425738  )
       143        O      tau( 143) = (  0.8889436  0.8474649  0.5857019  )
       144        O      tau( 144) = (  0.1083931  0.6562304  0.5876036  )
       145        O      tau( 145) = (  0.6186086  0.6073770  0.6935158  )
       146        O      tau( 146) = (  0.6164078  0.3898214  0.6495711  )
       147        O      tau( 147) = (  0.3815593  0.8936421  0.6937329  )
       148        O      tau( 148) = (  0.3846139  0.1106481  0.6494770  )
       149        O      tau( 149) = (  0.8452478  0.6184906  0.6391723  )
       150        O      tau( 150) = (  0.6511842  0.6164271  0.5897893  )
       151        O      tau( 151) = (  0.8155008  0.3985946  0.7020303  )
       152        O      tau( 152) = (  0.6541350  0.3752520  0.5251180  )
       153        H      tau( 153) = (  0.3224913  0.4629349  0.2994660  )
       154        H      tau( 154) = (  0.6777455  0.0363917  0.2997985  )
       155        H      tau( 155) = (  0.1381674  0.6439969  0.2817405  )
       156        H      tau( 156) = (  0.1371989  0.3793460  0.2820286  )
       157        H      tau( 157) = (  0.8642256  0.1217573  0.2822974  )
       158        H      tau( 158) = (  0.1772525  0.9633182  0.2996418  )
       159        H      tau( 159) = (  0.8220910  0.5381503  0.2998625  )
       160        H      tau( 160) = (  0.3621545  0.1440321  0.2821007  )
       161        H      tau( 161) = (  0.6376870  0.6238591  0.2824448  )
       162        H      tau( 162) = (  0.3645949  0.8804669  0.2822205  )
       163        H      tau( 163) = (  0.8613118  0.8547652  0.2824985  )
       164        H      tau( 164) = (  0.6369225  0.3561100  0.2820584  )
       165        H      tau( 165) = (  0.3618326  0.6439969  0.7182595  )
       166        H      tau( 166) = (  0.3628011  0.3793460  0.7179714  )
       167        H      tau( 167) = (  0.6357744  0.1217573  0.7177026  )
       168        H      tau( 168) = (  0.1378455  0.1440321  0.7178993  )
       169        H      tau( 169) = (  0.8623130  0.6238591  0.7175552  )
       170        H      tau( 170) = (  0.1354051  0.8804669  0.7177795  )
       171        H      tau( 171) = (  0.8222545  0.0363917  0.7002015  )
       172        H      tau( 172) = (  0.1775087  0.4629349  0.7005340  )
       173        H      tau( 173) = (  0.6386882  0.8547652  0.7175015  )
       174        H      tau( 174) = (  0.6779090  0.5381503  0.7001375  )
       175        H      tau( 175) = (  0.3227475  0.9633182  0.7003582  )
       176        H      tau( 176) = (  0.8630775  0.3561100  0.7179416  )

     number of k points=     4  Marzari-Vanderbilt smearing, width (Ry)=  0.0100
                       cart. coord. in units 2pi/alat
        k(    1) = (   0.0000000   0.0000000   0.0000000), wk =   0.2222222
        k(    2) = (   0.0000000   0.3336379   0.0000000), wk =   0.4444444
        k(    3) = (   0.3333333   0.0000000   0.0000000), wk =   0.4444444
        k(    4) = (   0.3333333   0.3336379   0.0000000), wk =   0.8888889

                       cryst. coord.
        k(    1) = (   0.0000000   0.0000000   0.0000000), wk =   0.2222222
        k(    2) = (   0.0000000   0.3333333   0.0000000), wk =   0.4444444
        k(    3) = (   0.3333333   0.0000000   0.0000000), wk =   0.4444444
        k(    4) = (   0.3333333   0.3333333   0.0000000), wk =   0.8888889

     Dense  grid:  7413147 G-vectors     FFT dimensions: ( 150, 150, 648)

     Smooth grid:  2620949 G-vectors     FFT dimensions: ( 108, 108, 480)

     Dynamical RAM for                 wfc:     104.21 MB

     Dynamical RAM for     wfc (w. buffer):     521.07 MB

     Dynamical RAM for           str. fact:      13.71 MB

     Dynamical RAM for           local pot:       0.00 MB

     Dynamical RAM for          nlocal pot:     276.29 MB

     Dynamical RAM for                qrad:       7.65 MB

     Dynamical RAM for          rho,v,vnew:      20.58 MB

     Dynamical RAM for               rhoin:       6.86 MB

     Dynamical RAM for            rho*nmix:      54.84 MB

     Dynamical RAM for           G-vectors:      13.46 MB

     Dynamical RAM for          h,s,v(r/c):       3.46 MB

     Dynamical RAM for          <psi|beta>:      19.15 MB

     Dynamical RAM for                 psi:     208.43 MB

     Dynamical RAM for                hpsi:     208.43 MB

     Dynamical RAM for                spsi:     208.43 MB

     Dynamical RAM for      wfcinit/wfcrot:     219.27 MB

     Dynamical RAM for           addusdens:     966.60 MB

     Dynamical RAM for          addusforce:    1619.94 MB

     Dynamical RAM for         addusstress:     688.96 MB

     Estimated static dynamical RAM per process >     893.93 MB

     Estimated max dynamical RAM per process >       2.51 GB

     Estimated total dynamical RAM >      82.78 GB

     Initial potential from superposition of free atoms

     starting charge    1328.7946, renormalised to    1329.0000

     negative rho (up, down):  1.781E-03 0.000E+00
     Starting wfcs are  916 randomized atomic wfcs
     Checking if some PAW data can be deallocated... 
       PAW data deallocated on   20 nodes for type:  1
       PAW data deallocated on   12 nodes for type:  2
       PAW data deallocated on   32 nodes for type:  3
       PAW data deallocated on   28 nodes for type:  4

     total cpu time spent up to now is      137.0 secs

     per-process dynamical memory:   994.0 Mb

     Self-consistent Calculation

     iteration #  1     ecut=    71.00 Ry     beta= 0.10
     Davidson diagonalization with overlap

---- Real-time Memory Report at c_bands before calling an iterative solver
          1171 MiB given to the printing process from OS
           970 MiB allocation reported by mallinfo(arena+hblkhd)
        123903 MiB available memory on the node where the printing process lives
------------------
     ethr =  1.00E-02,  avg # of iterations =  2.0

     negative rho (up, down):  2.302E-04 0.000E+00

     total cpu time spent up to now is      443.7 secs

     total energy              =  -27391.44331375 Ry
     estimated scf accuracy    <      47.76625280 Ry

     iteration #  2     ecut=    71.00 Ry     beta= 0.10
     Davidson diagonalization with overlap

---- Real-time Memory Report at c_bands before calling an iterative solver
          1809 MiB given to the printing process from OS
          1000 MiB allocation reported by mallinfo(arena+hblkhd)
        114526 MiB available memory on the node where the printing process lives
------------------
     ethr =  3.59E-03,  avg # of iterations =  1.0

     negative rho (up, down):  4.369E-02 0.000E+00

     total cpu time spent up to now is      698.1 secs

     total energy              =  -27371.99672452 Ry
     estimated scf accuracy    <      38.47651016 Ry

     iteration #  3     ecut=    71.00 Ry     beta= 0.10
     Davidson diagonalization with overlap

---- Real-time Memory Report at c_bands before calling an iterative solver
          1809 MiB given to the printing process from OS
          1003 MiB allocation reported by mallinfo(arena+hblkhd)
        103981 MiB available memory on the node where the printing process lives
------------------
     ethr =  2.90E-03,  avg # of iterations = 10.0

     negative rho (up, down):  3.799E-02 0.000E+00

     total cpu time spent up to now is     1102.2 secs

     total energy              =  -27382.52024590 Ry
     estimated scf accuracy    <       1.84935550 Ry

     iteration #  4     ecut=    71.00 Ry     beta= 0.10
     Davidson diagonalization with overlap

---- Real-time Memory Report at c_bands before calling an iterative solver
          1809 MiB given to the printing process from OS
          1005 MiB allocation reported by mallinfo(arena+hblkhd)
        109243 MiB available memory on the node where the printing process lives
------------------
     ethr =  1.39E-04,  avg # of iterations = 11.8

     negative rho (up, down):  3.014E-02 0.000E+00

     total cpu time spent up to now is     1695.2 secs

     total energy              =  -27386.26218239 Ry
     estimated scf accuracy    <       7.00545074 Ry

     iteration #  5     ecut=    71.00 Ry     beta= 0.10
     Davidson diagonalization with overlap

---- Real-time Memory Report at c_bands before calling an iterative solver
          1809 MiB given to the printing process from OS
          1008 MiB allocation reported by mallinfo(arena+hblkhd)
        107416 MiB available memory on the node where the printing process lives
------------------
     ethr =  1.39E-04,  avg # of iterations =  2.0

     negative rho (up, down):  3.262E-02 0.000E+00

     total cpu time spent up to now is     1987.2 secs

     total energy              =  -27386.44936058 Ry
     estimated scf accuracy    <       5.00594893 Ry

     iteration #  6     ecut=    71.00 Ry     beta= 0.10
     Davidson diagonalization with overlap

---- Real-time Memory Report at c_bands before calling an iterative solver
          1809 MiB given to the printing process from OS
          1011 MiB allocation reported by mallinfo(arena+hblkhd)
        100444 MiB available memory on the node where the printing process lives
------------------
     ethr =  1.39E-04,  avg # of iterations =  1.0

     negative rho (up, down):  5.582E-02 0.000E+00

     total cpu time spent up to now is     2237.7 secs

     total energy              =  -27383.37870670 Ry
     estimated scf accuracy    <       5.50404668 Ry

     iteration #  7     ecut=    71.00 Ry     beta= 0.10
     Davidson diagonalization with overlap

---- Real-time Memory Report at c_bands before calling an iterative solver
          1809 MiB given to the printing process from OS
          1014 MiB allocation reported by mallinfo(arena+hblkhd)
        169275 MiB available memory on the node where the printing process lives
------------------
     ethr =  1.39E-04,  avg # of iterations =  6.0

     negative rho (up, down):  5.471E-02 0.000E+00

     total cpu time spent up to now is     2852.9 secs

     total energy              =  -27385.90305923 Ry
     estimated scf accuracy    <       3.13000511 Ry

     iteration #  8     ecut=    71.00 Ry     beta= 0.10
     Davidson diagonalization with overlap

---- Real-time Memory Report at c_bands before calling an iterative solver
          1809 MiB given to the printing process from OS
          1017 MiB allocation reported by mallinfo(arena+hblkhd)
        160668 MiB available memory on the node where the printing process lives
------------------
     ethr =  1.39E-04,  avg # of iterations =  1.0

     negative rho (up, down):  4.901E-02 0.000E+00

     total cpu time spent up to now is     3105.4 secs

     total energy              =  -27385.52342044 Ry
     estimated scf accuracy    <       2.71982626 Ry

     iteration #  9     ecut=    71.00 Ry     beta= 0.10
     Davidson diagonalization with overlap

---- Real-time Memory Report at c_bands before calling an iterative solver
          1811 MiB given to the printing process from OS
          1020 MiB allocation reported by mallinfo(arena+hblkhd)
        166929 MiB available memory on the node where the printing process lives
------------------
     ethr =  1.39E-04,  avg # of iterations =  1.0

     negative rho (up, down):  4.677E-02 0.000E+00

     total cpu time spent up to now is     3348.0 secs

     total energy              =  -27385.19124707 Ry
     estimated scf accuracy    <       1.91073143 Ry

     iteration # 10     ecut=    71.00 Ry     beta= 0.10
     Davidson diagonalization with overlap

---- Real-time Memory Report at c_bands before calling an iterative solver
          1815 MiB given to the printing process from OS
          1023 MiB allocation reported by mallinfo(arena+hblkhd)
        166157 MiB available memory on the node where the printing process lives
------------------
     ethr =  1.39E-04,  avg # of iterations =  2.0

     negative rho (up, down):  4.603E-02 0.000E+00

     total cpu time spent up to now is     3645.9 secs

     total energy              =  -27385.21525849 Ry
     estimated scf accuracy    <       0.83020989 Ry

     iteration # 11     ecut=    71.00 Ry     beta= 0.10
     Davidson diagonalization with overlap

---- Real-time Memory Report at c_bands before calling an iterative solver
          1815 MiB given to the printing process from OS
          1023 MiB allocation reported by mallinfo(arena+hblkhd)
        156551 MiB available memory on the node where the printing process lives
------------------
     ethr =  6.25E-05,  avg # of iterations =  2.0

     negative rho (up, down):  4.412E-02 0.000E+00

     total cpu time spent up to now is     3936.6 secs

     total energy              =  -27385.43847786 Ry
     estimated scf accuracy    <       0.68638231 Ry

     iteration # 12     ecut=    71.00 Ry     beta= 0.10
     Davidson diagonalization with overlap

---- Real-time Memory Report at c_bands before calling an iterative solver
          1817 MiB given to the printing process from OS
          1023 MiB allocation reported by mallinfo(arena+hblkhd)
        162819 MiB available memory on the node where the printing process lives
------------------
     ethr =  5.16E-05,  avg # of iterations =  1.5

     negative rho (up, down):  4.302E-02 0.000E+00

     total cpu time spent up to now is     4203.2 secs

     total energy              =  -27385.61327819 Ry
     estimated scf accuracy    <       1.03917369 Ry

     iteration # 13     ecut=    71.00 Ry     beta= 0.10
     Davidson diagonalization with overlap

---- Real-time Memory Report at c_bands before calling an iterative solver
          1817 MiB given to the printing process from OS
          1023 MiB allocation reported by mallinfo(arena+hblkhd)
        169636 MiB available memory on the node where the printing process lives
------------------
     ethr =  5.16E-05,  avg # of iterations =  1.5

     negative rho (up, down):  4.669E-02 0.000E+00

     total cpu time spent up to now is     4469.2 secs

     total energy              =  -27385.33311232 Ry
     estimated scf accuracy    <       1.44545455 Ry

     iteration # 14     ecut=    71.00 Ry     beta= 0.10
     Davidson diagonalization with overlap

---- Real-time Memory Report at c_bands before calling an iterative solver
          1819 MiB given to the printing process from OS
          1023 MiB allocation reported by mallinfo(arena+hblkhd)
        158820 MiB available memory on the node where the printing process lives
------------------
     ethr =  5.16E-05,  avg # of iterations =  2.0

     negative rho (up, down):  4.743E-02 0.000E+00

     total cpu time spent up to now is     4751.4 secs

     total energy              =  -27385.25489466 Ry
     estimated scf accuracy    <       0.89621013 Ry

     iteration # 15     ecut=    71.00 Ry     beta= 0.10
     Davidson diagonalization with overlap

---- Real-time Memory Report at c_bands before calling an iterative solver
          1819 MiB given to the printing process from OS
          1023 MiB allocation reported by mallinfo(arena+hblkhd)
        155074 MiB available memory on the node where the printing process lives
------------------
     ethr =  5.16E-05,  avg # of iterations =  2.0

     negative rho (up, down):  5.082E-02 0.000E+00

     total cpu time spent up to now is     5049.7 secs

     total energy              =  -27385.21984256 Ry
     estimated scf accuracy    <       0.58363762 Ry

     iteration # 16     ecut=    71.00 Ry     beta= 0.10
     Davidson diagonalization with overlap

---- Real-time Memory Report at c_bands before calling an iterative solver
          1819 MiB given to the printing process from OS
          1023 MiB allocation reported by mallinfo(arena+hblkhd)
        148437 MiB available memory on the node where the printing process lives
------------------
     ethr =  4.39E-05,  avg # of iterations =  2.0

     negative rho (up, down):  4.416E-02 0.000E+00

     total cpu time spent up to now is     5335.9 secs

     total energy              =  -27385.20231472 Ry
     estimated scf accuracy    <       0.49569448 Ry

     iteration # 17     ecut=    71.00 Ry     beta= 0.10
     Davidson diagonalization with overlap

---- Real-time Memory Report at c_bands before calling an iterative solver
          1819 MiB given to the printing process from OS
          1023 MiB allocation reported by mallinfo(arena+hblkhd)
        113308 MiB available memory on the node where the printing process lives
------------------
     ethr =  3.73E-05,  avg # of iterations =  2.0

     negative rho (up, down):  4.124E-02 0.000E+00

     total cpu time spent up to now is     5639.8 secs

     total energy              =  -27385.15859901 Ry
     estimated scf accuracy    <       0.31707005 Ry

     iteration # 18     ecut=    71.00 Ry     beta= 0.10
     Davidson diagonalization with overlap

---- Real-time Memory Report at c_bands before calling an iterative solver
          1819 MiB given to the printing process from OS
          1023 MiB allocation reported by mallinfo(arena+hblkhd)
        130670 MiB available memory on the node where the printing process lives
------------------
     ethr =  2.39E-05,  avg # of iterations =  2.0

     negative rho (up, down):  3.819E-02 0.000E+00

     total cpu time spent up to now is     5993.0 secs

     total energy              =  -27385.18991622 Ry
     estimated scf accuracy    <       0.12681734 Ry

     iteration # 19     ecut=    71.00 Ry     beta= 0.10
     Davidson diagonalization with overlap

---- Real-time Memory Report at c_bands before calling an iterative solver
          1819 MiB given to the printing process from OS
          1023 MiB allocation reported by mallinfo(arena+hblkhd)
        108941 MiB available memory on the node where the printing process lives
------------------
     c_bands:  1 eigenvalues not converged
     c_bands:  1 eigenvalues not converged
     c_bands:  2 eigenvalues not converged
     ethr =  9.54E-06,  avg # of iterations = 19.5

     negative rho (up, down):  3.859E-02 0.000E+00

     total cpu time spent up to now is     6441.9 secs

     total energy              =  -27385.21411074 Ry
     estimated scf accuracy    <       0.06931761 Ry

     iteration # 20     ecut=    71.00 Ry     beta= 0.10
     Davidson diagonalization with overlap

---- Real-time Memory Report at c_bands before calling an iterative solver
          1819 MiB given to the printing process from OS
          1023 MiB allocation reported by mallinfo(arena+hblkhd)
        119386 MiB available memory on the node where the printing process lives
------------------
     c_bands:  1 eigenvalues not converged
     ethr =  5.22E-06,  avg # of iterations = 10.8

     negative rho (up, down):  3.871E-02 0.000E+00

     total cpu time spent up to now is     6822.1 secs

     total energy              =  -27385.22638809 Ry
     estimated scf accuracy    <       0.06479056 Ry

     iteration # 21     ecut=    71.00 Ry     beta= 0.10
     Davidson diagonalization with overlap

---- Real-time Memory Report at c_bands before calling an iterative solver
          1819 MiB given to the printing process from OS
          1023 MiB allocation reported by mallinfo(arena+hblkhd)
        119138 MiB available memory on the node where the printing process lives
------------------
     ethr =  4.88E-06,  avg # of iterations =  5.2

     negative rho (up, down):  3.999E-02 0.000E+00

     total cpu time spent up to now is     7115.4 secs

     total energy              =  -27385.21992536 Ry
     estimated scf accuracy    <       0.06517487 Ry

     iteration # 22     ecut=    71.00 Ry     beta= 0.10
     Davidson diagonalization with overlap

---- Real-time Memory Report at c_bands before calling an iterative solver
          1819 MiB given to the printing process from OS
          1023 MiB allocation reported by mallinfo(arena+hblkhd)
        112253 MiB available memory on the node where the printing process lives
------------------
     ethr =  4.88E-06,  avg # of iterations =  2.0

     negative rho (up, down):  3.940E-02 0.000E+00

     total cpu time spent up to now is     7401.9 secs

     total energy              =  -27385.22400830 Ry
     estimated scf accuracy    <       0.05397793 Ry

     iteration # 23     ecut=    71.00 Ry     beta= 0.10
     Davidson diagonalization with overlap

---- Real-time Memory Report at c_bands before calling an iterative solver
          1819 MiB given to the printing process from OS
          1023 MiB allocation reported by mallinfo(arena+hblkhd)
        112808 MiB available memory on the node where the printing process lives
------------------
     ethr =  4.06E-06,  avg # of iterations =  2.0

     negative rho (up, down):  3.925E-02 0.000E+00

     total cpu time spent up to now is     7686.4 secs

     total energy              =  -27385.22594855 Ry
     estimated scf accuracy    <       0.05411463 Ry

     iteration # 24     ecut=    71.00 Ry     beta= 0.10
     Davidson diagonalization with overlap

---- Real-time Memory Report at c_bands before calling an iterative solver
          1819 MiB given to the printing process from OS
          1023 MiB allocation reported by mallinfo(arena+hblkhd)
        118448 MiB available memory on the node where the printing process lives
------------------
     ethr =  4.06E-06,  avg # of iterations =  1.0

     negative rho (up, down):  3.868E-02 0.000E+00

     total cpu time spent up to now is     7926.3 secs

     total energy              =  -27385.22284821 Ry
     estimated scf accuracy    <       0.05664915 Ry

     iteration # 25     ecut=    71.00 Ry     beta= 0.10
     Davidson diagonalization with overlap

---- Real-time Memory Report at c_bands before calling an iterative solver
          1819 MiB given to the printing process from OS
          1023 MiB allocation reported by mallinfo(arena+hblkhd)
        107088 MiB available memory on the node where the printing process lives
------------------
     ethr =  4.06E-06,  avg # of iterations =  3.5

     negative rho (up, down):  3.822E-02 0.000E+00

     total cpu time spent up to now is     8208.3 secs

     total energy              =  -27385.22427295 Ry
     estimated scf accuracy    <       0.06054464 Ry

     iteration # 26     ecut=    71.00 Ry     beta= 0.10
     Davidson diagonalization with overlap

---- Real-time Memory Report at c_bands before calling an iterative solver
          1819 MiB given to the printing process from OS
          1023 MiB allocation reported by mallinfo(arena+hblkhd)
        106744 MiB available memory on the node where the printing process lives
------------------
     ethr =  4.06E-06,  avg # of iterations =  2.0

     negative rho (up, down):  3.900E-02 0.000E+00

     total cpu time spent up to now is     8471.7 secs

     total energy              =  -27385.22795253 Ry
     estimated scf accuracy    <       0.05476521 Ry

     iteration # 27     ecut=    71.00 Ry     beta= 0.10
     Davidson diagonalization with overlap

---- Real-time Memory Report at c_bands before calling an iterative solver
          1819 MiB given to the printing process from OS
          1023 MiB allocation reported by mallinfo(arena+hblkhd)
        119261 MiB available memory on the node where the printing process lives
------------------
     ethr =  4.06E-06,  avg # of iterations =  2.0

     negative rho (up, down):  4.128E-02 0.000E+00

     total cpu time spent up to now is     8743.0 secs

     total energy              =  -27385.23211016 Ry
     estimated scf accuracy    <       0.06331868 Ry

     iteration # 28     ecut=    71.00 Ry     beta= 0.10
     Davidson diagonalization with overlap

---- Real-time Memory Report at c_bands before calling an iterative solver
          1819 MiB given to the printing process from OS
          1023 MiB allocation reported by mallinfo(arena+hblkhd)
        111146 MiB available memory on the node where the printing process lives
------------------
     ethr =  4.06E-06,  avg # of iterations =  2.0

     negative rho (up, down):  4.951E-02 0.000E+00

     total cpu time spent up to now is     9018.3 secs

     total energy              =  -27385.24793194 Ry
     estimated scf accuracy    <       0.07882162 Ry

     iteration # 29     ecut=    71.00 Ry     beta= 0.10
     Davidson diagonalization with overlap

---- Real-time Memory Report at c_bands before calling an iterative solver
          1819 MiB given to the printing process from OS
          1023 MiB allocation reported by mallinfo(arena+hblkhd)
        125792 MiB available memory on the node where the printing process lives
------------------
     ethr =  4.06E-06,  avg # of iterations =  2.0

     negative rho (up, down):  4.330E-02 0.000E+00

     total cpu time spent up to now is     9301.4 secs

     total energy              =  -27385.22059920 Ry
     estimated scf accuracy    <       0.12511437 Ry

     iteration # 30     ecut=    71.00 Ry     beta= 0.10
     Davidson diagonalization with overlap

---- Real-time Memory Report at c_bands before calling an iterative solver
          1819 MiB given to the printing process from OS
          1023 MiB allocation reported by mallinfo(arena+hblkhd)
        129731 MiB available memory on the node where the printing process lives
------------------
     ethr =  4.06E-06,  avg # of iterations =  2.0

     negative rho (up, down):  4.270E-02 0.000E+00

     total cpu time spent up to now is     9575.1 secs

     total energy              =  -27385.19712473 Ry
     estimated scf accuracy    <       0.07269651 Ry

     iteration # 31     ecut=    71.00 Ry     beta= 0.10
     Davidson diagonalization with overlap

---- Real-time Memory Report at c_bands before calling an iterative solver
          1819 MiB given to the printing process from OS
          1023 MiB allocation reported by mallinfo(arena+hblkhd)
        138569 MiB available memory on the node where the printing process lives
------------------
     ethr =  4.06E-06,  avg # of iterations =  7.5

     negative rho (up, down):  6.142E-02 0.000E+00

     total cpu time spent up to now is    10154.2 secs

     total energy              =  -27385.20762243 Ry
     estimated scf accuracy    <       0.09852224 Ry

     iteration # 32     ecut=    71.00 Ry     beta= 0.10
     Davidson diagonalization with overlap

---- Real-time Memory Report at c_bands before calling an iterative solver
          1819 MiB given to the printing process from OS
          1023 MiB allocation reported by mallinfo(arena+hblkhd)
        127163 MiB available memory on the node where the printing process lives
------------------
     ethr =  4.06E-06,  avg # of iterations =  2.0

     negative rho (up, down):  6.230E-02 0.000E+00

     total cpu time spent up to now is    10454.7 secs

     total energy              =  -27385.21147202 Ry
     estimated scf accuracy    <       0.04640490 Ry

     iteration # 33     ecut=    71.00 Ry     beta= 0.10
     Davidson diagonalization with overlap

---- Real-time Memory Report at c_bands before calling an iterative solver
          1819 MiB given to the printing process from OS
          1023 MiB allocation reported by mallinfo(arena+hblkhd)
        122343 MiB available memory on the node where the printing process lives
------------------
     ethr =  3.49E-06,  avg # of iterations =  1.0

     negative rho (up, down):  5.501E-02 0.000E+00

     total cpu time spent up to now is    10708.9 secs

     total energy              =  -27385.21453923 Ry
     estimated scf accuracy    <       0.04466988 Ry

     iteration # 34     ecut=    71.00 Ry     beta= 0.10
     Davidson diagonalization with overlap

---- Real-time Memory Report at c_bands before calling an iterative solver
          1819 MiB given to the printing process from OS
          1023 MiB allocation reported by mallinfo(arena+hblkhd)
        122924 MiB available memory on the node where the printing process lives
------------------
     ethr =  3.36E-06,  avg # of iterations =  1.0

     negative rho (up, down):  4.741E-02 0.000E+00

     total cpu time spent up to now is    10966.1 secs

     total energy              =  -27385.21746515 Ry
     estimated scf accuracy    <       0.04352452 Ry

     iteration # 35     ecut=    71.00 Ry     beta= 0.10
     Davidson diagonalization with overlap

---- Real-time Memory Report at c_bands before calling an iterative solver
          1819 MiB given to the printing process from OS
          1023 MiB allocation reported by mallinfo(arena+hblkhd)
        122992 MiB available memory on the node where the printing process lives
------------------
     ethr =  3.27E-06,  avg # of iterations =  1.2

     negative rho (up, down):  4.822E-02 0.000E+00

     total cpu time spent up to now is    11233.0 secs

     total energy              =  -27385.21952609 Ry
     estimated scf accuracy    <       0.04602837 Ry

     iteration # 36     ecut=    71.00 Ry     beta= 0.10
     Davidson diagonalization with overlap

---- Real-time Memory Report at c_bands before calling an iterative solver
          1819 MiB given to the printing process from OS
          1023 MiB allocation reported by mallinfo(arena+hblkhd)
        109417 MiB available memory on the node where the printing process lives
------------------
     ethr =  3.27E-06,  avg # of iterations =  1.0

     negative rho (up, down):  4.741E-02 0.000E+00

     total cpu time spent up to now is    11490.7 secs

     total energy              =  -27385.21300538 Ry
     estimated scf accuracy    <       0.04659846 Ry

     iteration # 37     ecut=    71.00 Ry     beta= 0.10
     Davidson diagonalization with overlap

---- Real-time Memory Report at c_bands before calling an iterative solver
          1819 MiB given to the printing process from OS
          1023 MiB allocation reported by mallinfo(arena+hblkhd)
        111274 MiB available memory on the node where the printing process lives
------------------
     ethr =  3.27E-06,  avg # of iterations =  2.0

     negative rho (up, down):  4.702E-02 0.000E+00

     total cpu time spent up to now is    11805.9 secs

     total energy              =  -27385.21485742 Ry
     estimated scf accuracy    <       0.03156601 Ry

     iteration # 38     ecut=    71.00 Ry     beta= 0.10
     Davidson diagonalization with overlap

---- Real-time Memory Report at c_bands before calling an iterative solver
          1819 MiB given to the printing process from OS
          1023 MiB allocation reported by mallinfo(arena+hblkhd)
        136412 MiB available memory on the node where the printing process lives
------------------
     ethr =  2.38E-06,  avg # of iterations =  2.0

     negative rho (up, down):  4.890E-02 0.000E+00

     total cpu time spent up to now is    12105.0 secs

     total energy              =  -27385.21459607 Ry
     estimated scf accuracy    <       0.02978380 Ry

     iteration # 39     ecut=    71.00 Ry     beta= 0.10
     Davidson diagonalization with overlap

---- Real-time Memory Report at c_bands before calling an iterative solver
          1819 MiB given to the printing process from OS
          1023 MiB allocation reported by mallinfo(arena+hblkhd)
        132738 MiB available memory on the node where the printing process lives
------------------
     ethr =  2.24E-06,  avg # of iterations =  2.0

     negative rho (up, down):  4.509E-02 0.000E+00

     total cpu time spent up to now is    12432.1 secs

     total energy              =  -27385.21231038 Ry
     estimated scf accuracy    <       0.03159999 Ry

     iteration # 40     ecut=    71.00 Ry     beta= 0.10
     Davidson diagonalization with overlap

---- Real-time Memory Report at c_bands before calling an iterative solver
          1819 MiB given to the printing process from OS
          1023 MiB allocation reported by mallinfo(arena+hblkhd)
        127269 MiB available memory on the node where the printing process lives
------------------
     ethr =  2.24E-06,  avg # of iterations =  2.0

     negative rho (up, down):  6.682E-02 0.000E+00

     total cpu time spent up to now is    12725.1 secs

     total energy              =  -27385.21277695 Ry
     estimated scf accuracy    <       0.02436050 Ry

     iteration # 41     ecut=    71.00 Ry     beta= 0.10
     Davidson diagonalization with overlap

---- Real-time Memory Report at c_bands before calling an iterative solver
          1819 MiB given to the printing process from OS
          1023 MiB allocation reported by mallinfo(arena+hblkhd)
        129912 MiB available memory on the node where the printing process lives
------------------
     c_bands:  2 eigenvalues not converged
     ethr =  1.83E-06,  avg # of iterations =  7.2

     negative rho (up, down):  6.414E-02 0.000E+00

     total cpu time spent up to now is    13083.4 secs

     total energy              =  -27385.21087372 Ry
     estimated scf accuracy    <       0.03087569 Ry

     iteration # 42     ecut=    71.00 Ry     beta= 0.10
     Davidson diagonalization with overlap

---- Real-time Memory Report at c_bands before calling an iterative solver
          1819 MiB given to the printing process from OS
          1023 MiB allocation reported by mallinfo(arena+hblkhd)
        133598 MiB available memory on the node where the printing process lives
------------------
     ethr =  1.83E-06,  avg # of iterations =  4.2

     negative rho (up, down):  7.971E-02 0.000E+00

     total cpu time spent up to now is    13381.3 secs

     total energy              =  -27385.21061393 Ry
     estimated scf accuracy    <       0.02242945 Ry

     iteration # 43     ecut=    71.00 Ry     beta= 0.10
     Davidson diagonalization with overlap

---- Real-time Memory Report at c_bands before calling an iterative solver
          1819 MiB given to the printing process from OS
          1023 MiB allocation reported by mallinfo(arena+hblkhd)
        131165 MiB available memory on the node where the printing process lives
------------------
     ethr =  1.69E-06,  avg # of iterations =  5.2

     negative rho (up, down):  1.075E-01 0.000E+00

     total cpu time spent up to now is    13674.0 secs

     total energy              =  -27385.20967747 Ry
     estimated scf accuracy    <       0.02049384 Ry

     iteration # 44     ecut=    71.00 Ry     beta= 0.10
     Davidson diagonalization with overlap

---- Real-time Memory Report at c_bands before calling an iterative solver
          1819 MiB given to the printing process from OS
          1023 MiB allocation reported by mallinfo(arena+hblkhd)
        128383 MiB available memory on the node where the printing process lives
------------------
     ethr =  1.54E-06,  avg # of iterations =  8.0

     negative rho (up, down):  1.247E-01 0.000E+00

     total cpu time spent up to now is    13976.5 secs

     total energy              =  -27385.20839076 Ry
     estimated scf accuracy    <       0.01734912 Ry

     iteration # 45     ecut=    71.00 Ry     beta= 0.10
     Davidson diagonalization with overlap

---- Real-time Memory Report at c_bands before calling an iterative solver
          1819 MiB given to the printing process from OS
          1023 MiB allocation reported by mallinfo(arena+hblkhd)
        138984 MiB available memory on the node where the printing process lives
------------------
     c_bands:  2 eigenvalues not converged
     c_bands:  3 eigenvalues not converged
     c_bands:  2 eigenvalues not converged
     ethr =  1.31E-06,  avg # of iterations = 19.2

     negative rho (up, down):  1.201E-01 0.000E+00

     total cpu time spent up to now is    14309.6 secs

     total energy              =  -27385.20804202 Ry
     estimated scf accuracy    <       0.01450630 Ry

     iteration # 46     ecut=    71.00 Ry     beta= 0.10
     Davidson diagonalization with overlap

---- Real-time Memory Report at c_bands before calling an iterative solver
          1820 MiB given to the printing process from OS
          1023 MiB allocation reported by mallinfo(arena+hblkhd)
        127832 MiB available memory on the node where the printing process lives
------------------
     ethr =  1.09E-06,  avg # of iterations =  6.5

     negative rho (up, down):  8.573E-02 0.000E+00

     total cpu time spent up to now is    14608.9 secs

     total energy              =  -27385.20690602 Ry
     estimated scf accuracy    <       0.01240417 Ry

     iteration # 47     ecut=    71.00 Ry     beta= 0.10
     Davidson diagonalization with overlap

---- Real-time Memory Report at c_bands before calling an iterative solver
          1820 MiB given to the printing process from OS
          1023 MiB allocation reported by mallinfo(arena+hblkhd)
        125679 MiB available memory on the node where the printing process lives
------------------
     ethr =  9.33E-07,  avg # of iterations = 14.0

     negative rho (up, down):  9.658E-02 0.000E+00

     total cpu time spent up to now is    14945.8 secs

     total energy              =  -27385.20587192 Ry
     estimated scf accuracy    <       0.01075673 Ry

     iteration # 48     ecut=    71.00 Ry     beta= 0.10
     Davidson diagonalization with overlap

---- Real-time Memory Report at c_bands before calling an iterative solver
          1820 MiB given to the printing process from OS
          1023 MiB allocation reported by mallinfo(arena+hblkhd)
        125602 MiB available memory on the node where the printing process lives
------------------
     ethr =  8.09E-07,  avg # of iterations =  6.8

     negative rho (up, down):  9.696E-02 0.000E+00

     total cpu time spent up to now is    15253.9 secs

     total energy              =  -27385.20652899 Ry
     estimated scf accuracy    <       0.00468049 Ry

     iteration # 49     ecut=    71.00 Ry     beta= 0.10
     Davidson diagonalization with overlap

---- Real-time Memory Report at c_bands before calling an iterative solver
          1820 MiB given to the printing process from OS
          1023 MiB allocation reported by mallinfo(arena+hblkhd)
        129737 MiB available memory on the node where the printing process lives
------------------
     ethr =  3.52E-07,  avg # of iterations =  2.0

     negative rho (up, down):  7.098E-02 0.000E+00

     total cpu time spent up to now is    15599.2 secs

     total energy              =  -27385.20626345 Ry
     estimated scf accuracy    <       0.00389830 Ry

     iteration # 50     ecut=    71.00 Ry     beta= 0.10
     Davidson diagonalization with overlap

---- Real-time Memory Report at c_bands before calling an iterative solver
          1820 MiB given to the printing process from OS
          1023 MiB allocation reported by mallinfo(arena+hblkhd)
        128310 MiB available memory on the node where the printing process lives
------------------
     ethr =  2.93E-07,  avg # of iterations =  3.8

     negative rho (up, down):  6.296E-02 0.000E+00

     total cpu time spent up to now is    15900.7 secs

     total energy              =  -27385.20624751 Ry
     estimated scf accuracy    <       0.00292620 Ry

     iteration # 51     ecut=    71.00 Ry     beta= 0.10
     Davidson diagonalization with overlap

---- Real-time Memory Report at c_bands before calling an iterative solver
          1822 MiB given to the printing process from OS
          1023 MiB allocation reported by mallinfo(arena+hblkhd)
        127688 MiB available memory on the node where the printing process lives
------------------
     ethr =  2.20E-07,  avg # of iterations =  2.0

     negative rho (up, down):  6.386E-02 0.000E+00

     total cpu time spent up to now is    16202.0 secs

     total energy              =  -27385.20600779 Ry
     estimated scf accuracy    <       0.00186612 Ry

     iteration # 52     ecut=    71.00 Ry     beta= 0.10
     Davidson diagonalization with overlap

---- Real-time Memory Report at c_bands before calling an iterative solver
          1822 MiB given to the printing process from OS
          1023 MiB allocation reported by mallinfo(arena+hblkhd)
        131502 MiB available memory on the node where the printing process lives
------------------
     c_bands:  2 eigenvalues not converged
     ethr =  1.40E-07,  avg # of iterations = 14.5

     negative rho (up, down):  5.454E-02 0.000E+00

     total cpu time spent up to now is    16575.2 secs

     total energy              =  -27385.20597836 Ry
     estimated scf accuracy    <       0.00082682 Ry

     iteration # 53     ecut=    71.00 Ry     beta= 0.10
     Davidson diagonalization with overlap

---- Real-time Memory Report at c_bands before calling an iterative solver
          1822 MiB given to the printing process from OS
          1023 MiB allocation reported by mallinfo(arena+hblkhd)
        109260 MiB available memory on the node where the printing process lives
------------------
     ethr =  6.22E-08,  avg # of iterations =  3.2

     negative rho (up, down):  4.776E-02 0.000E+00

     total cpu time spent up to now is    16919.9 secs

     total energy              =  -27385.20597648 Ry
     estimated scf accuracy    <       0.00048819 Ry

     iteration # 54     ecut=    71.00 Ry     beta= 0.10
     Davidson diagonalization with overlap

---- Real-time Memory Report at c_bands before calling an iterative solver
          1822 MiB given to the printing process from OS
          1023 MiB allocation reported by mallinfo(arena+hblkhd)
        107597 MiB available memory on the node where the printing process lives
------------------
     ethr =  3.67E-08,  avg # of iterations =  3.8

     negative rho (up, down):  4.972E-02 0.000E+00

     total cpu time spent up to now is    17263.0 secs

     total energy              =  -27385.20599465 Ry
     estimated scf accuracy    <       0.00038861 Ry

     iteration # 55     ecut=    71.00 Ry     beta= 0.10
     Davidson diagonalization with overlap

---- Real-time Memory Report at c_bands before calling an iterative solver
          1822 MiB given to the printing process from OS
          1023 MiB allocation reported by mallinfo(arena+hblkhd)
        118283 MiB available memory on the node where the printing process lives
------------------
     ethr =  2.92E-08,  avg # of iterations =  3.8

     negative rho (up, down):  5.047E-02 0.000E+00

     total cpu time spent up to now is    17577.7 secs

     total energy              =  -27385.20607199 Ry
     estimated scf accuracy    <       0.00029068 Ry

     iteration # 56     ecut=    71.00 Ry     beta= 0.10
     Davidson diagonalization with overlap

---- Real-time Memory Report at c_bands before calling an iterative solver
          1823 MiB given to the printing process from OS
          1023 MiB allocation reported by mallinfo(arena+hblkhd)
        132765 MiB available memory on the node where the printing process lives
------------------
     ethr =  2.19E-08,  avg # of iterations =  5.2

     negative rho (up, down):  4.982E-02 0.000E+00

     total cpu time spent up to now is    17929.2 secs

     total energy              =  -27385.20610816 Ry
     estimated scf accuracy    <       0.00021802 Ry

     iteration # 57     ecut=    71.00 Ry     beta= 0.10
     Davidson diagonalization with overlap

---- Real-time Memory Report at c_bands before calling an iterative solver
          1827 MiB given to the printing process from OS
          1023 MiB allocation reported by mallinfo(arena+hblkhd)
        137703 MiB available memory on the node where the printing process lives
------------------
     ethr =  1.64E-08,  avg # of iterations =  2.0

     negative rho (up, down):  4.690E-02 0.000E+00

     total cpu time spent up to now is    18255.7 secs

     total energy              =  -27385.20612805 Ry
     estimated scf accuracy    <       0.00014739 Ry

     iteration # 58     ecut=    71.00 Ry     beta= 0.10
     Davidson diagonalization with overlap

---- Real-time Memory Report at c_bands before calling an iterative solver
          1827 MiB given to the printing process from OS
          1023 MiB allocation reported by mallinfo(arena+hblkhd)
        148849 MiB available memory on the node where the printing process lives
------------------
     ethr =  1.11E-08,  avg # of iterations =  6.2

     negative rho (up, down):  4.895E-02 0.000E+00

     total cpu time spent up to now is    18594.9 secs

     total energy              =  -27385.20618042 Ry
     estimated scf accuracy    <       0.00007222 Ry

     iteration # 59     ecut=    71.00 Ry     beta= 0.10
     Davidson diagonalization with overlap

---- Real-time Memory Report at c_bands before calling an iterative solver
          1827 MiB given to the printing process from OS
          1023 MiB allocation reported by mallinfo(arena+hblkhd)
        144988 MiB available memory on the node where the printing process lives
------------------
     ethr =  5.43E-09,  avg # of iterations =  6.8

     negative rho (up, down):  4.893E-02 0.000E+00

     total cpu time spent up to now is    18960.3 secs

     total energy              =  -27385.20617915 Ry
     estimated scf accuracy    <       0.00005054 Ry

     iteration # 60     ecut=    71.00 Ry     beta= 0.10
     Davidson diagonalization with overlap

---- Real-time Memory Report at c_bands before calling an iterative solver
          1827 MiB given to the printing process from OS
          1023 MiB allocation reported by mallinfo(arena+hblkhd)
        143117 MiB available memory on the node where the printing process lives
------------------
     ethr =  3.80E-09,  avg # of iterations =  2.0

     negative rho (up, down):  4.700E-02 0.000E+00

     total cpu time spent up to now is    19289.2 secs

     total energy              =  -27385.20617027 Ry
     estimated scf accuracy    <       0.00004045 Ry

     iteration # 61     ecut=    71.00 Ry     beta= 0.10
     Davidson diagonalization with overlap

---- Real-time Memory Report at c_bands before calling an iterative solver
          1827 MiB given to the printing process from OS
          1023 MiB allocation reported by mallinfo(arena+hblkhd)
        131010 MiB available memory on the node where the printing process lives
------------------
     ethr =  3.04E-09,  avg # of iterations =  5.0

     negative rho (up, down):  4.775E-02 0.000E+00

     total cpu time spent up to now is    19635.3 secs

     total energy              =  -27385.20618084 Ry
     estimated scf accuracy    <       0.00002578 Ry

     iteration # 62     ecut=    71.00 Ry     beta= 0.10
     Davidson diagonalization with overlap

---- Real-time Memory Report at c_bands before calling an iterative solver
          1827 MiB given to the printing process from OS
          1023 MiB allocation reported by mallinfo(arena+hblkhd)
        139438 MiB available memory on the node where the printing process lives
------------------
     ethr =  1.94E-09,  avg # of iterations =  7.2

     negative rho (up, down):  4.688E-02 0.000E+00

     total cpu time spent up to now is    19993.8 secs

     total energy              =  -27385.20618136 Ry
     estimated scf accuracy    <       0.00001331 Ry

     iteration # 63     ecut=    71.00 Ry     beta= 0.10
     Davidson diagonalization with overlap

---- Real-time Memory Report at c_bands before calling an iterative solver
          1827 MiB given to the printing process from OS
          1023 MiB allocation reported by mallinfo(arena+hblkhd)
        139804 MiB available memory on the node where the printing process lives
------------------
     ethr =  1.00E-09,  avg # of iterations =  4.8

     negative rho (up, down):  4.642E-02 0.000E+00

     total cpu time spent up to now is    20332.3 secs

     total energy              =  -27385.20618160 Ry
     estimated scf accuracy    <       0.00000922 Ry

     iteration # 64     ecut=    71.00 Ry     beta= 0.10
     Davidson diagonalization with overlap

---- Real-time Memory Report at c_bands before calling an iterative solver
          1827 MiB given to the printing process from OS
          1023 MiB allocation reported by mallinfo(arena+hblkhd)
        142637 MiB available memory on the node where the printing process lives
------------------
     ethr =  6.94E-10,  avg # of iterations =  2.0

     negative rho (up, down):  4.632E-02 0.000E+00

     total cpu time spent up to now is    20652.7 secs

     total energy              =  -27385.20618228 Ry
     estimated scf accuracy    <       0.00000709 Ry

     iteration # 65     ecut=    71.00 Ry     beta= 0.10
     Davidson diagonalization with overlap

---- Real-time Memory Report at c_bands before calling an iterative solver
          1827 MiB given to the printing process from OS
          1023 MiB allocation reported by mallinfo(arena+hblkhd)
        133431 MiB available memory on the node where the printing process lives
------------------
     ethr =  5.33E-10,  avg # of iterations =  2.0

     negative rho (up, down):  4.655E-02 0.000E+00

     total cpu time spent up to now is    20962.0 secs

     total energy              =  -27385.20618301 Ry
     estimated scf accuracy    <       0.00000589 Ry

     iteration # 66     ecut=    71.00 Ry     beta= 0.10
     Davidson diagonalization with overlap

---- Real-time Memory Report at c_bands before calling an iterative solver
          1827 MiB given to the printing process from OS
          1023 MiB allocation reported by mallinfo(arena+hblkhd)
        131504 MiB available memory on the node where the printing process lives
------------------
     ethr =  4.43E-10,  avg # of iterations =  3.2

     negative rho (up, down):  4.622E-02 0.000E+00

     total cpu time spent up to now is    21299.5 secs

     total energy              =  -27385.20618274 Ry
     estimated scf accuracy    <       0.00000376 Ry

     iteration # 67     ecut=    71.00 Ry     beta= 0.10
     Davidson diagonalization with overlap

---- Real-time Memory Report at c_bands before calling an iterative solver
          1827 MiB given to the printing process from OS
          1023 MiB allocation reported by mallinfo(arena+hblkhd)
        133812 MiB available memory on the node where the printing process lives
------------------
     ethr =  2.83E-10,  avg # of iterations =  9.0

     negative rho (up, down):  4.588E-02 0.000E+00

     total cpu time spent up to now is    21666.6 secs

     total energy              =  -27385.20618330 Ry
     estimated scf accuracy    <       0.00000208 Ry

     iteration # 68     ecut=    71.00 Ry     beta= 0.10
     Davidson diagonalization with overlap

---- Real-time Memory Report at c_bands before calling an iterative solver
          1827 MiB given to the printing process from OS
          1023 MiB allocation reported by mallinfo(arena+hblkhd)
        121459 MiB available memory on the node where the printing process lives
------------------
     ethr =  1.56E-10,  avg # of iterations =  6.5

     negative rho (up, down):  4.591E-02 0.000E+00

     total cpu time spent up to now is    22015.8 secs

     total energy              =  -27385.20618347 Ry
     estimated scf accuracy    <       0.00000162 Ry

     iteration # 69     ecut=    71.00 Ry     beta= 0.10
     Davidson diagonalization with overlap

---- Real-time Memory Report at c_bands before calling an iterative solver
          1827 MiB given to the printing process from OS
          1023 MiB allocation reported by mallinfo(arena+hblkhd)
        134068 MiB available memory on the node where the printing process lives
------------------
     ethr =  1.22E-10,  avg # of iterations =  2.0

     negative rho (up, down):  4.617E-02 0.000E+00

     total cpu time spent up to now is    22295.7 secs

     total energy              =  -27385.20618329 Ry
     estimated scf accuracy    <       0.00000148 Ry

     iteration # 70     ecut=    71.00 Ry     beta= 0.10
     Davidson diagonalization with overlap

---- Real-time Memory Report at c_bands before calling an iterative solver
          1827 MiB given to the printing process from OS
          1023 MiB allocation reported by mallinfo(arena+hblkhd)
        118639 MiB available memory on the node where the printing process lives
------------------
     ethr =  1.12E-10,  avg # of iterations =  3.0

     negative rho (up, down):  4.615E-02 0.000E+00

     total cpu time spent up to now is    22599.8 secs

     total energy              =  -27385.20618343 Ry
     estimated scf accuracy    <       0.00000089 Ry

     iteration # 71     ecut=    71.00 Ry     beta= 0.10
     Davidson diagonalization with overlap

---- Real-time Memory Report at c_bands before calling an iterative solver
          1827 MiB given to the printing process from OS
          1023 MiB allocation reported by mallinfo(arena+hblkhd)
        136697 MiB available memory on the node where the printing process lives
------------------
     ethr =  6.67E-11,  avg # of iterations =  6.2

     negative rho (up, down):  4.601E-02 0.000E+00

     total cpu time spent up to now is    22923.1 secs

     total energy              =  -27385.20618344 Ry
     estimated scf accuracy    <       0.00000056 Ry

     iteration # 72     ecut=    71.00 Ry     beta= 0.10
     Davidson diagonalization with overlap

---- Real-time Memory Report at c_bands before calling an iterative solver
          1827 MiB given to the printing process from OS
          1023 MiB allocation reported by mallinfo(arena+hblkhd)
        122467 MiB available memory on the node where the printing process lives
------------------
     ethr =  4.18E-11,  avg # of iterations =  7.0

     negative rho (up, down):  4.606E-02 0.000E+00

     total cpu time spent up to now is    23246.0 secs

     total energy              =  -27385.20618343 Ry
     estimated scf accuracy    <       0.00000030 Ry

     iteration # 73     ecut=    71.00 Ry     beta= 0.10
     Davidson diagonalization with overlap

---- Real-time Memory Report at c_bands before calling an iterative solver
          1827 MiB given to the printing process from OS
          1023 MiB allocation reported by mallinfo(arena+hblkhd)
        115383 MiB available memory on the node where the printing process lives
------------------
     ethr =  2.25E-11,  avg # of iterations =  4.2

     negative rho (up, down):  4.610E-02 0.000E+00

     total cpu time spent up to now is    23535.9 secs

     total energy              =  -27385.20618335 Ry
     estimated scf accuracy    <       0.00000025 Ry

     iteration # 74     ecut=    71.00 Ry     beta= 0.10
     Davidson diagonalization with overlap

---- Real-time Memory Report at c_bands before calling an iterative solver
          1827 MiB given to the printing process from OS
          1023 MiB allocation reported by mallinfo(arena+hblkhd)
        132010 MiB available memory on the node where the printing process lives
------------------
     ethr =  1.88E-11,  avg # of iterations =  4.5

     negative rho (up, down):  4.600E-02 0.000E+00

     total cpu time spent up to now is    23827.3 secs

     total energy              =  -27385.20618341 Ry
     estimated scf accuracy    <       0.00000022 Ry

     iteration # 75     ecut=    71.00 Ry     beta= 0.10
     Davidson diagonalization with overlap

---- Real-time Memory Report at c_bands before calling an iterative solver
          1827 MiB given to the printing process from OS
          1023 MiB allocation reported by mallinfo(arena+hblkhd)
        145343 MiB available memory on the node where the printing process lives
------------------
     ethr =  1.62E-11,  avg # of iterations =  2.8

     negative rho (up, down):  4.603E-02 0.000E+00

     total cpu time spent up to now is    24091.6 secs

     total energy              =  -27385.20618338 Ry
     estimated scf accuracy    <       0.00000017 Ry

     iteration # 76     ecut=    71.00 Ry     beta= 0.10
     Davidson diagonalization with overlap

---- Real-time Memory Report at c_bands before calling an iterative solver
          1827 MiB given to the printing process from OS
          1023 MiB allocation reported by mallinfo(arena+hblkhd)
        147832 MiB available memory on the node where the printing process lives
------------------
     ethr =  1.24E-11,  avg # of iterations =  6.2

     negative rho (up, down):  4.602E-02 0.000E+00

     total cpu time spent up to now is    24391.2 secs

     total energy              =  -27385.20618331 Ry
     estimated scf accuracy    <       0.00000013 Ry

     iteration # 77     ecut=    71.00 Ry     beta= 0.10
     Davidson diagonalization with overlap

---- Real-time Memory Report at c_bands before calling an iterative solver
          1827 MiB given to the printing process from OS
          1023 MiB allocation reported by mallinfo(arena+hblkhd)
        136497 MiB available memory on the node where the printing process lives
------------------
     ethr =  9.77E-12,  avg # of iterations =  6.0

     negative rho (up, down):  4.604E-02 0.000E+00

     total cpu time spent up to now is    24693.0 secs

     total energy              =  -27385.20618332 Ry
     estimated scf accuracy    <       0.00000010 Ry

     iteration # 78     ecut=    71.00 Ry     beta= 0.10
     Davidson diagonalization with overlap

---- Real-time Memory Report at c_bands before calling an iterative solver
          1827 MiB given to the printing process from OS
          1023 MiB allocation reported by mallinfo(arena+hblkhd)
        139363 MiB available memory on the node where the printing process lives
------------------
     ethr =  7.73E-12,  avg # of iterations =  2.0

     negative rho (up, down):  4.606E-02 0.000E+00

     total cpu time spent up to now is    24973.8 secs

     total energy              =  -27385.20618329 Ry
     estimated scf accuracy    <       0.00000009 Ry

     iteration # 79     ecut=    71.00 Ry     beta= 0.10
     Davidson diagonalization with overlap

---- Real-time Memory Report at c_bands before calling an iterative solver
          1827 MiB given to the printing process from OS
          1023 MiB allocation reported by mallinfo(arena+hblkhd)
        130858 MiB available memory on the node where the printing process lives
------------------
     ethr =  6.97E-12,  avg # of iterations =  2.0

     negative rho (up, down):  4.606E-02 0.000E+00

     total cpu time spent up to now is    25272.8 secs

     total energy              =  -27385.20618327 Ry
     estimated scf accuracy    <       0.00000008 Ry

     iteration # 80     ecut=    71.00 Ry     beta= 0.10
     Davidson diagonalization with overlap

---- Real-time Memory Report at c_bands before calling an iterative solver
          1827 MiB given to the printing process from OS
          1023 MiB allocation reported by mallinfo(arena+hblkhd)
        129018 MiB available memory on the node where the printing process lives
------------------
     ethr =  5.80E-12,  avg # of iterations =  2.0

     negative rho (up, down):  4.606E-02 0.000E+00

     total cpu time spent up to now is    25574.9 secs

     total energy              =  -27385.20618327 Ry
     estimated scf accuracy    <       0.00000006 Ry

     iteration # 81     ecut=    71.00 Ry     beta= 0.10
     Davidson diagonalization with overlap

---- Real-time Memory Report at c_bands before calling an iterative solver
          1827 MiB given to the printing process from OS
          1023 MiB allocation reported by mallinfo(arena+hblkhd)
        110731 MiB available memory on the node where the printing process lives
------------------
     ethr =  4.44E-12,  avg # of iterations =  2.0

     negative rho (up, down):  4.608E-02 0.000E+00

     total cpu time spent up to now is    25849.3 secs

     total energy              =  -27385.20618326 Ry
     estimated scf accuracy    <       0.00000006 Ry

     iteration # 82     ecut=    71.00 Ry     beta= 0.10
     Davidson diagonalization with overlap

---- Real-time Memory Report at c_bands before calling an iterative solver
          1827 MiB given to the printing process from OS
          1023 MiB allocation reported by mallinfo(arena+hblkhd)
        100736 MiB available memory on the node where the printing process lives
------------------
     ethr =  4.22E-12,  avg # of iterations =  2.0

     negative rho (up, down):  4.606E-02 0.000E+00

     total cpu time spent up to now is    26128.4 secs

     total energy              =  -27385.20618324 Ry
     estimated scf accuracy    <       0.00000005 Ry

     iteration # 83     ecut=    71.00 Ry     beta= 0.10
     Davidson diagonalization with overlap

---- Real-time Memory Report at c_bands before calling an iterative solver
          1827 MiB given to the printing process from OS
          1023 MiB allocation reported by mallinfo(arena+hblkhd)
         91694 MiB available memory on the node where the printing process lives
------------------
     ethr =  3.73E-12,  avg # of iterations =  2.0

     negative rho (up, down):  4.604E-02 0.000E+00

     total cpu time spent up to now is    26417.9 secs

     total energy              =  -27385.20618324 Ry
     estimated scf accuracy    <       0.00000005 Ry

     iteration # 84     ecut=    71.00 Ry     beta= 0.10
     Davidson diagonalization with overlap

---- Real-time Memory Report at c_bands before calling an iterative solver
          1827 MiB given to the printing process from OS
          1023 MiB allocation reported by mallinfo(arena+hblkhd)
         80513 MiB available memory on the node where the printing process lives
------------------
     ethr =  3.46E-12,  avg # of iterations =  2.0

     negative rho (up, down):  4.606E-02 0.000E+00

     total cpu time spent up to now is    26711.5 secs

     total energy              =  -27385.20618324 Ry
     estimated scf accuracy    <       0.00000005 Ry

     iteration # 85     ecut=    71.00 Ry     beta= 0.10
     Davidson diagonalization with overlap

---- Real-time Memory Report at c_bands before calling an iterative solver
          1827 MiB given to the printing process from OS
          1023 MiB allocation reported by mallinfo(arena+hblkhd)
         79512 MiB available memory on the node where the printing process lives
------------------
     ethr =  3.46E-12,  avg # of iterations =  2.0

     negative rho (up, down):  4.606E-02 0.000E+00

     total cpu time spent up to now is    27031.1 secs

     total energy              =  -27385.20618325 Ry
     estimated scf accuracy    <       0.00000003 Ry

     iteration # 86     ecut=    71.00 Ry     beta= 0.10
     Davidson diagonalization with overlap

---- Real-time Memory Report at c_bands before calling an iterative solver
          1827 MiB given to the printing process from OS
          1023 MiB allocation reported by mallinfo(arena+hblkhd)
         77966 MiB available memory on the node where the printing process lives
------------------
     ethr =  2.23E-12,  avg # of iterations =  2.0

     negative rho (up, down):  4.603E-02 0.000E+00

     total cpu time spent up to now is    27330.1 secs

     total energy              =  -27385.20618326 Ry
     estimated scf accuracy    <       0.00000003 Ry

     iteration # 87     ecut=    71.00 Ry     beta= 0.10
     Davidson diagonalization with overlap

---- Real-time Memory Report at c_bands before calling an iterative solver
          1827 MiB given to the printing process from OS
          1023 MiB allocation reported by mallinfo(arena+hblkhd)
         73238 MiB available memory on the node where the printing process lives
------------------
     ethr =  1.97E-12,  avg # of iterations =  2.8

     negative rho (up, down):  4.602E-02 0.000E+00

     total cpu time spent up to now is    27612.3 secs

     total energy              =  -27385.20618328 Ry
     estimated scf accuracy    <       0.00000002 Ry

     iteration # 88     ecut=    71.00 Ry     beta= 0.10
     Davidson diagonalization with overlap

---- Real-time Memory Report at c_bands before calling an iterative solver
          1827 MiB given to the printing process from OS
          1023 MiB allocation reported by mallinfo(arena+hblkhd)
         70329 MiB available memory on the node where the printing process lives
------------------
     ethr =  1.45E-12,  avg # of iterations =  2.8

     negative rho (up, down):  4.600E-02 0.000E+00

     total cpu time spent up to now is    27897.9 secs

     total energy              =  -27385.20618329 Ry
     estimated scf accuracy    <       0.00000002 Ry

     iteration # 89     ecut=    71.00 Ry     beta= 0.10
     Davidson diagonalization with overlap

---- Real-time Memory Report at c_bands before calling an iterative solver
          1827 MiB given to the printing process from OS
          1023 MiB allocation reported by mallinfo(arena+hblkhd)
         68792 MiB available memory on the node where the printing process lives
------------------
     ethr =  1.25E-12,  avg # of iterations =  2.0

     negative rho (up, down):  4.599E-02 0.000E+00

     total cpu time spent up to now is    28179.5 secs

     total energy              =  -27385.20618329 Ry
     estimated scf accuracy    <       0.00000001 Ry

     iteration # 90     ecut=    71.00 Ry     beta= 0.10
     Davidson diagonalization with overlap

---- Real-time Memory Report at c_bands before calling an iterative solver
          1827 MiB given to the printing process from OS
          1023 MiB allocation reported by mallinfo(arena+hblkhd)
         90839 MiB available memory on the node where the printing process lives
------------------
     ethr =  1.12E-12,  avg # of iterations =  2.0

     negative rho (up, down):  4.599E-02 0.000E+00

     total cpu time spent up to now is    28461.0 secs

     total energy              =  -27385.20618327 Ry
     estimated scf accuracy    <       0.00000001 Ry

     iteration # 91     ecut=    71.00 Ry     beta= 0.10
     Davidson diagonalization with overlap

---- Real-time Memory Report at c_bands before calling an iterative solver
          1827 MiB given to the printing process from OS
          1023 MiB allocation reported by mallinfo(arena+hblkhd)
         93162 MiB available memory on the node where the printing process lives
------------------
     ethr =  9.32E-13,  avg # of iterations =  2.0

     negative rho (up, down):  4.591E-02 0.000E+00

     total cpu time spent up to now is    28738.7 secs

     End of self-consistent calculation

          k = 0.0000 0.0000 0.0000 (327585 PWs)   bands (ev):

   -74.8852 -39.1541 -39.0867 -39.0579 -18.1639 -18.1638 -18.0783 -18.0501
   -18.0501 -18.0233 -18.0233 -17.9746 -17.9746 -17.8081 -17.8081 -17.7383
   -17.7383 -17.7151 -17.7151 -17.6772 -17.6772 -17.6733 -17.6733 -17.6323
   -17.6323 -17.5852 -17.5852 -17.5742 -17.5742 -17.4886 -17.4062 -17.3919
   -17.2966 -17.1602 -17.1589 -17.1299 -17.0730 -17.0627 -17.0571 -17.0352
   -17.0187 -16.9971 -16.9880 -16.9443 -16.9404 -16.9388 -16.9198 -16.9119
   -16.8745 -16.8698 -16.8466 -16.8339 -16.8335 -16.8209 -16.8025 -16.7983
   -16.7955 -16.7767 -16.7610 -16.7599 -16.7270 -16.7134 -16.6914 -16.6906
   -16.6720 -16.6631 -16.6534 -16.6469 -16.6325 -16.6305 -16.6194 -16.6077
   -16.6023 -16.6007 -16.5930 -16.5823 -16.5730 -16.5662 -16.5468 -16.5443
   -16.5399 -16.5294 -16.4977 -16.4960 -16.4439 -16.4412 -16.4320 -16.4310
   -16.4225 -16.4148 -16.3955 -16.3929 -16.3910 -16.3761 -16.3741 -16.3694
   -16.3038 -16.3037 -16.2490 -16.2465 -12.6457 -12.6427 -12.6178 -12.6151
   -12.6119 -12.6081 -12.6057 -12.5941 -12.5913 -12.5876 -12.5860 -12.5736
   -12.5667 -12.5666 -12.5589 -12.5560 -12.5494 -12.5482 -12.5443 -12.5415
   -12.5380 -12.5365 -12.5246 -12.5230 -12.5161 -12.5153 -12.5080 -12.5057
   -12.5027 -12.5008 -12.4953 -12.4921 -12.4906 -12.4834 -12.4794 -12.4757
   -12.4736 -12.4687 -12.4542 -12.4520 -12.4520 -12.4513 -12.4489 -12.4408
   -12.4366 -12.4355 -12.4277 -12.4231 -12.4218 -12.4094 -12.4024 -12.4013
   -12.3942 -12.3918 -12.3895 -12.3870 -12.3800 -12.3786 -12.3694 -12.3682
   -12.3648 -12.3586 -12.3459 -12.3455 -12.3391 -12.3324 -12.3271 -12.3257
   -12.3218 -12.3197 -12.3168 -12.3151 -12.3144 -12.3099 -12.3038 -12.3030
   -12.2986 -12.2984 -12.2952 -12.2942 -12.2910 -12.2882 -12.2832 -12.2792
   -12.2779 -12.2756 -12.2699 -12.2693 -12.2646 -12.2619 -12.2614 -12.2600
   -12.2565 -12.2542 -12.2518 -12.2508 -12.2486 -12.2479 -12.2431 -12.2411
   -12.2393 -12.2346 -12.2340 -12.2283 -12.2276 -12.2260 -12.2236 -12.2224
   -12.2189 -12.2166 -12.2151 -12.2121 -12.2119 -12.2092 -12.2012 -12.2010
   -12.1987 -12.1977 -12.1953 -12.1925 -12.1902 -12.1846 -12.1824 -12.1801
   -12.1793 -12.1782 -12.1779 -12.1756 -12.1714 -12.1713 -12.1704 -12.1674
   -12.1663 -12.1636 -12.1607 -12.1576 -12.1561 -12.1544 -12.1511 -12.1491
   -12.1476 -12.1440 -12.1438 -12.1400 -12.1388 -12.1334 -12.1305 -12.1304
   -12.1227 -12.1225 -12.1163 -12.1159 -12.1128 -12.1121 -12.1091 -12.1064
   -12.1058 -12.1049 -12.0976 -12.0970 -12.0940 -12.0911 -12.0900 -12.0867
   -12.0849 -12.0837 -12.0820 -12.0783 -12.0740 -12.0713 -12.0684 -12.0656
   -12.0639 -12.0626 -12.0573 -12.0561 -12.0549 -12.0512 -12.0512 -12.0455
   -12.0454 -12.0387 -12.0371 -12.0356 -12.0330 -12.0299 -12.0286 -12.0220
   -12.0172 -12.0162 -12.0140 -12.0110 -12.0080 -12.0040 -12.0037 -12.0006
   -11.9999 -11.9971 -11.9955 -11.9944 -11.9924 -11.9876 -11.9861 -11.9831
   -11.9829 -11.9768 -11.9755 -11.9732 -11.9727 -11.9612 -11.9574 -11.9573
   -11.9524 -11.9523 -11.9420 -11.9419 -11.9378 -11.9349 -11.9343 -11.9340
   -11.9244 -11.9233 -11.9212 -11.9162 -11.9117 -11.9116 -11.9101 -11.9056
   -11.8980 -11.8938 -11.8754 -11.8751 -11.8745 -11.8694 -11.8572 -11.8563
   -11.8388 -11.8337 -11.7922 -11.7802 -11.7362 -11.7281 -11.7099 -11.7073
   -11.6922 -11.6393 -11.6332 -11.6261 -11.6214 -11.5913 -11.5789 -11.5624
   -11.5504 -11.5179 -11.4955 -11.4765 -11.4647 -11.4440 -11.4417 -11.4308
   -11.4125 -11.3989 -11.3720 -11.3609 -11.3542 -11.2974 -11.2942 -11.2786
   -11.2772 -11.2017 -11.1824 -11.1742 -11.1535 -11.1510 -11.1250  -5.7552
    -5.7548  -5.6443  -5.6015  -5.5927  -5.5710  -5.5688  -5.5644  -5.5642
    -5.4495  -5.4182  -5.4159  -5.3920  -5.3855  -5.3426  -5.3327  -5.3035
    -5.2862  -5.2767  -5.2750  -5.2438  -5.2239  -5.1543  -5.1418  -5.0579
    -5.0558  -4.9739  -4.9580  -4.9360  -4.8393  -4.8378  -4.7957  -4.7953
    -4.6873  -4.6739  -4.6726  -4.6378  -4.6229  -4.6154  -4.6049  -4.5943
    -4.5728  -4.5632  -4.5189  -4.5036  -4.4824  -4.4630  -4.4071  -4.3813
    -4.3558  -4.3511  -4.3160  -4.3157  -4.2485  -4.1924  -4.1832  -4.1815
    -4.1458  -4.1111  -4.0769  -4.0580  -4.0251  -3.9377  -3.9328  -3.9242
    -3.8605  -3.8345  -3.8213  -3.7573  -3.7327  -3.7158  -3.6958  -3.6401
    -3.6386  -3.5903  -3.5716  -3.5558  -3.5459  -3.5254  -3.4933  -3.4783
    -3.4553  -3.4425  -3.4216  -3.3811  -3.3776  -3.3312  -3.3048  -3.2689
    -3.2637  -3.2489  -3.1811  -3.1771  -3.1360  -3.1228  -3.0807  -3.0705
    -3.0343  -3.0268  -2.9888  -2.9821  -2.9671  -2.9200  -2.9177  -2.8949
    -2.8229  -2.8223  -2.8160  -2.7753  -2.7620  -2.7475  -2.7090  -2.7042
    -2.6738  -2.6450  -2.6116  -2.5916  -2.5636  -2.5569  -2.5463  -2.5095
    -2.5037  -2.4867  -2.4703  -2.4529  -2.4379  -2.3791  -2.3555  -2.3370
    -2.3341  -2.3114  -2.2934  -2.2048  -2.1900  -2.1729  -2.1655  -2.1543
    -2.1064  -2.1019  -2.0798  -2.0773  -2.0527  -2.0403  -2.0061  -1.9957
    -1.9678  -1.9347  -1.9320  -1.9273  -1.8832  -1.8806  -1.8620  -1.8436
    -1.8385  -1.8321  -1.8176  -1.8091  -1.7987  -1.7919  -1.7826  -1.7553
    -1.7340  -1.7251  -1.7192  -1.7120  -1.6914  -1.6898  -1.6629  -1.6595
    -1.6550  -1.6289  -1.6234  -1.6099  -1.6050  -1.5727  -1.5701  -1.5547
    -1.5296  -1.5291  -1.5122  -1.5111  -1.4895  -1.4518  -1.4504  -1.4341
    -1.4327  -1.3940  -1.3794  -1.3586  -1.3544  -1.3448  -1.3268  -1.3061
    -1.2952  -1.2632  -1.2417  -1.2276  -1.2157  -1.2010  -1.1908  -1.1839
    -1.1663  -1.1216  -1.1089  -1.0300  -1.0250  -1.0091  -1.0050  -0.9991
    -0.9856  -0.9784  -0.9774  -0.9285  -0.9050  -0.9020  -0.8716  -0.8637
    -0.8543  -0.8541  -0.8432  -0.8218  -0.8123  -0.7897  -0.7894  -0.7803
    -0.7705  -0.7423  -0.7214  -0.7064  -0.6899  -0.6638  -0.6428  -0.6180
    -0.6138  -0.6066  -0.5835  -0.5745  -0.5537  -0.5484  -0.5249  -0.5181
    -0.5129  -0.4975  -0.4902  -0.4851  -0.4615  -0.4558  -0.4528  -0.4436
    -0.4436  -0.4315  -0.4221  -0.4041  -0.3969  -0.3871  -0.3817  -0.3754
    -0.3674  -0.3576  -0.3554  -0.3498  -0.3375  -0.3361  -0.3239  -0.2988
    -0.2936  -0.2843  -0.2787  -0.2754  -0.2615  -0.2186  -0.2182  -0.1961
    -0.1827  -0.1734  -0.1705  -0.1688  -0.1536  -0.1522  -0.1232  -0.1229
    -0.1167  -0.0965  -0.0810   0.0252   0.0291   0.0309   0.0350   1.1113
     1.8667   2.4527   2.5688   2.8772   3.3303   3.5806   3.7240   3.8085
     3.8134   3.9604   4.1405   4.1801   4.2080   4.2136   4.2665   4.5890
     4.6070   4.6433   4.6691   4.7184   4.7887   4.8712   4.9113   5.0077

     occupation numbers 
     1.0000   1.0000   1.0000   1.0000   1.0000   1.0000   1.0000   1.0000
     1.0000   1.0000   1.0000   1.0000   1.0000   1.0000   1.0000   1.0000
     1.0000   1.0000   1.0000   1.0000   1.0000   1.0000   1.0000   1.0000
     1.0000   1.0000   1.0000   1.0000   1.0000   1.0000   1.0000   1.0000
     1.0000   1.0000   1.0000   1.0000   1.0000   1.0000   1.0000   1.0000
     1.0000   1.0000   1.0000   1.0000   1.0000   1.0000   1.0000   1.0000
     1.0000   1.0000   1.0000   1.0000   1.0000   1.0000   1.0000   1.0000
     1.0000   1.0000   1.0000   1.0000   1.0000   1.0000   1.0000   1.0000
     1.0000   1.0000   1.0000   1.0000   1.0000   1.0000   1.0000   1.0000
     1.0000   1.0000   1.0000   1.0000   1.0000   1.0000   1.0000   1.0000
     1.0000   1.0000   1.0000   1.0000   1.0000   1.0000   1.0000   1.0000
     1.0000   1.0000   1.0000   1.0000   1.0000   1.0000   1.0000   1.0000
     1.0000   1.0000   1.0000   1.0000   1.0000   1.0000   1.0000   1.0000
     1.0000   1.0000   1.0000   1.0000   1.0000   1.0000   1.0000   1.0000
     1.0000   1.0000   1.0000   1.0000   1.0000   1.0000   1.0000   1.0000
     1.0000   1.0000   1.0000   1.0000   1.0000   1.0000   1.0000   1.0000
     1.0000   1.0000   1.0000   1.0000   1.0000   1.0000   1.0000   1.0000
     1.0000   1.0000   1.0000   1.0000   1.0000   1.0000   1.0000   1.0000
     1.0000   1.0000   1.0000   1.0000   1.0000   1.0000   1.0000   1.0000
     1.0000   1.0000   1.0000   1.0000   1.0000   1.0000   1.0000   1.0000
     1.0000   1.0000   1.0000   1.0000   1.0000   1.0000   1.0000   1.0000
     1.0000   1.0000   1.0000   1.0000   1.0000   1.0000   1.0000   1.0000
     1.0000   1.0000   1.0000   1.0000   1.0000   1.0000   1.0000   1.0000
     1.0000   1.0000   1.0000   1.0000   1.0000   1.0000   1.0000   1.0000
     1.0000   1.0000   1.0000   1.0000   1.0000   1.0000   1.0000   1.0000
     1.0000   1.0000   1.0000   1.0000   1.0000   1.0000   1.0000   1.0000
     1.0000   1.0000   1.0000   1.0000   1.0000   1.0000   1.0000   1.0000
     1.0000   1.0000   1.0000   1.0000   1.0000   1.0000   1.0000   1.0000
     1.0000   1.0000   1.0000   1.0000   1.0000   1.0000   1.0000   1.0000
     1.0000   1.0000   1.0000   1.0000   1.0000   1.0000   1.0000   1.0000
     1.0000   1.0000   1.0000   1.0000   1.0000   1.0000   1.0000   1.0000
     1.0000   1.0000   1.0000   1.0000   1.0000   1.0000   1.0000   1.0000
     1.0000   1.0000   1.0000   1.0000   1.0000   1.0000   1.0000   1.0000
     1.0000   1.0000   1.0000   1.0000   1.0000   1.0000   1.0000   1.0000
     1.0000   1.0000   1.0000   1.0000   1.0000   1.0000   1.0000   1.0000
     1.0000   1.0000   1.0000   1.0000   1.0000   1.0000   1.0000   1.0000
     1.0000   1.0000   1.0000   1.0000   1.0000   1.0000   1.0000   1.0000
     1.0000   1.0000   1.0000   1.0000   1.0000   1.0000   1.0000   1.0000
     1.0000   1.0000   1.0000   1.0000   1.0000   1.0000   1.0000   1.0000
     1.0000   1.0000   1.0000   1.0000   1.0000   1.0000   1.0000   1.0000
     1.0000   1.0000   1.0000   1.0000   1.0000   1.0000   1.0000   1.0000
     1.0000   1.0000   1.0000   1.0000   1.0000   1.0000   1.0000   1.0000
     1.0000   1.0000   1.0000   1.0000   1.0000   1.0000   1.0000   1.0000
     1.0000   1.0000   1.0000   1.0000   1.0000   1.0000   1.0000   1.0000
     1.0000   1.0000   1.0000   1.0000   1.0000   1.0000   1.0000   1.0000
     1.0000   1.0000   1.0000   1.0000   1.0000   1.0000   1.0000   1.0000
     1.0000   1.0000   1.0000   1.0000   1.0000   1.0000   1.0000   1.0000
     1.0000   1.0000   1.0000   1.0000   1.0000   1.0000   1.0000   1.0000
     1.0000   1.0000   1.0000   1.0000   1.0000   1.0000   1.0000   1.0000
     1.0000   1.0000   1.0000   1.0000   1.0000   1.0000   1.0000   1.0000
     1.0000   1.0000   1.0000   1.0000   1.0000   1.0000   1.0000   1.0000
     1.0000   1.0000   1.0000   1.0000   1.0000   1.0000   1.0000   1.0000
     1.0000   1.0000   1.0000   1.0000   1.0000   1.0000   1.0000   1.0000
     1.0000   1.0000   1.0000   1.0000   1.0000   1.0000   1.0000   1.0000
     1.0000   1.0000   1.0000   1.0000   1.0000   1.0000   1.0000   1.0000
     1.0000   1.0000   1.0000   1.0000   1.0000   1.0000   1.0000   1.0000
     1.0000   1.0000   1.0000   1.0000   1.0000   1.0000   1.0000   1.0000
     1.0000   1.0000   1.0000   1.0000   1.0000   1.0000   1.0000   1.0000
     1.0000   1.0000   1.0000   1.0000   1.0000   1.0000   1.0000   1.0000
     1.0000   1.0000   1.0000   1.0000   1.0000   1.0000   1.0000   1.0000
     1.0000   1.0000   1.0000   1.0000   1.0000   1.0000   1.0000   1.0000
     1.0000   1.0000   1.0000   1.0000   1.0000   1.0000   1.0000   1.0000
     1.0000   1.0000   1.0000   1.0000   1.0000   1.0000   1.0000   1.0000
     1.0000   1.0000   1.0000   1.0000   1.0000   1.0000   1.0000   1.0000
     1.0000   1.0000   1.0000   1.0000   1.0000   1.0000   1.0000   1.0000
     1.0000   1.0000   1.0000   1.0000   1.0000   1.0000   1.0000   1.0000
     1.0000   1.0000   1.0000   1.0000   1.0000   1.0000   1.0000   1.0000
     1.0000   1.0000   1.0000   1.0000   1.0000   1.0000   1.0000   1.0000
     1.0000   1.0000   1.0000   1.0000   1.0000   1.0000   1.0000   1.0000
     1.0000   1.0000   1.0000   1.0000   1.0000   1.0000   1.0000   1.0000
     1.0000   1.0000   1.0000   1.0000   1.0000   1.0000   1.0000   1.0000
     1.0000   1.0000   1.0000   1.0000   1.0000   1.0000   1.0000   1.0000
     1.0000   1.0000   1.0000   1.0000   1.0000   1.0000   1.0000   1.0000
     1.0000   1.0000   1.0000   1.0000   1.0000   1.0000   1.0000   1.0000
     1.0000   1.0000   1.0000   1.0000   1.0000   1.0000   1.0000   1.0000
     1.0000   1.0000   1.0000   1.0000   1.0000   1.0000   1.0000   1.0000
     1.0000   1.0000   1.0000   1.0000   1.0000   1.0000   1.0000   1.0000
     1.0000   1.0000   1.0000   1.0000   1.0000   1.0000   1.0000   1.0000
     1.0000   1.0000   1.0000   1.0000   1.0000   1.0000   1.0000   1.0000
     1.0000   1.0000   1.0000   1.0000   1.0000   1.0000   1.0000   1.0000
     1.0000   1.0000   1.0000   1.0000   1.0000   1.0000   1.0000   1.0000
     1.0000   1.0000   1.0000   1.0000   1.0000   1.0000   1.0000   1.0000
     1.0000   1.0000   1.0000   1.0000   1.0000   1.0000   1.0000   1.0000
     1.0001   0.0658   0.0024   0.0000   0.0000   0.0000   0.0000   0.0000
     0.0000   0.0000   0.0000   0.0000   0.0000   0.0000   0.0000   0.0000
     0.0000   0.0000   0.0000   0.0000   0.0000   0.0000   0.0000   0.0000

          k = 0.0000 0.3336 0.0000 (327620 PWs)   bands (ev):

   -74.8852 -39.1541 -39.0867 -39.0579 -18.1373 -18.1372 -18.0750 -18.0687
   -18.0687 -18.0345 -18.0345 -17.9953 -17.9953 -17.7732 -17.7732 -17.7302
   -17.7301 -17.7211 -17.7211 -17.6884 -17.6884 -17.6613 -17.6613 -17.6402
   -17.6402 -17.5866 -17.5866 -17.5801 -17.5801 -17.5020 -17.3849 -17.3704
   -17.2728 -17.2571 -17.1610 -17.1406 -17.1130 -17.0672 -17.0568 -17.0283
   -17.0089 -16.9969 -16.9761 -16.9517 -16.9427 -16.9225 -16.9083 -16.8969
   -16.8811 -16.8482 -16.8474 -16.8198 -16.8171 -16.8061 -16.7984 -16.7947
   -16.7847 -16.7708 -16.7531 -16.7436 -16.7269 -16.7116 -16.7014 -16.6821
   -16.6817 -16.6673 -16.6615 -16.6587 -16.6380 -16.6331 -16.6114 -16.6084
   -16.5988 -16.5970 -16.5910 -16.5819 -16.5699 -16.5694 -16.5491 -16.5439
   -16.5257 -16.5139 -16.4994 -16.4940 -16.4718 -16.4707 -16.4487 -16.4447
   -16.4141 -16.4081 -16.4005 -16.3990 -16.3918 -16.3848 -16.3775 -16.3690
   -16.2843 -16.2842 -16.2574 -16.2560 -12.6414 -12.6309 -12.6287 -12.6156
   -12.6155 -12.6092 -12.5980 -12.5923 -12.5914 -12.5870 -12.5785 -12.5742
   -12.5654 -12.5622 -12.5602 -12.5587 -12.5512 -12.5467 -12.5458 -12.5403
   -12.5336 -12.5283 -12.5267 -12.5204 -12.5198 -12.5118 -12.5079 -12.5051
   -12.5043 -12.4991 -12.4928 -12.4913 -12.4892 -12.4830 -12.4818 -12.4751
   -12.4686 -12.4655 -12.4558 -12.4539 -12.4493 -12.4480 -12.4455 -12.4442
   -12.4376 -12.4369 -12.4332 -12.4316 -12.4282 -12.4176 -12.4084 -12.4070
   -12.4005 -12.3963 -12.3925 -12.3847 -12.3837 -12.3804 -12.3738 -12.3663
   -12.3596 -12.3560 -12.3496 -12.3493 -12.3420 -12.3362 -12.3350 -12.3274
   -12.3266 -12.3203 -12.3169 -12.3147 -12.3121 -12.3061 -12.3028 -12.3013
   -12.2989 -12.2935 -12.2933 -12.2895 -12.2876 -12.2852 -12.2825 -12.2809
   -12.2775 -12.2769 -12.2732 -12.2726 -12.2653 -12.2614 -12.2606 -12.2587
   -12.2558 -12.2545 -12.2524 -12.2502 -12.2455 -12.2441 -12.2419 -12.2375
   -12.2341 -12.2321 -12.2308 -12.2279 -12.2246 -12.2222 -12.2217 -12.2178
   -12.2159 -12.2114 -12.2090 -12.2074 -12.2069 -12.2022 -12.2016 -12.1999
   -12.1967 -12.1943 -12.1927 -12.1898 -12.1882 -12.1858 -12.1855 -12.1809
   -12.1804 -12.1765 -12.1760 -12.1726 -12.1725 -12.1708 -12.1707 -12.1668
   -12.1653 -12.1620 -12.1618 -12.1610 -12.1575 -12.1539 -12.1516 -12.1490
   -12.1477 -12.1454 -12.1452 -12.1436 -12.1389 -12.1388 -12.1343 -12.1312
   -12.1232 -12.1211 -12.1190 -12.1182 -12.1149 -12.1144 -12.1104 -12.1096
   -12.1071 -12.1044 -12.0997 -12.0991 -12.0956 -12.0943 -12.0925 -12.0914
   -12.0896 -12.0881 -12.0842 -12.0841 -12.0797 -12.0792 -12.0755 -12.0723
   -12.0702 -12.0642 -12.0636 -12.0623 -12.0590 -12.0554 -12.0534 -12.0504
   -12.0482 -12.0413 -12.0406 -12.0361 -12.0340 -12.0320 -12.0246 -12.0245
   -12.0205 -12.0187 -12.0130 -12.0107 -12.0067 -12.0024 -11.9999 -11.9988
   -11.9977 -11.9947 -11.9919 -11.9898 -11.9851 -11.9835 -11.9811 -11.9777
   -11.9755 -11.9716 -11.9696 -11.9680 -11.9649 -11.9635 -11.9591 -11.9590
   -11.9525 -11.9510 -11.9483 -11.9447 -11.9415 -11.9407 -11.9383 -11.9365
   -11.9294 -11.9289 -11.9282 -11.9240 -11.9226 -11.9139 -11.9109 -11.9108
   -11.9033 -11.8933 -11.8782 -11.8708 -11.8690 -11.8487 -11.8429 -11.8349
   -11.8267 -11.8000 -11.7967 -11.7769 -11.7718 -11.7408 -11.7332 -11.6963
   -11.6852 -11.6542 -11.6520 -11.6020 -11.5892 -11.5673 -11.5469 -11.5268
   -11.5268 -11.5084 -11.5064 -11.4667 -11.4649 -11.4554 -11.4537 -11.4280
   -11.4252 -11.4069 -11.3944 -11.3723 -11.3548 -11.3229 -11.3149 -11.2408
   -11.2382 -11.2046 -11.1966 -11.1844 -11.1719 -11.1569 -11.1466  -5.7313
    -5.7307  -5.6703  -5.6627  -5.6063  -5.5811  -5.5788  -5.5702  -5.5701
    -5.4625  -5.4366  -5.4152  -5.4036  -5.4005  -5.3544  -5.3492  -5.2356
    -5.2279  -5.2140  -5.2111  -5.2100  -5.1396  -5.0960  -5.0512  -5.0320
    -5.0315  -4.9587  -4.9430  -4.8956  -4.8240  -4.8234  -4.8014  -4.7912
    -4.7795  -4.7539  -4.7189  -4.7138  -4.6837  -4.6531  -4.6321  -4.6181
    -4.6088  -4.5794  -4.5299  -4.5108  -4.4831  -4.4588  -4.4316  -4.4033
    -4.3801  -4.3673  -4.3625  -4.3220  -4.3074  -4.2660  -4.2504  -4.2429
    -4.2022  -4.1994  -4.1580  -4.0981  -4.0884  -3.9606  -3.8973  -3.8837
    -3.8323  -3.7942  -3.7523  -3.7419  -3.7371  -3.6856  -3.6699  -3.6566
    -3.6368  -3.6301  -3.6144  -3.5798  -3.5187  -3.5155  -3.4808  -3.4307
    -3.4148  -3.3691  -3.3653  -3.3140  -3.3052  -3.2697  -3.2540  -3.2381
    -3.1974  -3.1842  -3.1325  -3.1232  -3.0953  -3.0807  -3.0615  -3.0421
    -3.0089  -2.9911  -2.9624  -2.9564  -2.9338  -2.8823  -2.8813  -2.8547
    -2.8247  -2.8216  -2.7838  -2.7617  -2.7595  -2.7101  -2.7001  -2.6556
    -2.6236  -2.6094  -2.6061  -2.5771  -2.5705  -2.5471  -2.5156  -2.5104
    -2.4705  -2.4586  -2.4316  -2.4013  -2.3709  -2.3654  -2.3234  -2.3135
    -2.3052  -2.2969  -2.2951  -2.2747  -2.2441  -2.2351  -2.2280  -2.1979
    -2.1964  -2.1659  -2.1537  -2.1373  -2.1165  -2.0893  -2.0743  -2.0677
    -2.0493  -2.0462  -2.0270  -2.0111  -1.9824  -1.9518  -1.9362  -1.8990
    -1.8846  -1.8705  -1.8681  -1.8405  -1.8339  -1.8055  -1.8010  -1.7662
    -1.7599  -1.7302  -1.7071  -1.7056  -1.6815  -1.6813  -1.6623  -1.6619
    -1.6537  -1.6403  -1.6080  -1.5762  -1.5621  -1.5503  -1.5209  -1.4961
    -1.4890  -1.4853  -1.4572  -1.4485  -1.4328  -1.4257  -1.4034  -1.3998
    -1.3855  -1.3804  -1.3518  -1.3176  -1.3139  -1.2923  -1.2813  -1.2678
    -1.2653  -1.2523  -1.2376  -1.1941  -1.1884  -1.1717  -1.1621  -1.1451
    -1.1186  -1.0931  -1.0803  -1.0766  -1.0615  -1.0394  -1.0118  -1.0015
    -0.9713  -0.9710  -0.9504  -0.9398  -0.9223  -0.9208  -0.9005  -0.8873
    -0.8697  -0.8664  -0.8380  -0.8259  -0.8119  -0.8118  -0.7909  -0.7724
    -0.7652  -0.7529  -0.7472  -0.7311  -0.7172  -0.6983  -0.6980  -0.6761
    -0.6568  -0.6474  -0.6173  -0.5962  -0.5949  -0.5822  -0.5747  -0.5535
    -0.5516  -0.5356  -0.5341  -0.5183  -0.5118  -0.4954  -0.4869  -0.4661
    -0.4653  -0.4418  -0.4360  -0.4174  -0.4086  -0.4084  -0.3905  -0.3805
    -0.3795  -0.3669  -0.3552  -0.3390  -0.3349  -0.3117  -0.3104  -0.2916
    -0.2913  -0.2722  -0.2658  -0.2617  -0.2580  -0.2413  -0.2386  -0.2228
    -0.2152  -0.2058  -0.2003  -0.1400  -0.1169  -0.1154  -0.1059  -0.0976
    -0.0839  -0.0707  -0.0662  -0.0047  -0.0024   0.0072   0.0096   1.6652
     2.2995   2.4188   2.6815   2.8251   3.0916   3.1474   3.4998   3.7754
     3.7800   3.9909   4.0636   4.2829   4.2910   4.3671   4.3830   4.4851
     4.5362   4.6557   4.7231   4.7460   4.7832   4.8096   4.9167   4.9330

     occupation numbers 
     1.0000   1.0000   1.0000   1.0000   1.0000   1.0000   1.0000   1.0000
     1.0000   1.0000   1.0000   1.0000   1.0000   1.0000   1.0000   1.0000
     1.0000   1.0000   1.0000   1.0000   1.0000   1.0000   1.0000   1.0000
     1.0000   1.0000   1.0000   1.0000   1.0000   1.0000   1.0000   1.0000
     1.0000   1.0000   1.0000   1.0000   1.0000   1.0000   1.0000   1.0000
     1.0000   1.0000   1.0000   1.0000   1.0000   1.0000   1.0000   1.0000
     1.0000   1.0000   1.0000   1.0000   1.0000   1.0000   1.0000   1.0000
     1.0000   1.0000   1.0000   1.0000   1.0000   1.0000   1.0000   1.0000
     1.0000   1.0000   1.0000   1.0000   1.0000   1.0000   1.0000   1.0000
     1.0000   1.0000   1.0000   1.0000   1.0000   1.0000   1.0000   1.0000
     1.0000   1.0000   1.0000   1.0000   1.0000   1.0000   1.0000   1.0000
     1.0000   1.0000   1.0000   1.0000   1.0000   1.0000   1.0000   1.0000
     1.0000   1.0000   1.0000   1.0000   1.0000   1.0000   1.0000   1.0000
     1.0000   1.0000   1.0000   1.0000   1.0000   1.0000   1.0000   1.0000
     1.0000   1.0000   1.0000   1.0000   1.0000   1.0000   1.0000   1.0000
     1.0000   1.0000   1.0000   1.0000   1.0000   1.0000   1.0000   1.0000
     1.0000   1.0000   1.0000   1.0000   1.0000   1.0000   1.0000   1.0000
     1.0000   1.0000   1.0000   1.0000   1.0000   1.0000   1.0000   1.0000
     1.0000   1.0000   1.0000   1.0000   1.0000   1.0000   1.0000   1.0000
     1.0000   1.0000   1.0000   1.0000   1.0000   1.0000   1.0000   1.0000
     1.0000   1.0000   1.0000   1.0000   1.0000   1.0000   1.0000   1.0000
     1.0000   1.0000   1.0000   1.0000   1.0000   1.0000   1.0000   1.0000
     1.0000   1.0000   1.0000   1.0000   1.0000   1.0000   1.0000   1.0000
     1.0000   1.0000   1.0000   1.0000   1.0000   1.0000   1.0000   1.0000
     1.0000   1.0000   1.0000   1.0000   1.0000   1.0000   1.0000   1.0000
     1.0000   1.0000   1.0000   1.0000   1.0000   1.0000   1.0000   1.0000
     1.0000   1.0000   1.0000   1.0000   1.0000   1.0000   1.0000   1.0000
     1.0000   1.0000   1.0000   1.0000   1.0000   1.0000   1.0000   1.0000
     1.0000   1.0000   1.0000   1.0000   1.0000   1.0000   1.0000   1.0000
     1.0000   1.0000   1.0000   1.0000   1.0000   1.0000   1.0000   1.0000
     1.0000   1.0000   1.0000   1.0000   1.0000   1.0000   1.0000   1.0000
     1.0000   1.0000   1.0000   1.0000   1.0000   1.0000   1.0000   1.0000
     1.0000   1.0000   1.0000   1.0000   1.0000   1.0000   1.0000   1.0000
     1.0000   1.0000   1.0000   1.0000   1.0000   1.0000   1.0000   1.0000
     1.0000   1.0000   1.0000   1.0000   1.0000   1.0000   1.0000   1.0000
     1.0000   1.0000   1.0000   1.0000   1.0000   1.0000   1.0000   1.0000
     1.0000   1.0000   1.0000   1.0000   1.0000   1.0000   1.0000   1.0000
     1.0000   1.0000   1.0000   1.0000   1.0000   1.0000   1.0000   1.0000
     1.0000   1.0000   1.0000   1.0000   1.0000   1.0000   1.0000   1.0000
     1.0000   1.0000   1.0000   1.0000   1.0000   1.0000   1.0000   1.0000
     1.0000   1.0000   1.0000   1.0000   1.0000   1.0000   1.0000   1.0000
     1.0000   1.0000   1.0000   1.0000   1.0000   1.0000   1.0000   1.0000
     1.0000   1.0000   1.0000   1.0000   1.0000   1.0000   1.0000   1.0000
     1.0000   1.0000   1.0000   1.0000   1.0000   1.0000   1.0000   1.0000
     1.0000   1.0000   1.0000   1.0000   1.0000   1.0000   1.0000   1.0000
     1.0000   1.0000   1.0000   1.0000   1.0000   1.0000   1.0000   1.0000
     1.0000   1.0000   1.0000   1.0000   1.0000   1.0000   1.0000   1.0000
     1.0000   1.0000   1.0000   1.0000   1.0000   1.0000   1.0000   1.0000
     1.0000   1.0000   1.0000   1.0000   1.0000   1.0000   1.0000   1.0000
     1.0000   1.0000   1.0000   1.0000   1.0000   1.0000   1.0000   1.0000
     1.0000   1.0000   1.0000   1.0000   1.0000   1.0000   1.0000   1.0000
     1.0000   1.0000   1.0000   1.0000   1.0000   1.0000   1.0000   1.0000
     1.0000   1.0000   1.0000   1.0000   1.0000   1.0000   1.0000   1.0000
     1.0000   1.0000   1.0000   1.0000   1.0000   1.0000   1.0000   1.0000
     1.0000   1.0000   1.0000   1.0000   1.0000   1.0000   1.0000   1.0000
     1.0000   1.0000   1.0000   1.0000   1.0000   1.0000   1.0000   1.0000
     1.0000   1.0000   1.0000   1.0000   1.0000   1.0000   1.0000   1.0000
     1.0000   1.0000   1.0000   1.0000   1.0000   1.0000   1.0000   1.0000
     1.0000   1.0000   1.0000   1.0000   1.0000   1.0000   1.0000   1.0000
     1.0000   1.0000   1.0000   1.0000   1.0000   1.0000   1.0000   1.0000
     1.0000   1.0000   1.0000   1.0000   1.0000   1.0000   1.0000   1.0000
     1.0000   1.0000   1.0000   1.0000   1.0000   1.0000   1.0000   1.0000
     1.0000   1.0000   1.0000   1.0000   1.0000   1.0000   1.0000   1.0000
     1.0000   1.0000   1.0000   1.0000   1.0000   1.0000   1.0000   1.0000
     1.0000   1.0000   1.0000   1.0000   1.0000   1.0000   1.0000   1.0000
     1.0000   1.0000   1.0000   1.0000   1.0000   1.0000   1.0000   1.0000
     1.0000   1.0000   1.0000   1.0000   1.0000   1.0000   1.0000   1.0000
     1.0000   1.0000   1.0000   1.0000   1.0000   1.0000   1.0000   1.0000
     1.0000   1.0000   1.0000   1.0000   1.0000   1.0000   1.0000   1.0000
     1.0000   1.0000   1.0000   1.0000   1.0000   1.0000   1.0000   1.0000
     1.0000   1.0000   1.0000   1.0000   1.0000   1.0000   1.0000   1.0000
     1.0000   1.0000   1.0000   1.0000   1.0000   1.0000   1.0000   1.0000
     1.0000   1.0000   1.0000   1.0000   1.0000   1.0000   1.0000   1.0000
     1.0000   1.0000   1.0000   1.0000   1.0000   1.0000   1.0000   1.0000
     1.0000   1.0000   1.0000   1.0000   1.0000   1.0000   1.0000   1.0000
     1.0000   1.0000   1.0000   1.0000   1.0000   1.0000   1.0000   1.0000
     1.0000   1.0000   1.0000   1.0000   1.0000   1.0000   1.0000   1.0000
     1.0000   1.0000   1.0000   1.0000   1.0000   1.0000   1.0000   1.0000
     1.0000   1.0000   1.0000   1.0000   1.0000   1.0000   1.0000   1.0000
     1.0000   1.0000   1.0000   1.0000   1.0000   1.0000   1.0000   1.0000
     1.0000   1.0000   1.0000   1.0000   1.0000   1.0000   1.0000   1.0000
     1.0000   1.0000   1.0000   1.0000   1.0000   1.0000   1.0000   1.0000
     1.0000   1.0000   1.0000   1.0000   1.0000   1.0000   1.0000   1.0000
     0.6713   0.1338   0.0000   0.0000   0.0000   0.0000   0.0000   0.0000
     0.0000   0.0000   0.0000   0.0000   0.0000   0.0000   0.0000   0.0000
     0.0000   0.0000   0.0000   0.0000   0.0000   0.0000   0.0000   0.0000

          k = 0.3333 0.0000 0.0000 (327628 PWs)   bands (ev):

   -74.8852 -39.1541 -39.0867 -39.0579 -18.1422 -18.1421 -18.0825 -18.0825
   -18.0748 -18.0147 -18.0147 -17.9837 -17.9837 -17.7960 -17.7960 -17.7535
   -17.7535 -17.6966 -17.6966 -17.6680 -17.6680 -17.6640 -17.6640 -17.6480
   -17.6480 -17.5866 -17.5865 -17.5804 -17.5803 -17.4861 -17.4265 -17.3626
   -17.2762 -17.2415 -17.1591 -17.1375 -17.0944 -17.0658 -17.0366 -17.0270
   -17.0017 -16.9948 -16.9751 -16.9554 -16.9498 -16.9384 -16.9102 -16.9040
   -16.8869 -16.8637 -16.8559 -16.8420 -16.8297 -16.8209 -16.8060 -16.8006
   -16.7823 -16.7640 -16.7548 -16.7456 -16.7333 -16.6909 -16.6871 -16.6808
   -16.6682 -16.6616 -16.6527 -16.6435 -16.6352 -16.6296 -16.6230 -16.6076
   -16.5983 -16.5904 -16.5858 -16.5782 -16.5741 -16.5613 -16.5478 -16.5406
   -16.5358 -16.5081 -16.5034 -16.5005 -16.4525 -16.4481 -16.4407 -16.4400
   -16.4274 -16.4242 -16.4145 -16.4083 -16.3967 -16.3923 -16.3790 -16.3742
   -16.2830 -16.2824 -16.2546 -16.2529 -12.6419 -12.6368 -12.6267 -12.6206
   -12.6124 -12.6076 -12.6047 -12.5946 -12.5934 -12.5844 -12.5776 -12.5720
   -12.5705 -12.5670 -12.5552 -12.5530 -12.5480 -12.5467 -12.5430 -12.5357
   -12.5320 -12.5297 -12.5245 -12.5240 -12.5180 -12.5120 -12.5057 -12.5040
   -12.5031 -12.5005 -12.4981 -12.4910 -12.4858 -12.4828 -12.4779 -12.4704
   -12.4660 -12.4635 -12.4601 -12.4574 -12.4547 -12.4527 -12.4491 -12.4439
   -12.4402 -12.4388 -12.4323 -12.4292 -12.4233 -12.4181 -12.4111 -12.4076
   -12.4048 -12.3984 -12.3944 -12.3931 -12.3841 -12.3810 -12.3686 -12.3668
   -12.3611 -12.3575 -12.3469 -12.3446 -12.3388 -12.3336 -12.3302 -12.3269
   -12.3222 -12.3208 -12.3191 -12.3163 -12.3102 -12.3062 -12.3015 -12.2990
   -12.2978 -12.2930 -12.2892 -12.2879 -12.2839 -12.2822 -12.2817 -12.2772
   -12.2758 -12.2723 -12.2706 -12.2667 -12.2664 -12.2622 -12.2618 -12.2590
   -12.2573 -12.2542 -12.2529 -12.2521 -12.2484 -12.2468 -12.2443 -12.2391
   -12.2351 -12.2341 -12.2328 -12.2277 -12.2262 -12.2250 -12.2229 -12.2191
   -12.2186 -12.2174 -12.2103 -12.2091 -12.2067 -12.2048 -12.2044 -12.2013
   -12.1996 -12.1986 -12.1972 -12.1923 -12.1900 -12.1884 -12.1863 -12.1835
   -12.1816 -12.1796 -12.1763 -12.1737 -12.1732 -12.1711 -12.1676 -12.1658
   -12.1643 -12.1631 -12.1606 -12.1585 -12.1558 -12.1535 -12.1529 -12.1494
   -12.1462 -12.1433 -12.1424 -12.1397 -12.1345 -12.1325 -12.1290 -12.1287
   -12.1261 -12.1251 -12.1229 -12.1174 -12.1161 -12.1130 -12.1115 -12.1081
   -12.1074 -12.1060 -12.1038 -12.1028 -12.0979 -12.0961 -12.0928 -12.0883
   -12.0853 -12.0823 -12.0801 -12.0778 -12.0760 -12.0744 -12.0740 -12.0721
   -12.0714 -12.0685 -12.0642 -12.0588 -12.0576 -12.0552 -12.0499 -12.0467
   -12.0427 -12.0379 -12.0364 -12.0345 -12.0321 -12.0304 -12.0256 -12.0231
   -12.0229 -12.0188 -12.0159 -12.0103 -12.0098 -12.0081 -12.0048 -12.0015
   -11.9967 -11.9950 -11.9888 -11.9839 -11.9831 -11.9783 -11.9779 -11.9735
   -11.9712 -11.9675 -11.9666 -11.9650 -11.9629 -11.9609 -11.9599 -11.9583
   -11.9551 -11.9526 -11.9507 -11.9481 -11.9447 -11.9399 -11.9375 -11.9348
   -11.9307 -11.9286 -11.9261 -11.9243 -11.9191 -11.9155 -11.9097 -11.9043
   -11.8943 -11.8913 -11.8875 -11.8709 -11.8671 -11.8516 -11.8417 -11.8365
   -11.8266 -11.8146 -11.8087 -11.8032 -11.7902 -11.7432 -11.7325 -11.7090
   -11.6873 -11.6739 -11.6274 -11.6123 -11.5918 -11.5831 -11.5594 -11.5333
   -11.5216 -11.5177 -11.5015 -11.4889 -11.4739 -11.4605 -11.4406 -11.4226
   -11.3936 -11.3779 -11.3619 -11.3398 -11.3250 -11.3200 -11.3053 -11.2514
   -11.2488 -11.2174 -11.2076 -11.1822 -11.1819 -11.1689 -11.1586  -5.7242
    -5.7219  -5.6544  -5.6383  -5.6084  -5.5945  -5.5849  -5.5703  -5.5642
    -5.4386  -5.4340  -5.4229  -5.4049  -5.4005  -5.3499  -5.3292  -5.2752
    -5.2328  -5.2245  -5.2222  -5.2084  -5.1481  -5.0841  -5.0430  -4.9947
    -4.9724  -4.9591  -4.9429  -4.9351  -4.9076  -4.8666  -4.8479  -4.8287
    -4.7798  -4.7283  -4.7086  -4.6968  -4.6662  -4.6378  -4.6311  -4.6160
    -4.5810  -4.5721  -4.5560  -4.5382  -4.5020  -4.4860  -4.4739  -4.4466
    -4.4245  -4.3492  -4.3187  -4.2980  -4.2868  -4.2596  -4.1845  -4.1634
    -4.1167  -4.1012  -4.0726  -4.0295  -3.9955  -3.9941  -3.9674  -3.9473
    -3.9419  -3.9133  -3.8619  -3.8450  -3.7990  -3.7758  -3.7390  -3.6601
    -3.6334  -3.5671  -3.5447  -3.5358  -3.4977  -3.4894  -3.4517  -3.4333
    -3.4125  -3.3923  -3.3510  -3.3324  -3.3036  -3.2899  -3.2598  -3.2402
    -3.2091  -3.2007  -3.1588  -3.1162  -3.0941  -3.0527  -3.0457  -3.0056
    -2.9893  -2.9814  -2.9404  -2.9266  -2.9012  -2.8844  -2.8707  -2.8352
    -2.8215  -2.8082  -2.7908  -2.7411  -2.7219  -2.7194  -2.6931  -2.6421
    -2.6346  -2.6098  -2.5905  -2.5859  -2.5466  -2.5398  -2.5352  -2.5102
    -2.4927  -2.4885  -2.4709  -2.4385  -2.4123  -2.3924  -2.3693  -2.3628
    -2.3502  -2.3173  -2.2953  -2.2880  -2.2570  -2.2219  -2.2089  -2.1802
    -2.1738  -2.1272  -2.1077  -2.1001  -2.0725  -2.0554  -2.0353  -2.0208
    -2.0098  -1.9866  -1.9558  -1.9504  -1.9298  -1.9223  -1.8987  -1.8902
    -1.8742  -1.8549  -1.8503  -1.8283  -1.8073  -1.8045  -1.7934  -1.7659
    -1.7464  -1.7347  -1.7279  -1.7082  -1.6906  -1.6781  -1.6685  -1.6596
    -1.6362  -1.6160  -1.6036  -1.5892  -1.5751  -1.5547  -1.5515  -1.5435
    -1.5326  -1.5162  -1.5000  -1.4678  -1.4608  -1.4495  -1.4449  -1.4278
    -1.4168  -1.3826  -1.3776  -1.3736  -1.3304  -1.3235  -1.3135  -1.3045
    -1.2763  -1.2678  -1.2322  -1.2090  -1.1956  -1.1865  -1.1647  -1.1374
    -1.1219  -1.0995  -1.0891  -1.0789  -1.0554  -1.0481  -1.0299  -1.0205
    -0.9999  -0.9948  -0.9724  -0.9549  -0.9298  -0.9152  -0.8989  -0.8891
    -0.8783  -0.8686  -0.8357  -0.8287  -0.8231  -0.7785  -0.7663  -0.7598
    -0.7489  -0.7264  -0.7132  -0.7087  -0.6970  -0.6911  -0.6810  -0.6678
    -0.6483  -0.6349  -0.6148  -0.6057  -0.5943  -0.5921  -0.5816  -0.5569
    -0.5377  -0.5220  -0.5209  -0.4987  -0.4868  -0.4756  -0.4723  -0.4543
    -0.4405  -0.4344  -0.4239  -0.4198  -0.4169  -0.4117  -0.3945  -0.3844
    -0.3830  -0.3595  -0.3580  -0.3530  -0.3415  -0.3347  -0.3293  -0.3235
    -0.3065  -0.2974  -0.2881  -0.2806  -0.2540  -0.2453  -0.2321  -0.2297
    -0.2186  -0.2105  -0.1637  -0.1525  -0.1434  -0.1358  -0.1250  -0.0742
    -0.0730  -0.0541  -0.0521   0.0155   0.0159   0.0235   0.0251   1.6660
     2.2933   2.4638   2.5974   2.8768   3.0785   3.1950   3.5026   3.7370
     3.7862   3.9082   4.0960   4.2818   4.2977   4.3585   4.4104   4.4483
     4.5849   4.7061   4.7148   4.7554   4.7780   4.8187   4.9159   4.9489

     occupation numbers 
     1.0000   1.0000   1.0000   1.0000   1.0000   1.0000   1.0000   1.0000
     1.0000   1.0000   1.0000   1.0000   1.0000   1.0000   1.0000   1.0000
     1.0000   1.0000   1.0000   1.0000   1.0000   1.0000   1.0000   1.0000
     1.0000   1.0000   1.0000   1.0000   1.0000   1.0000   1.0000   1.0000
     1.0000   1.0000   1.0000   1.0000   1.0000   1.0000   1.0000   1.0000
     1.0000   1.0000   1.0000   1.0000   1.0000   1.0000   1.0000   1.0000
     1.0000   1.0000   1.0000   1.0000   1.0000   1.0000   1.0000   1.0000
     1.0000   1.0000   1.0000   1.0000   1.0000   1.0000   1.0000   1.0000
     1.0000   1.0000   1.0000   1.0000   1.0000   1.0000   1.0000   1.0000
     1.0000   1.0000   1.0000   1.0000   1.0000   1.0000   1.0000   1.0000
     1.0000   1.0000   1.0000   1.0000   1.0000   1.0000   1.0000   1.0000
     1.0000   1.0000   1.0000   1.0000   1.0000   1.0000   1.0000   1.0000
     1.0000   1.0000   1.0000   1.0000   1.0000   1.0000   1.0000   1.0000
     1.0000   1.0000   1.0000   1.0000   1.0000   1.0000   1.0000   1.0000
     1.0000   1.0000   1.0000   1.0000   1.0000   1.0000   1.0000   1.0000
     1.0000   1.0000   1.0000   1.0000   1.0000   1.0000   1.0000   1.0000
     1.0000   1.0000   1.0000   1.0000   1.0000   1.0000   1.0000   1.0000
     1.0000   1.0000   1.0000   1.0000   1.0000   1.0000   1.0000   1.0000
     1.0000   1.0000   1.0000   1.0000   1.0000   1.0000   1.0000   1.0000
     1.0000   1.0000   1.0000   1.0000   1.0000   1.0000   1.0000   1.0000
     1.0000   1.0000   1.0000   1.0000   1.0000   1.0000   1.0000   1.0000
     1.0000   1.0000   1.0000   1.0000   1.0000   1.0000   1.0000   1.0000
     1.0000   1.0000   1.0000   1.0000   1.0000   1.0000   1.0000   1.0000
     1.0000   1.0000   1.0000   1.0000   1.0000   1.0000   1.0000   1.0000
     1.0000   1.0000   1.0000   1.0000   1.0000   1.0000   1.0000   1.0000
     1.0000   1.0000   1.0000   1.0000   1.0000   1.0000   1.0000   1.0000
     1.0000   1.0000   1.0000   1.0000   1.0000   1.0000   1.0000   1.0000
     1.0000   1.0000   1.0000   1.0000   1.0000   1.0000   1.0000   1.0000
     1.0000   1.0000   1.0000   1.0000   1.0000   1.0000   1.0000   1.0000
     1.0000   1.0000   1.0000   1.0000   1.0000   1.0000   1.0000   1.0000
     1.0000   1.0000   1.0000   1.0000   1.0000   1.0000   1.0000   1.0000
     1.0000   1.0000   1.0000   1.0000   1.0000   1.0000   1.0000   1.0000
     1.0000   1.0000   1.0000   1.0000   1.0000   1.0000   1.0000   1.0000
     1.0000   1.0000   1.0000   1.0000   1.0000   1.0000   1.0000   1.0000
     1.0000   1.0000   1.0000   1.0000   1.0000   1.0000   1.0000   1.0000
     1.0000   1.0000   1.0000   1.0000   1.0000   1.0000   1.0000   1.0000
     1.0000   1.0000   1.0000   1.0000   1.0000   1.0000   1.0000   1.0000
     1.0000   1.0000   1.0000   1.0000   1.0000   1.0000   1.0000   1.0000
     1.0000   1.0000   1.0000   1.0000   1.0000   1.0000   1.0000   1.0000
     1.0000   1.0000   1.0000   1.0000   1.0000   1.0000   1.0000   1.0000
     1.0000   1.0000   1.0000   1.0000   1.0000   1.0000   1.0000   1.0000
     1.0000   1.0000   1.0000   1.0000   1.0000   1.0000   1.0000   1.0000
     1.0000   1.0000   1.0000   1.0000   1.0000   1.0000   1.0000   1.0000
     1.0000   1.0000   1.0000   1.0000   1.0000   1.0000   1.0000   1.0000
     1.0000   1.0000   1.0000   1.0000   1.0000   1.0000   1.0000   1.0000
     1.0000   1.0000   1.0000   1.0000   1.0000   1.0000   1.0000   1.0000
     1.0000   1.0000   1.0000   1.0000   1.0000   1.0000   1.0000   1.0000
     1.0000   1.0000   1.0000   1.0000   1.0000   1.0000   1.0000   1.0000
     1.0000   1.0000   1.0000   1.0000   1.0000   1.0000   1.0000   1.0000
     1.0000   1.0000   1.0000   1.0000   1.0000   1.0000   1.0000   1.0000
     1.0000   1.0000   1.0000   1.0000   1.0000   1.0000   1.0000   1.0000
     1.0000   1.0000   1.0000   1.0000   1.0000   1.0000   1.0000   1.0000
     1.0000   1.0000   1.0000   1.0000   1.0000   1.0000   1.0000   1.0000
     1.0000   1.0000   1.0000   1.0000   1.0000   1.0000   1.0000   1.0000
     1.0000   1.0000   1.0000   1.0000   1.0000   1.0000   1.0000   1.0000
     1.0000   1.0000   1.0000   1.0000   1.0000   1.0000   1.0000   1.0000
     1.0000   1.0000   1.0000   1.0000   1.0000   1.0000   1.0000   1.0000
     1.0000   1.0000   1.0000   1.0000   1.0000   1.0000   1.0000   1.0000
     1.0000   1.0000   1.0000   1.0000   1.0000   1.0000   1.0000   1.0000
     1.0000   1.0000   1.0000   1.0000   1.0000   1.0000   1.0000   1.0000
     1.0000   1.0000   1.0000   1.0000   1.0000   1.0000   1.0000   1.0000
     1.0000   1.0000   1.0000   1.0000   1.0000   1.0000   1.0000   1.0000
     1.0000   1.0000   1.0000   1.0000   1.0000   1.0000   1.0000   1.0000
     1.0000   1.0000   1.0000   1.0000   1.0000   1.0000   1.0000   1.0000
     1.0000   1.0000   1.0000   1.0000   1.0000   1.0000   1.0000   1.0000
     1.0000   1.0000   1.0000   1.0000   1.0000   1.0000   1.0000   1.0000
     1.0000   1.0000   1.0000   1.0000   1.0000   1.0000   1.0000   1.0000
     1.0000   1.0000   1.0000   1.0000   1.0000   1.0000   1.0000   1.0000
     1.0000   1.0000   1.0000   1.0000   1.0000   1.0000   1.0000   1.0000
     1.0000   1.0000   1.0000   1.0000   1.0000   1.0000   1.0000   1.0000
     1.0000   1.0000   1.0000   1.0000   1.0000   1.0000   1.0000   1.0000
     1.0000   1.0000   1.0000   1.0000   1.0000   1.0000   1.0000   1.0000
     1.0000   1.0000   1.0000   1.0000   1.0000   1.0000   1.0000   1.0000
     1.0000   1.0000   1.0000   1.0000   1.0000   1.0000   1.0000   1.0000
     1.0000   1.0000   1.0000   1.0000   1.0000   1.0000   1.0000   1.0000
     1.0000   1.0000   1.0000   1.0000   1.0000   1.0000   1.0000   1.0000
     1.0000   1.0000   1.0000   1.0000   1.0000   1.0000   1.0000   1.0000
     1.0000   1.0000   1.0000   1.0000   1.0000   1.0000   1.0000   1.0000
     1.0000   1.0000   1.0000   1.0000   1.0000   1.0000   1.0000   1.0000
     1.0000   1.0000   1.0000   1.0000   1.0000   1.0000   1.0000   1.0000
     1.0000   1.0000   1.0000   1.0000   1.0000   1.0000   1.0000   1.0000
     1.0000   1.0000   1.0000   1.0000   1.0000   1.0000   1.0000   1.0000
     1.0000   1.0000   1.0000   1.0000   1.0000   1.0000   1.0000   1.0000
     0.7051   0.0509   0.0008   0.0000   0.0000   0.0000   0.0000   0.0000
     0.0000   0.0000   0.0000   0.0000   0.0000   0.0000   0.0000   0.0000
     0.0000   0.0000   0.0000   0.0000   0.0000   0.0000   0.0000   0.0000

          k = 0.3333 0.3336 0.0000 (327656 PWs)   bands (ev):

   -74.8852 -39.1541 -39.0867 -39.0579 -18.1181 -18.1179 -18.0722 -18.0655
   -18.0637 -18.0533 -18.0516 -18.0133 -18.0132 -17.7625 -17.7619 -17.7280
   -17.7271 -17.7118 -17.7110 -17.6831 -17.6807 -17.6631 -17.6624 -17.6540
   -17.6533 -17.5871 -17.5860 -17.5830 -17.5819 -17.4948 -17.4074 -17.3441
   -17.2781 -17.2339 -17.2088 -17.1414 -17.1217 -17.1006 -17.0631 -17.0514
   -17.0009 -16.9823 -16.9616 -16.9423 -16.9301 -16.9147 -16.9048 -16.8926
   -16.8734 -16.8598 -16.8435 -16.8393 -16.8141 -16.8120 -16.7963 -16.7843
   -16.7744 -16.7628 -16.7505 -16.7379 -16.7255 -16.7037 -16.6937 -16.6819
   -16.6785 -16.6652 -16.6606 -16.6487 -16.6414 -16.6323 -16.6170 -16.6092
   -16.5998 -16.5933 -16.5801 -16.5760 -16.5657 -16.5617 -16.5502 -16.5387
   -16.5227 -16.5132 -16.5060 -16.4923 -16.4753 -16.4688 -16.4572 -16.4526
   -16.4351 -16.4293 -16.4179 -16.4141 -16.3859 -16.3769 -16.3715 -16.3634
   -16.2779 -16.2775 -16.2610 -16.2603 -12.6447 -12.6346 -12.6290 -12.6235
   -12.6144 -12.6076 -12.6012 -12.5896 -12.5865 -12.5856 -12.5787 -12.5729
   -12.5685 -12.5651 -12.5608 -12.5569 -12.5524 -12.5478 -12.5400 -12.5375
   -12.5332 -12.5253 -12.5248 -12.5197 -12.5181 -12.5139 -12.5085 -12.5056
   -12.5045 -12.4995 -12.4931 -12.4900 -12.4860 -12.4833 -12.4780 -12.4723
   -12.4701 -12.4652 -12.4640 -12.4587 -12.4558 -12.4538 -12.4517 -12.4465
   -12.4383 -12.4355 -12.4308 -12.4257 -12.4219 -12.4177 -12.4137 -12.4105
   -12.4057 -12.3988 -12.3917 -12.3883 -12.3817 -12.3751 -12.3707 -12.3664
   -12.3640 -12.3560 -12.3535 -12.3486 -12.3448 -12.3357 -12.3332 -12.3294
   -12.3229 -12.3208 -12.3177 -12.3161 -12.3129 -12.3088 -12.3039 -12.2989
   -12.2964 -12.2945 -12.2918 -12.2888 -12.2879 -12.2827 -12.2800 -12.2775
   -12.2768 -12.2743 -12.2720 -12.2709 -12.2656 -12.2634 -12.2614 -12.2582
   -12.2571 -12.2548 -12.2537 -12.2495 -12.2468 -12.2446 -12.2413 -12.2392
   -12.2359 -12.2320 -12.2294 -12.2250 -12.2238 -12.2208 -12.2196 -12.2174
   -12.2159 -12.2146 -12.2107 -12.2095 -12.2060 -12.2047 -12.2014 -12.1992
   -12.1972 -12.1956 -12.1948 -12.1923 -12.1910 -12.1892 -12.1866 -12.1842
   -12.1833 -12.1804 -12.1799 -12.1756 -12.1741 -12.1717 -12.1707 -12.1683
   -12.1649 -12.1640 -12.1628 -12.1601 -12.1572 -12.1544 -12.1539 -12.1505
   -12.1493 -12.1438 -12.1404 -12.1371 -12.1340 -12.1318 -12.1282 -12.1267
   -12.1228 -12.1216 -12.1210 -12.1156 -12.1138 -12.1114 -12.1089 -12.1067
   -12.1039 -12.1028 -12.1012 -12.0995 -12.0961 -12.0937 -12.0906 -12.0889
   -12.0848 -12.0838 -12.0799 -12.0773 -12.0756 -12.0730 -12.0719 -12.0704
   -12.0695 -12.0671 -12.0636 -12.0596 -12.0557 -12.0537 -12.0514 -12.0471
   -12.0452 -12.0406 -12.0391 -12.0323 -12.0304 -12.0272 -12.0240 -12.0205
   -12.0179 -12.0145 -12.0122 -12.0087 -12.0048 -12.0010 -11.9985 -11.9949
   -11.9908 -11.9890 -11.9864 -11.9845 -11.9829 -11.9805 -11.9778 -11.9759
   -11.9739 -11.9725 -11.9702 -11.9675 -11.9631 -11.9603 -11.9593 -11.9563
   -11.9534 -11.9523 -11.9479 -11.9445 -11.9431 -11.9404 -11.9387 -11.9370
   -11.9330 -11.9304 -11.9273 -11.9233 -11.9170 -11.9125 -11.9085 -11.9043
   -11.8999 -11.8847 -11.8763 -11.8655 -11.8581 -11.8517 -11.8412 -11.8332
   -11.8275 -11.8146 -11.8014 -11.7920 -11.7801 -11.7707 -11.7656 -11.7552
   -11.7167 -11.6915 -11.6805 -11.6556 -11.6202 -11.5702 -11.5549 -11.5299
   -11.5169 -11.4952 -11.4882 -11.4789 -11.4499 -11.4428 -11.4100 -11.3853
   -11.3765 -11.3643 -11.3422 -11.3303 -11.3258 -11.2917 -11.2829 -11.2663
   -11.2638 -11.2311 -11.2254 -11.2106 -11.1974 -11.1912 -11.1762  -5.7090
    -5.7083  -5.6728  -5.6658  -5.6121  -5.6027  -5.5985  -5.5896  -5.5768
    -5.4412  -5.4334  -5.4144  -5.4059  -5.3925  -5.3723  -5.3034  -5.2298
    -5.1929  -5.1910  -5.1854  -5.1791  -5.0861  -5.0230  -5.0127  -4.9795
    -4.9545  -4.9349  -4.9182  -4.8884  -4.8706  -4.8397  -4.8242  -4.7934
    -4.7858  -4.7568  -4.7335  -4.7088  -4.6769  -4.6594  -4.6369  -4.6225
    -4.6066  -4.5951  -4.5712  -4.5587  -4.5458  -4.5268  -4.5161  -4.4884
    -4.4730  -4.4262  -4.3942  -4.3741  -4.3487  -4.3200  -4.2800  -4.2201
    -4.2094  -4.1854  -4.1332  -4.1003  -4.0722  -4.0517  -4.0313  -3.9915
    -3.9641  -3.9563  -3.9102  -3.8457  -3.7610  -3.6988  -3.6555  -3.6265
    -3.5620  -3.5454  -3.5075  -3.4648  -3.4438  -3.4192  -3.4059  -3.3577
    -3.3530  -3.3136  -3.2891  -3.2577  -3.2389  -3.2204  -3.1948  -3.1881
    -3.1673  -3.1117  -3.0981  -3.0741  -3.0441  -3.0318  -3.0011  -2.9965
    -2.9622  -2.9311  -2.9175  -2.8963  -2.8818  -2.8632  -2.8343  -2.8259
    -2.8147  -2.7767  -2.7605  -2.7504  -2.7047  -2.6964  -2.6800  -2.6596
    -2.6371  -2.6210  -2.6062  -2.5806  -2.5644  -2.5565  -2.5436  -2.5137
    -2.4885  -2.4784  -2.4611  -2.4420  -2.4192  -2.4069  -2.3758  -2.3623
    -2.3510  -2.3300  -2.2894  -2.2848  -2.2548  -2.2413  -2.2198  -2.2045
    -2.1725  -2.1557  -2.1419  -2.1270  -2.1147  -2.0884  -2.0733  -2.0641
    -2.0466  -2.0334  -2.0171  -1.9835  -1.9681  -1.9583  -1.9414  -1.9290
    -1.9139  -1.9020  -1.8845  -1.8662  -1.8341  -1.8246  -1.8051  -1.7879
    -1.7741  -1.7480  -1.7329  -1.7233  -1.7044  -1.6961  -1.6643  -1.6528
    -1.6388  -1.6203  -1.6113  -1.5933  -1.5677  -1.5500  -1.5278  -1.5132
    -1.4939  -1.4812  -1.4668  -1.4311  -1.4172  -1.4029  -1.3842  -1.3772
    -1.3571  -1.3481  -1.3254  -1.3204  -1.3056  -1.2807  -1.2735  -1.2630
    -1.2522  -1.2392  -1.2233  -1.2064  -1.1805  -1.1653  -1.1480  -1.1354
    -1.1256  -1.0995  -1.0904  -1.0733  -1.0562  -1.0417  -1.0313  -1.0206
    -1.0128  -0.9892  -0.9837  -0.9719  -0.9594  -0.9462  -0.9331  -0.9248
    -0.9152  -0.8960  -0.8735  -0.8666  -0.8420  -0.8316  -0.8191  -0.8098
    -0.8026  -0.7852  -0.7698  -0.7549  -0.7455  -0.7298  -0.7177  -0.6927
    -0.6812  -0.6646  -0.6529  -0.6366  -0.6226  -0.6168  -0.6008  -0.5907
    -0.5770  -0.5640  -0.5549  -0.5389  -0.5234  -0.5157  -0.5032  -0.4954
    -0.4769  -0.4531  -0.4508  -0.4396  -0.4357  -0.4102  -0.3991  -0.3858
    -0.3633  -0.3523  -0.3390  -0.3352  -0.3295  -0.3198  -0.3148  -0.3061
    -0.2937  -0.2836  -0.2786  -0.2626  -0.2511  -0.2334  -0.2285  -0.2009
    -0.1889  -0.1782  -0.1511  -0.1219  -0.1171  -0.0918  -0.0880  -0.0516
    -0.0439  -0.0395  -0.0320   0.0022   0.0077   0.0254   0.0299   2.0847
     2.4839   2.6579   2.7042   2.9413   3.1117   3.2799   3.3683   3.4811
     3.6068   3.7652   3.9454   3.9799   4.0452   4.1360   4.4128   4.4655
     4.4927   4.5938   4.7816   4.8564   4.8981   4.9584   5.0199   5.0512

     occupation numbers 
     1.0000   1.0000   1.0000   1.0000   1.0000   1.0000   1.0000   1.0000
     1.0000   1.0000   1.0000   1.0000   1.0000   1.0000   1.0000   1.0000
     1.0000   1.0000   1.0000   1.0000   1.0000   1.0000   1.0000   1.0000
     1.0000   1.0000   1.0000   1.0000   1.0000   1.0000   1.0000   1.0000
     1.0000   1.0000   1.0000   1.0000   1.0000   1.0000   1.0000   1.0000
     1.0000   1.0000   1.0000   1.0000   1.0000   1.0000   1.0000   1.0000
     1.0000   1.0000   1.0000   1.0000   1.0000   1.0000   1.0000   1.0000
     1.0000   1.0000   1.0000   1.0000   1.0000   1.0000   1.0000   1.0000
     1.0000   1.0000   1.0000   1.0000   1.0000   1.0000   1.0000   1.0000
     1.0000   1.0000   1.0000   1.0000   1.0000   1.0000   1.0000   1.0000
     1.0000   1.0000   1.0000   1.0000   1.0000   1.0000   1.0000   1.0000
     1.0000   1.0000   1.0000   1.0000   1.0000   1.0000   1.0000   1.0000
     1.0000   1.0000   1.0000   1.0000   1.0000   1.0000   1.0000   1.0000
     1.0000   1.0000   1.0000   1.0000   1.0000   1.0000   1.0000   1.0000
     1.0000   1.0000   1.0000   1.0000   1.0000   1.0000   1.0000   1.0000
     1.0000   1.0000   1.0000   1.0000   1.0000   1.0000   1.0000   1.0000
     1.0000   1.0000   1.0000   1.0000   1.0000   1.0000   1.0000   1.0000
     1.0000   1.0000   1.0000   1.0000   1.0000   1.0000   1.0000   1.0000
     1.0000   1.0000   1.0000   1.0000   1.0000   1.0000   1.0000   1.0000
     1.0000   1.0000   1.0000   1.0000   1.0000   1.0000   1.0000   1.0000
     1.0000   1.0000   1.0000   1.0000   1.0000   1.0000   1.0000   1.0000
     1.0000   1.0000   1.0000   1.0000   1.0000   1.0000   1.0000   1.0000
     1.0000   1.0000   1.0000   1.0000   1.0000   1.0000   1.0000   1.0000
     1.0000   1.0000   1.0000   1.0000   1.0000   1.0000   1.0000   1.0000
     1.0000   1.0000   1.0000   1.0000   1.0000   1.0000   1.0000   1.0000
     1.0000   1.0000   1.0000   1.0000   1.0000   1.0000   1.0000   1.0000
     1.0000   1.0000   1.0000   1.0000   1.0000   1.0000   1.0000   1.0000
     1.0000   1.0000   1.0000   1.0000   1.0000   1.0000   1.0000   1.0000
     1.0000   1.0000   1.0000   1.0000   1.0000   1.0000   1.0000   1.0000
     1.0000   1.0000   1.0000   1.0000   1.0000   1.0000   1.0000   1.0000
     1.0000   1.0000   1.0000   1.0000   1.0000   1.0000   1.0000   1.0000
     1.0000   1.0000   1.0000   1.0000   1.0000   1.0000   1.0000   1.0000
     1.0000   1.0000   1.0000   1.0000   1.0000   1.0000   1.0000   1.0000
     1.0000   1.0000   1.0000   1.0000   1.0000   1.0000   1.0000   1.0000
     1.0000   1.0000   1.0000   1.0000   1.0000   1.0000   1.0000   1.0000
     1.0000   1.0000   1.0000   1.0000   1.0000   1.0000   1.0000   1.0000
     1.0000   1.0000   1.0000   1.0000   1.0000   1.0000   1.0000   1.0000
     1.0000   1.0000   1.0000   1.0000   1.0000   1.0000   1.0000   1.0000
     1.0000   1.0000   1.0000   1.0000   1.0000   1.0000   1.0000   1.0000
     1.0000   1.0000   1.0000   1.0000   1.0000   1.0000   1.0000   1.0000
     1.0000   1.0000   1.0000   1.0000   1.0000   1.0000   1.0000   1.0000
     1.0000   1.0000   1.0000   1.0000   1.0000   1.0000   1.0000   1.0000
     1.0000   1.0000   1.0000   1.0000   1.0000   1.0000   1.0000   1.0000
     1.0000   1.0000   1.0000   1.0000   1.0000   1.0000   1.0000   1.0000
     1.0000   1.0000   1.0000   1.0000   1.0000   1.0000   1.0000   1.0000
     1.0000   1.0000   1.0000   1.0000   1.0000   1.0000   1.0000   1.0000
     1.0000   1.0000   1.0000   1.0000   1.0000   1.0000   1.0000   1.0000
     1.0000   1.0000   1.0000   1.0000   1.0000   1.0000   1.0000   1.0000
     1.0000   1.0000   1.0000   1.0000   1.0000   1.0000   1.0000   1.0000
     1.0000   1.0000   1.0000   1.0000   1.0000   1.0000   1.0000   1.0000
     1.0000   1.0000   1.0000   1.0000   1.0000   1.0000   1.0000   1.0000
     1.0000   1.0000   1.0000   1.0000   1.0000   1.0000   1.0000   1.0000
     1.0000   1.0000   1.0000   1.0000   1.0000   1.0000   1.0000   1.0000
     1.0000   1.0000   1.0000   1.0000   1.0000   1.0000   1.0000   1.0000
     1.0000   1.0000   1.0000   1.0000   1.0000   1.0000   1.0000   1.0000
     1.0000   1.0000   1.0000   1.0000   1.0000   1.0000   1.0000   1.0000
     1.0000   1.0000   1.0000   1.0000   1.0000   1.0000   1.0000   1.0000
     1.0000   1.0000   1.0000   1.0000   1.0000   1.0000   1.0000   1.0000
     1.0000   1.0000   1.0000   1.0000   1.0000   1.0000   1.0000   1.0000
     1.0000   1.0000   1.0000   1.0000   1.0000   1.0000   1.0000   1.0000
     1.0000   1.0000   1.0000   1.0000   1.0000   1.0000   1.0000   1.0000
     1.0000   1.0000   1.0000   1.0000   1.0000   1.0000   1.0000   1.0000
     1.0000   1.0000   1.0000   1.0000   1.0000   1.0000   1.0000   1.0000
     1.0000   1.0000   1.0000   1.0000   1.0000   1.0000   1.0000   1.0000
     1.0000   1.0000   1.0000   1.0000   1.0000   1.0000   1.0000   1.0000
     1.0000   1.0000   1.0000   1.0000   1.0000   1.0000   1.0000   1.0000
     1.0000   1.0000   1.0000   1.0000   1.0000   1.0000   1.0000   1.0000
     1.0000   1.0000   1.0000   1.0000   1.0000   1.0000   1.0000   1.0000
     1.0000   1.0000   1.0000   1.0000   1.0000   1.0000   1.0000   1.0000
     1.0000   1.0000   1.0000   1.0000   1.0000   1.0000   1.0000   1.0000
     1.0000   1.0000   1.0000   1.0000   1.0000   1.0000   1.0000   1.0000
     1.0000   1.0000   1.0000   1.0000   1.0000   1.0000   1.0000   1.0000
     1.0000   1.0000   1.0000   1.0000   1.0000   1.0000   1.0000   1.0000
     1.0000   1.0000   1.0000   1.0000   1.0000   1.0000   1.0000   1.0000
     1.0000   1.0000   1.0000   1.0000   1.0000   1.0000   1.0000   1.0000
     1.0000   1.0000   1.0000   1.0000   1.0000   1.0000   1.0000   1.0000
     1.0000   1.0000   1.0000   1.0000   1.0000   1.0000   1.0000   1.0000
     1.0000   1.0000   1.0000   1.0000   1.0000   1.0000   1.0000   1.0000
     1.0000   1.0000   1.0000   1.0000   1.0000   1.0000   1.0000   1.0000
     1.0000   1.0000   1.0000   1.0000   1.0000   1.0000   1.0000   1.0000
     1.0000   1.0000   1.0000   1.0000   1.0000   1.0000   1.0000   1.0000
     1.0000   1.0000   1.0000   1.0000   1.0000   1.0000   1.0000   1.0000
     1.0000   1.0000   1.0000   1.0000   1.0000   1.0000   1.0000   1.0460
     0.0309   0.0001   0.0000   0.0000   0.0000   0.0000   0.0000   0.0000
     0.0000   0.0000   0.0000   0.0000   0.0000   0.0000   0.0000   0.0000
     0.0000   0.0000   0.0000   0.0000   0.0000   0.0000   0.0000   0.0000

     the Fermi energy is     2.3496 ev

!    total energy              =  -27385.20618325 Ry
     total all-electron energy =   -693758.168517 Ry
     estimated scf accuracy    <          9.5E-09 Ry
     smearing contrib. (-TS)   =      -0.00132166 Ry
     internal energy E=F+TS    =  -27385.20486159 Ry

     The total energy is F=E-TS. E is the sum of the following terms:
     one-electron contribution = -272001.03541876 Ry
     hartree contribution      =  136782.88247112 Ry
     xc contribution           =   -3322.87628641 Ry
     ewald contribution        =  127677.00990230 Ry
     one-center paw contrib.   =  -16521.18552983 Ry
      -> PAW hartree energy AE =     570.74020548 Ry
      -> PAW hartree energy PS =    -568.27657362 Ry
      -> PAW xc energy AE      =   -1912.05086254 Ry
      -> PAW xc energy PS      =     273.76507886 Ry
      -> total E_H with PAW    =  136785.34610297 Ry
      -> total E_XC with PAW   =   -4961.16207009 Ry

     convergence has been achieved in  91 iterations

     negative rho (up, down):  4.591E-02 0.000E+00

     Forces acting on atoms (cartesian axes, Ry/au):

     atom    1 type  1   force =    -0.00004237   -0.00002717   -0.00023791
     atom    2 type  1   force =     0.00008957    0.00034225   -0.00019676
     atom    3 type  1   force =     0.00029782   -0.00029041   -0.00070588
     atom    4 type  1   force =    -0.00016511   -0.00007477    0.00011419
     atom    5 type  1   force =     0.00005783    0.00012894   -0.00020969
     atom    6 type  1   force =     0.00006737    0.00007759   -0.00000948
     atom    7 type  1   force =    -0.00046172    0.00011017   -0.00025136
     atom    8 type  1   force =     0.00006610    0.00015770   -0.00035958
     atom    9 type  1   force =     0.00010446    0.00009610   -0.00026005
     atom   10 type  1   force =    -0.00041655   -0.00034587   -0.00030248
     atom   11 type  1   force =     0.00008605   -0.00015566   -0.00022176
     atom   12 type  1   force =     0.00017103   -0.00026739   -0.00073605
     atom   13 type  2   force =     0.00013040   -0.00000878    0.00030569
     atom   14 type  2   force =    -0.00027061   -0.00008866    0.00037965
     atom   15 type  2   force =     0.00024632   -0.00015151    0.00025606
     atom   16 type  2   force =    -0.00010538   -0.00009457    0.00025352
     atom   17 type  2   force =     0.00001929    0.00025521   -0.00012548
     atom   18 type  2   force =    -0.00043120   -0.00064205   -0.00012767
     atom   19 type  2   force =     0.00004235   -0.00006469    0.00013478
     atom   20 type  2   force =    -0.00010531   -0.00012354   -0.00008151
     atom   21 type  2   force =    -0.00008647   -0.00013511    0.00001663
     atom   22 type  2   force =    -0.00002348   -0.00058736   -0.00050766
     atom   23 type  2   force =     0.00017394    0.00004627   -0.00003400
     atom   24 type  2   force =    -0.00061189   -0.00055767   -0.00029105
     atom   25 type  2   force =     0.00015854    0.00016599    0.00005774
     atom   26 type  2   force =    -0.00010629    0.00011071   -0.00043442
     atom   27 type  2   force =    -0.00013630   -0.00024312    0.00023544
     atom   28 type  2   force =     0.00062374   -0.00066934    0.00004900
     atom   29 type  2   force =     0.00002705    0.00002850   -0.00004501
     atom   30 type  2   force =     0.00018416    0.00003806   -0.00009768
     atom   31 type  2   force =    -0.00004741   -0.00007363    0.00007385
     atom   32 type  2   force =    -0.00003595   -0.00003535   -0.00022231
     atom   33 type  2   force =    -0.00007738    0.00024256   -0.00013249
     atom   34 type  2   force =     0.00061088    0.00001033    0.00025067
     atom   35 type  2   force =    -0.00015731    0.00007437    0.00002840
     atom   36 type  2   force =    -0.00000374    0.00000908    0.00018362
     atom   37 type  1   force =     0.00029999    0.00022991   -0.00003155
     atom   38 type  1   force =    -0.00006262   -0.00001144   -0.00021072
     atom   39 type  1   force =    -0.00007674    0.00022135   -0.00008677
     atom   40 type  1   force =    -0.00001163    0.00022822   -0.00029686
     atom   41 type  1   force =    -0.00002646   -0.00008372   -0.00012211
     atom   42 type  1   force =    -0.00034415    0.00004141    0.00022781
     atom   43 type  1   force =     0.00015405    0.00013636    0.00004824
     atom   44 type  1   force =    -0.00012900    0.00004533   -0.00012120
     atom   45 type  1   force =    -0.00003499   -0.00009938   -0.00004067
     atom   46 type  1   force =    -0.00021014    0.00010173   -0.00057758
     atom   47 type  1   force =    -0.00009995    0.00010560   -0.00028111
     atom   48 type  1   force =    -0.00031926    0.00011549    0.00000473
     atom   49 type  1   force =     0.00015875   -0.00013862   -0.00035651
     atom   50 type  1   force =     0.00019723   -0.00009046    0.00000654
     atom   51 type  2   force =     0.00019389   -0.00001247   -0.00024604
     atom   52 type  2   force =    -0.00012516    0.00030151   -0.00003702
     atom   53 type  2   force =    -0.00015984   -0.00019716   -0.00057643
     atom   54 type  2   force =    -0.00018329    0.00002511   -0.00017721
     atom   55 type  2   force =     0.00016078    0.00007290   -0.00003938
     atom   56 type  2   force =     0.00013959    0.00031526    0.00041615
     atom   57 type  2   force =    -0.00029831   -0.00067008   -0.00006988
     atom   58 type  2   force =    -0.00019006   -0.00024273   -0.00005115
     atom   59 type  2   force =     0.00038897    0.00040680   -0.00024959
     atom   60 type  2   force =    -0.00009501    0.00017184   -0.00029165
     atom   61 type  2   force =     0.00005103   -0.00049977    0.00018231
     atom   62 type  2   force =    -0.00018721   -0.00016721   -0.00003429
     atom   63 type  2   force =     0.00024674   -0.00006130   -0.00025589
     atom   64 type  2   force =     0.00038936   -0.00016824    0.00004155
     atom   65 type  2   force =    -0.00017463    0.00004219    0.00003809
     atom   66 type  2   force =    -0.00026736    0.00017784    0.00023268
     atom   67 type  2   force =     0.00003863   -0.00013146    0.00037846
     atom   68 type  2   force =     0.00021386    0.00007993   -0.00000252
     atom   69 type  2   force =     0.00035875    0.00020077    0.00048505
     atom   70 type  2   force =    -0.00038312   -0.00003190    0.00029663
     atom   71 type  2   force =    -0.00015881   -0.00028025    0.00012295
     atom   72 type  2   force =     0.00010799   -0.00027607   -0.00005289
     atom   73 type  2   force =    -0.00009359    0.00047471    0.00029659
     atom   74 type  2   force =     0.00013479    0.00003801   -0.00003124
     atom   75 type  1   force =    -0.00029782   -0.00029041    0.00070588
     atom   76 type  1   force =     0.00001163    0.00022822    0.00029686
     atom   77 type  1   force =     0.00004237   -0.00002717    0.00023791
     atom   78 type  1   force =     0.00006262   -0.00001144    0.00021072
     atom   79 type  1   force =    -0.00006737    0.00007759    0.00000948
     atom   80 type  1   force =    -0.00005783    0.00012894    0.00020969
     atom   81 type  1   force =     0.00046172    0.00011017    0.00025136
     atom   82 type  1   force =    -0.00006610    0.00015770    0.00035958
     atom   83 type  1   force =     0.00012900    0.00004533    0.00012120
     atom   84 type  1   force =    -0.00015405    0.00013636   -0.00004824
     atom   85 type  1   force =    -0.00008605   -0.00015566    0.00022176
     atom   86 type  1   force =     0.00041655   -0.00034587    0.00030248
     atom   87 type  3   force =     0.00000000    0.00079722    0.00000000
     atom   88 type  1   force =     0.00000000    0.00030289    0.00000000
     atom   89 type  1   force =    -0.00019723   -0.00009046   -0.00000654
     atom   90 type  1   force =    -0.00015875   -0.00013862    0.00035651
     atom   91 type  2   force =    -0.00024632   -0.00015151   -0.00025606
     atom   92 type  2   force =     0.00010538   -0.00009457   -0.00025352
     atom   93 type  2   force =    -0.00013040   -0.00000878   -0.00030569
     atom   94 type  2   force =     0.00027061   -0.00008866   -0.00037965
     atom   95 type  2   force =     0.00019006   -0.00024273    0.00005115
     atom   96 type  2   force =     0.00029831   -0.00067008    0.00006988
     atom   97 type  2   force =    -0.00013959    0.00031526   -0.00041615
     atom   98 type  2   force =    -0.00016078    0.00007290    0.00003938
     atom   99 type  2   force =     0.00002348   -0.00058736    0.00050766
     atom  100 type  2   force =     0.00008647   -0.00013511   -0.00001663
     atom  101 type  2   force =     0.00061189   -0.00055767    0.00029105
     atom  102 type  2   force =    -0.00017394    0.00004627    0.00003400
     atom  103 type  2   force =     0.00013630   -0.00024312   -0.00023544
     atom  104 type  2   force =    -0.00062374   -0.00066934   -0.00004900
     atom  105 type  2   force =    -0.00015854    0.00016599   -0.00005774
     atom  106 type  2   force =     0.00010629    0.00011071    0.00043442
     atom  107 type  2   force =     0.00038312   -0.00003190   -0.00029663
     atom  108 type  2   force =    -0.00035875    0.00020077   -0.00048505
     atom  109 type  2   force =    -0.00021386    0.00007993    0.00000252
     atom  110 type  2   force =    -0.00003863   -0.00013146   -0.00037846
     atom  111 type  2   force =    -0.00061088    0.00001033   -0.00025067
     atom  112 type  2   force =     0.00007738    0.00024256    0.00013249
     atom  113 type  2   force =     0.00000374    0.00000908   -0.00018362
     atom  114 type  2   force =     0.00015731    0.00007437   -0.00002840
     atom  115 type  1   force =     0.00007674    0.00022135    0.00008677
     atom  116 type  1   force =     0.00016511   -0.00007477   -0.00011419
     atom  117 type  1   force =    -0.00029999    0.00022991    0.00003155
     atom  118 type  1   force =    -0.00008957    0.00034225    0.00019676
     atom  119 type  1   force =     0.00034415    0.00004141   -0.00022781
     atom  120 type  1   force =     0.00002646   -0.00008372    0.00012211
     atom  121 type  1   force =     0.00000000   -0.00006674    0.00000000
     atom  122 type  1   force =     0.00000000    0.00038089    0.00000000
     atom  123 type  1   force =    -0.00010446    0.00009610    0.00026005
     atom  124 type  1   force =     0.00021014    0.00010173    0.00057758
     atom  125 type  1   force =     0.00003499   -0.00009938    0.00004067
     atom  126 type  1   force =     0.00009995    0.00010560    0.00028111
     atom  127 type  1   force =     0.00031926    0.00011549   -0.00000473
     atom  128 type  1   force =    -0.00017103   -0.00026739    0.00073605
     atom  129 type  2   force =     0.00015984   -0.00019716    0.00057643
     atom  130 type  2   force =     0.00018329    0.00002511    0.00017721
     atom  131 type  2   force =    -0.00019389   -0.00001247    0.00024604
     atom  132 type  2   force =     0.00012516    0.00030151    0.00003702
     atom  133 type  2   force =     0.00010531   -0.00012354    0.00008151
     atom  134 type  2   force =    -0.00004235   -0.00006469   -0.00013478
     atom  135 type  2   force =     0.00043120   -0.00064205    0.00012767
     atom  136 type  2   force =    -0.00001929    0.00025521    0.00012548
     atom  137 type  2   force =     0.00009501    0.00017184    0.00029165
     atom  138 type  2   force =    -0.00038897    0.00040680    0.00024959
     atom  139 type  2   force =     0.00018721   -0.00016721    0.00003429
     atom  140 type  2   force =    -0.00005103   -0.00049977   -0.00018231
     atom  141 type  2   force =     0.00017463    0.00004219   -0.00003809
     atom  142 type  2   force =     0.00026736    0.00017784   -0.00023268
     atom  143 type  2   force =    -0.00024674   -0.00006130    0.00025589
     atom  144 type  2   force =    -0.00038936   -0.00016824   -0.00004155
     atom  145 type  2   force =     0.00003595   -0.00003535    0.00022231
     atom  146 type  2   force =     0.00004741   -0.00007363   -0.00007385
     atom  147 type  2   force =    -0.00018416    0.00003806    0.00009768
     atom  148 type  2   force =    -0.00002705    0.00002850    0.00004501
     atom  149 type  2   force =    -0.00010799   -0.00027607    0.00005289
     atom  150 type  2   force =     0.00015881   -0.00028025   -0.00012295
     atom  151 type  2   force =    -0.00013479    0.00003801    0.00003124
     atom  152 type  2   force =     0.00009359    0.00047471   -0.00029659
     atom  153 type  4   force =     0.00004821    0.00018297   -0.00011462
     atom  154 type  4   force =    -0.00006759    0.00004836   -0.00019062
     atom  155 type  4   force =     0.00025248    0.00007692   -0.00013183
     atom  156 type  4   force =     0.00003091    0.00011380   -0.00011187
     atom  157 type  4   force =     0.00006512    0.00032721   -0.00008805
     atom  158 type  4   force =    -0.00009692    0.00020111   -0.00020490
     atom  159 type  4   force =    -0.00003353    0.00001980   -0.00018978
     atom  160 type  4   force =    -0.00020064    0.00004141   -0.00026941
     atom  161 type  4   force =    -0.00019965    0.00030018    0.00006909
     atom  162 type  4   force =    -0.00005271   -0.00001490    0.00003861
     atom  163 type  4   force =    -0.00006682    0.00019669    0.00013113
     atom  164 type  4   force =     0.00012717    0.00017205    0.00002823
     atom  165 type  4   force =    -0.00025248    0.00007692    0.00013183
     atom  166 type  4   force =    -0.00003091    0.00011380    0.00011187
     atom  167 type  4   force =    -0.00006512    0.00032721    0.00008805
     atom  168 type  4   force =     0.00020064    0.00004141    0.00026941
     atom  169 type  4   force =     0.00019965    0.00030018   -0.00006909
     atom  170 type  4   force =     0.00005271   -0.00001490   -0.00003861
     atom  171 type  4   force =     0.00006759    0.00004836    0.00019062
     atom  172 type  4   force =    -0.00004821    0.00018297    0.00011462
     atom  173 type  4   force =     0.00006682    0.00019669   -0.00013113
     atom  174 type  4   force =     0.00003353    0.00001980    0.00018978
     atom  175 type  4   force =     0.00009692    0.00020111    0.00020490
     atom  176 type  4   force =    -0.00012717    0.00017205   -0.00002823
     The non-local contrib.  to forces
     atom    1 type  1   force =     0.02815894    0.01136997   -0.00002538
     atom    2 type  1   force =    -0.03334035   -0.01347695    0.00445639
     atom    3 type  1   force =    -0.01189129   -0.02041404    0.04507642
     atom    4 type  1   force =    -0.02928729    0.01933375   -0.00140115
     atom    5 type  1   force =    -0.00006372    0.00890276    0.04608625
     atom    6 type  1   force =     0.01942102    0.05261067   -0.01790697
     atom    7 type  1   force =    -0.00784374   -0.04709587    0.04526734
     atom    8 type  1   force =     0.00297218    0.05021038    0.03989796
     atom    9 type  1   force =     0.02302167    0.02185507    0.02946753
     atom   10 type  1   force =    -0.09362585    0.09309895    0.10120490
     atom   11 type  1   force =    -0.01206164    0.05406679   -0.01472957
     atom   12 type  1   force =     0.00822950    0.00805650    0.01044865
     atom   13 type  2   force =    -0.02906804   -0.05206041    0.02129030
     atom   14 type  2   force =     0.02794825    0.07071464    0.02694552
     atom   15 type  2   force =     0.08038398   -0.03962352    0.00436199
     atom   16 type  2   force =    -0.09310912    0.04902841   -0.00396484
     atom   17 type  2   force =    -0.91885732    1.24728729    0.05465622
     atom   18 type  2   force =     0.03114088    0.05152761    0.07510585
     atom   19 type  2   force =     0.91522473   -1.24570972    0.08829526
     atom   20 type  2   force =    -0.05043806   -0.09202460    0.12032884
     atom   21 type  2   force =    -0.01135913    0.06526223   -0.11190033
     atom   22 type  2   force =     0.05600750    0.03664921    0.04437229
     atom   23 type  2   force =    -0.97837471    1.03116524   -0.79158211
     atom   24 type  2   force =     0.09655730   -0.02912351   -0.02822906
     atom   25 type  2   force =     1.11512434    1.02856004   -0.84248095
     atom   26 type  2   force =    -1.08266615   -1.00766298   -0.88126121
     atom   27 type  2   force =     0.00233577   -0.02286282    0.13435960
     atom   28 type  2   force =     0.14209480   -0.08250052    0.12322710
     atom   29 type  2   force =    -0.03873052    0.05312475    0.10615897
     atom   30 type  2   force =     0.91638669    1.24808617    0.06337885
     atom   31 type  2   force =     0.02658899   -0.07306905    0.11339717
     atom   32 type  2   force =    -0.91545885   -1.25200948    0.06238343
     atom   33 type  2   force =     0.97790048    1.04004369   -0.78547167
     atom   34 type  2   force =    -0.13583242   -0.06194512   -0.01359466
     atom   35 type  2   force =     0.02469615    0.08034599   -0.09767863
     atom   36 type  2   force =    -0.06678926    0.05788370    0.10496649
     atom   37 type  1   force =    -0.04092791    0.08708270    0.11487419
     atom   38 type  1   force =     0.02077618    0.03756251    0.04009897
     atom   39 type  1   force =     0.03031104   -0.00643291    0.00499776
     atom   40 type  1   force =     0.06304986   -0.12409196    0.10623577
     atom   41 type  1   force =    -0.02575964   -0.05909508   -0.01100423
     atom   42 type  1   force =     0.10780842   -0.01063455    0.12378886
     atom   43 type  1   force =    -0.09856240   -0.09642491   -0.08293534
     atom   44 type  1   force =    -0.02074525    0.02183667    0.05228823
     atom   45 type  1   force =     0.03075198   -0.05980739   -0.01299551
     atom   46 type  1   force =    -0.05383435   -0.01183409    0.04094575
     atom   47 type  1   force =    -0.00064714    0.04582554    0.02004651
     atom   48 type  1   force =    -0.00660855   -0.03809252    0.06059158
     atom   49 type  1   force =     0.02753807   -0.01713765    0.05485674
     atom   50 type  1   force =     0.10090096    0.08216701   -0.03803506
     atom   51 type  2   force =    -0.05031258   -0.01223264    0.06418277
     atom   52 type  2   force =     0.04731754    0.03394253    0.05293576
     atom   53 type  2   force =     1.08856500   -1.00063346   -0.87723840
     atom   54 type  2   force =    -1.10151739    1.02968024   -0.85101737
     atom   55 type  2   force =     0.07598829   -0.01974034    0.04012959
     atom   56 type  2   force =    -0.41577979   -0.20610970    0.57812657
     atom   57 type  2   force =    -0.06156855    0.06181629   -0.04351632
     atom   58 type  2   force =    -0.03968644   -0.06748746    0.03010440
     atom   59 type  2   force =     0.32570122    0.58958361    0.34818063
     atom   60 type  2   force =     0.97363061   -1.04722594   -0.77342985
     atom   61 type  2   force =    -0.04467017   -0.03927240    0.17064456
     atom   62 type  2   force =     0.00435237   -0.07163934   -0.06976930
     atom   63 type  2   force =     0.11715155    0.07796847    0.08676176
     atom   64 type  2   force =    -0.05970090   -0.01453455   -0.00323403
     atom   65 type  2   force =    -0.02391445    0.04942356    0.01147202
     atom   66 type  2   force =     0.03994282   -0.06842914    0.02741178
     atom   67 type  2   force =    -0.00841875    0.14858400    0.03963617
     atom   68 type  2   force =    -0.03565977   -0.10129430    0.05330448
     atom   69 type  2   force =     0.16002675   -0.01265367    0.01540324
     atom   70 type  2   force =     0.09293887    0.02093555    0.01045754
     atom   71 type  2   force =     0.00249139   -0.00954611    0.11789969
     atom   72 type  2   force =     0.00629930   -0.04755838   -0.09618603
     atom   73 type  2   force =     0.02273675   -0.08196869   -0.05007729
     atom   74 type  2   force =    -0.98787741   -1.03280220   -0.78095766
     atom   75 type  1   force =     0.01189129   -0.02041404   -0.04507642
     atom   76 type  1   force =    -0.06304986   -0.12409196   -0.10623577
     atom   77 type  1   force =    -0.02815894    0.01136997    0.00002538
     atom   78 type  1   force =    -0.02077618    0.03756251   -0.04009897
     atom   79 type  1   force =    -0.01942102    0.05261067    0.01790697
     atom   80 type  1   force =     0.00006372    0.00890276   -0.04608625
     atom   81 type  1   force =     0.00784374   -0.04709587   -0.04526734
     atom   82 type  1   force =    -0.00297218    0.05021038   -0.03989796
     atom   83 type  1   force =     0.02074525    0.02183667   -0.05228823
     atom   84 type  1   force =     0.09856240   -0.09642491    0.08293534
     atom   85 type  1   force =     0.01206164    0.05406679    0.01472957
     atom   86 type  1   force =     0.09362585    0.09309895   -0.10120490
     atom   87 type  3   force =     0.00000000    0.06028018    0.00000000
     atom   88 type  1   force =     0.00000000   -0.04937412    0.00000000
     atom   89 type  1   force =    -0.10090096    0.08216701    0.03803506
     atom   90 type  1   force =    -0.02753807   -0.01713765   -0.05485674
     atom   91 type  2   force =    -0.08038398   -0.03962352   -0.00436199
     atom   92 type  2   force =     0.09310912    0.04902841    0.00396484
     atom   93 type  2   force =     0.02906804   -0.05206041   -0.02129030
     atom   94 type  2   force =    -0.02794825    0.07071464   -0.02694552
     atom   95 type  2   force =     0.03968644   -0.06748746   -0.03010440
     atom   96 type  2   force =     0.06156855    0.06181629    0.04351632
     atom   97 type  2   force =     0.41577979   -0.20610970   -0.57812657
     atom   98 type  2   force =    -0.07598829   -0.01974034   -0.04012959
     atom   99 type  2   force =    -0.05600750    0.03664921   -0.04437229
     atom  100 type  2   force =     0.01135913    0.06526223    0.11190033
     atom  101 type  2   force =    -0.09655730   -0.02912351    0.02822906
     atom  102 type  2   force =     0.97837471    1.03116524    0.79158211
     atom  103 type  2   force =    -0.00233577   -0.02286282   -0.13435960
     atom  104 type  2   force =    -0.14209480   -0.08250052   -0.12322710
     atom  105 type  2   force =    -1.11512434    1.02856004    0.84248095
     atom  106 type  2   force =     1.08266615   -1.00766298    0.88126121
     atom  107 type  2   force =    -0.09293887    0.02093555   -0.01045754
     atom  108 type  2   force =    -0.16002675   -0.01265367   -0.01540324
     atom  109 type  2   force =     0.03565977   -0.10129430   -0.05330448
     atom  110 type  2   force =     0.00841875    0.14858400   -0.03963617
     atom  111 type  2   force =     0.13583242   -0.06194512    0.01359466
     atom  112 type  2   force =    -0.97790048    1.04004369    0.78547167
     atom  113 type  2   force =     0.06678926    0.05788370   -0.10496649
     atom  114 type  2   force =    -0.02469615    0.08034599    0.09767863
     atom  115 type  1   force =    -0.03031104   -0.00643291   -0.00499776
     atom  116 type  1   force =     0.02928729    0.01933375    0.00140115
     atom  117 type  1   force =     0.04092791    0.08708270   -0.11487419
     atom  118 type  1   force =     0.03334035   -0.01347695   -0.00445639
     atom  119 type  1   force =    -0.10780842   -0.01063455   -0.12378886
     atom  120 type  1   force =     0.02575964   -0.05909508    0.01100423
     atom  121 type  1   force =     0.00000000    0.01427859    0.00000000
     atom  122 type  1   force =     0.00000000   -0.01933960    0.00000000
     atom  123 type  1   force =    -0.02302167    0.02185507   -0.02946753
     atom  124 type  1   force =     0.05383435   -0.01183409   -0.04094575
     atom  125 type  1   force =    -0.03075198   -0.05980739    0.01299551
     atom  126 type  1   force =     0.00064714    0.04582554   -0.02004651
     atom  127 type  1   force =     0.00660855   -0.03809252   -0.06059158
     atom  128 type  1   force =    -0.00822950    0.00805650   -0.01044865
     atom  129 type  2   force =    -1.08856500   -1.00063346    0.87723840
     atom  130 type  2   force =     1.10151739    1.02968024    0.85101737
     atom  131 type  2   force =     0.05031258   -0.01223264   -0.06418277
     atom  132 type  2   force =    -0.04731754    0.03394253   -0.05293576
     atom  133 type  2   force =     0.05043806   -0.09202460   -0.12032884
     atom  134 type  2   force =    -0.91522473   -1.24570972   -0.08829526
     atom  135 type  2   force =    -0.03114088    0.05152761   -0.07510585
     atom  136 type  2   force =     0.91885732    1.24728729   -0.05465622
     atom  137 type  2   force =    -0.97363061   -1.04722594    0.77342985
     atom  138 type  2   force =    -0.32570122    0.58958361   -0.34818063
     atom  139 type  2   force =    -0.00435237   -0.07163934    0.06976930
     atom  140 type  2   force =     0.04467017   -0.03927240   -0.17064456
     atom  141 type  2   force =     0.02391445    0.04942356   -0.01147202
     atom  142 type  2   force =    -0.03994282   -0.06842914   -0.02741178
     atom  143 type  2   force =    -0.11715155    0.07796847   -0.08676176
     atom  144 type  2   force =     0.05970090   -0.01453455    0.00323403
     atom  145 type  2   force =     0.91545885   -1.25200948   -0.06238343
     atom  146 type  2   force =    -0.02658899   -0.07306905   -0.11339717
     atom  147 type  2   force =    -0.91638669    1.24808617   -0.06337885
     atom  148 type  2   force =     0.03873052    0.05312475   -0.10615897
     atom  149 type  2   force =    -0.00629930   -0.04755838    0.09618603
     atom  150 type  2   force =    -0.00249139   -0.00954611   -0.11789969
     atom  151 type  2   force =     0.98787741   -1.03280220    0.78095766
     atom  152 type  2   force =    -0.02273675   -0.08196869    0.05007729
     atom  153 type  4   force =     0.06242078   -0.07328593    0.03217994
     atom  154 type  4   force =    -0.06274272    0.07344820    0.03102901
     atom  155 type  4   force =     0.05259270   -0.04698382    0.07805796
     atom  156 type  4   force =    -0.04213689   -0.04104278    0.08768952
     atom  157 type  4   force =     0.04008394    0.03973320    0.08929722
     atom  158 type  4   force =    -0.06233112   -0.07356112    0.03178758
     atom  159 type  4   force =     0.06294356    0.07321417    0.03182699
     atom  160 type  4   force =    -0.05271647   -0.04708537    0.07793442
     atom  161 type  4   force =    -0.04106915    0.03891906    0.08917230
     atom  162 type  4   force =     0.04112115   -0.04148190    0.08794541
     atom  163 type  4   force =    -0.05178112    0.04801929    0.07795990
     atom  164 type  4   force =     0.05272588    0.04686591    0.07802129
     atom  165 type  4   force =    -0.05259270   -0.04698382   -0.07805796
     atom  166 type  4   force =     0.04213689   -0.04104278   -0.08768952
     atom  167 type  4   force =    -0.04008394    0.03973320   -0.08929722
     atom  168 type  4   force =     0.05271647   -0.04708537   -0.07793442
     atom  169 type  4   force =     0.04106915    0.03891906   -0.08917230
     atom  170 type  4   force =    -0.04112115   -0.04148190   -0.08794541
     atom  171 type  4   force =     0.06274272    0.07344820   -0.03102901
     atom  172 type  4   force =    -0.06242078   -0.07328593   -0.03217994
     atom  173 type  4   force =     0.05178112    0.04801929   -0.07795990
     atom  174 type  4   force =    -0.06294356    0.07321417   -0.03182699
     atom  175 type  4   force =     0.06233112   -0.07356112   -0.03178758
     atom  176 type  4   force =    -0.05272588    0.04686591   -0.07802129
     The ionic contribution  to forces
     atom    1 type  1   force =     3.16343386    1.08943606 -258.23094612
     atom    2 type  1   force =    -3.29733692   -1.28335631 -257.97240731
     atom    3 type  1   force =    -0.52262990   -0.52729947  -86.42266402
     atom    4 type  1   force =    -3.15872501    1.29936844 -258.57585683
     atom    5 type  1   force =     4.42260200   -0.22528444  -86.22716349
     atom    6 type  1   force =    -4.18603263    3.12711244 -257.63792156
     atom    7 type  1   force =     0.06191187    3.44608413 -172.47300288
     atom    8 type  1   force =     0.03811470   -3.43821484 -172.38872300
     atom    9 type  1   force =     0.38127284    0.45069504 -178.66108729
     atom   10 type  1   force =    -4.33550372    2.00801431  -86.09047099
     atom   11 type  1   force =     4.30713447    3.21366372 -256.97346956
     atom   12 type  1   force =    -0.01177788   -0.01134786 -178.61855365
     atom   13 type  2   force =     2.93916396    2.14009129  -98.96577458
     atom   14 type  2   force =    -2.76273750   -2.40289324  -98.96269043
     atom   15 type  2   force =    -2.90309586    1.62835641  -59.85851960
     atom   16 type  2   force =     2.54834940   -2.20017286  -59.90040270
     atom   17 type  2   force =     2.29159472   -2.27793253 -133.57087055
     atom   18 type  2   force =     0.00654141   -2.67520951 -105.23444276
     atom   19 type  2   force =    -2.16128715    2.19048825 -133.59405078
     atom   20 type  2   force =     0.14292383    2.95819128 -104.46759054
     atom   21 type  2   force =     1.70518766   -0.09943139  -93.80744864
     atom   22 type  2   force =    -1.78455282   -0.24321253  -64.23000913
     atom   23 type  2   force =     2.30931515   -1.80615992 -137.37121981
     atom   24 type  2   force =    -1.95321189   -0.12912970  -15.35932613
     atom   25 type  2   force =    -3.81330841   -3.35019873 -137.00244079
     atom   26 type  2   force =     3.65822187    3.24855441 -136.76188512
     atom   27 type  2   force =     2.24674471   -1.85682054  -19.66901156
     atom   28 type  2   force =    -3.59062423    2.73565582  -18.94304580
     atom   29 type  2   force =     0.04124474   -2.66781846 -105.08102190
     atom   30 type  2   force =    -2.28005294   -2.21677729 -133.56608990
     atom   31 type  2   force =    -0.02076167    2.73682727 -105.20956855
     atom   32 type  2   force =     2.13749961    2.29119871 -133.49136751
     atom   33 type  2   force =    -2.30776582   -1.88282535 -137.26776138
     atom   34 type  2   force =     1.83824543    0.27461172  -15.01443654
     atom   35 type  2   force =    -1.78852666   -0.01412469  -93.90245800
     atom   36 type  2   force =     1.80064815    0.07353146  -64.61899402
     atom   37 type  1   force =    -1.25716516    0.06622550  -87.30136855
     atom   38 type  1   force =     0.24552261    0.78792294  -86.76492022
     atom   39 type  1   force =     3.21371734   -1.05116646 -257.11472023
     atom   40 type  1   force =     1.43477059   -0.49801072  -85.80994362
     atom   41 type  1   force =     3.90045079   -3.25304700 -257.09116978
     atom   42 type  1   force =    -4.09320873   -0.55072316  -87.61515696
     atom   43 type  1   force =    -0.19505152   -0.24335322   -6.97586953
     atom   44 type  1   force =    -0.41959390    0.34181436 -165.70519453
     atom   45 type  1   force =    -3.86199294   -3.21536053 -257.52863017
     atom   46 type  1   force =     3.43057987   -0.58022898  -86.60115104
     atom   47 type  1   force =    -0.13754787   -3.83600763 -173.03507771
     atom   48 type  1   force =     0.08218203    3.93209903 -170.91727869
     atom   49 type  1   force =     0.34477974   -0.33856043 -165.72249105
     atom   50 type  1   force =     0.71275749   -0.05203847   -6.71303084
     atom   51 type  2   force =     2.24791155    1.30442553  -18.91111009
     atom   52 type  2   force =    -2.13688186   -1.60312152  -18.89551711
     atom   53 type  2   force =    -3.59923781    3.33236074 -136.75835554
     atom   54 type  2   force =     3.83039154   -3.26881776 -136.90776756
     atom   55 type  2   force =    -0.16244424    2.54438766  -53.26978359
     atom   56 type  2   force =     4.60243977    0.38229998  -26.95779728
     atom   57 type  2   force =    -0.09385511   -2.59438269  -53.51715204
     atom   58 type  2   force =    -0.16338583    2.25408060  -25.63419784
     atom   59 type  2   force =    -2.07420820   -5.25849567  -16.30030828
     atom   60 type  2   force =    -2.38706177    1.85587095 -137.20224128
     atom   61 type  2   force =     1.87196169    0.05334699  -64.29606406
     atom   62 type  2   force =    -1.90900160    0.01782905  -93.71755147
     atom   63 type  2   force =    -2.56901293   -1.77637051  -59.44591035
     atom   64 type  2   force =     2.59862798    1.68026070  -60.74104554
     atom   65 type  2   force =     2.71874074   -2.08738826  -98.48587425
     atom   66 type  2   force =    -2.96896678    2.29648184  -99.37204834
     atom   67 type  2   force =     0.06873574   -2.45459248  -25.79942726
     atom   68 type  2   force =     0.08881235    2.63591773  -53.73605156
     atom   69 type  2   force =    -0.28596770    2.46841780  -25.49765164
     atom   70 type  2   force =    -0.19236894   -2.32214647  -53.50275239
     atom   71 type  2   force =    -1.49569353   -0.09073778  -64.86735189
     atom   72 type  2   force =     1.71941030   -0.02716926  -93.57872886
     atom   73 type  2   force =    -1.44252947    0.31124699  -15.18951640
     atom   74 type  2   force =     2.38396551    1.84591765 -137.31156743
     atom   75 type  1   force =     0.52263019   -0.52729951   86.42266411
     atom   76 type  1   force =    -1.43477073   -0.49801071   85.80994355
     atom   77 type  1   force =    -3.16343389    1.08943609  258.23094624
     atom   78 type  1   force =    -0.24552276    0.78792292   86.76492016
     atom   79 type  1   force =     4.18603255    3.12711248  257.63792161
     atom   80 type  1   force =    -4.42260202   -0.22528419   86.22716339
     atom   81 type  1   force =    -0.06191180    3.44608418  172.47300288
     atom   82 type  1   force =    -0.03811472   -3.43821485  172.38872302
     atom   83 type  1   force =     0.41959392    0.34181442  165.70519455
     atom   84 type  1   force =     0.19505155   -0.24335329    6.97586943
     atom   85 type  1   force =    -4.30713448    3.21366374  256.97346965
     atom   86 type  1   force =     4.33550377    2.00801446   86.09047095
     atom   87 type  3   force =     0.00000012   -1.31289537   -0.00000001
     atom   88 type  1   force =    -0.00000004    3.07436363   -0.00000006
     atom   89 type  1   force =    -0.71275746   -0.05203843    6.71303074
     atom   90 type  1   force =    -0.34477971   -0.33856049  165.72249108
     atom   91 type  2   force =     2.90309584    1.62835640   59.85851955
     atom   92 type  2   force =    -2.54834947   -2.20017284   59.90040271
     atom   93 type  2   force =    -2.93916396    2.14009130   98.96577462
     atom   94 type  2   force =     2.76273753   -2.40289327   98.96269045
     atom   95 type  2   force =     0.16338588    2.25408056   25.63419775
     atom   96 type  2   force =     0.09385501   -2.59438270   53.51715196
     atom   97 type  2   force =    -4.60243984    0.38230003   26.95779722
     atom   98 type  2   force =     0.16244416    2.54438772   53.26978348
     atom   99 type  2   force =     1.78455283   -0.24321250   64.23000915
     atom  100 type  2   force =    -1.70518767   -0.09943138   93.80744868
     atom  101 type  2   force =     1.95321188   -0.12912964   15.35932606
     atom  102 type  2   force =    -2.30931519   -1.80615996  137.37121982
     atom  103 type  2   force =    -2.24674484   -1.85682063   19.66901148
     atom  104 type  2   force =     3.59062421    2.73565584   18.94304580
     atom  105 type  2   force =     3.81330837   -3.35019875  137.00244082
     atom  106 type  2   force =    -3.65822187    3.24855434  136.76188510
     atom  107 type  2   force =     0.19236886   -2.32214653   53.50275228
     atom  108 type  2   force =     0.28596767    2.46841777   25.49765155
     atom  109 type  2   force =    -0.08881244    2.63591773   53.73605147
     atom  110 type  2   force =    -0.06873569   -2.45459244   25.79942718
     atom  111 type  2   force =    -1.83824542    0.27461175   15.01443645
     atom  112 type  2   force =     2.30776584   -1.88282533  137.26776140
     atom  113 type  2   force =    -1.80064814    0.07353149   64.61899402
     atom  114 type  2   force =     1.78852665   -0.01412468   93.90245803
     atom  115 type  1   force =    -3.21371735   -1.05116638  257.11472036
     atom  116 type  1   force =     3.15872504    1.29936832  258.57585686
     atom  117 type  1   force =     1.25716544    0.06622555   87.30136864
     atom  118 type  1   force =     3.29733697   -1.28335631  257.97240734
     atom  119 type  1   force =     4.09320879   -0.55072330   87.61515693
     atom  120 type  1   force =    -3.90045059   -3.25304702  257.09116986
     atom  121 type  1   force =     0.00000008    5.07435185    0.00000001
     atom  122 type  1   force =    -0.00000005   -4.22087097   -0.00000006
     atom  123 type  1   force =    -0.38127284    0.45069498  178.66108738
     atom  124 type  1   force =    -3.43057990   -0.58022923   86.60115094
     atom  125 type  1   force =     3.86199307   -3.21536057  257.52863022
     atom  126 type  1   force =     0.13754793   -3.83600769  173.03507776
     atom  127 type  1   force =    -0.08218205    3.93209905  170.91727876
     atom  128 type  1   force =     0.01177789   -0.01134780  178.61855373
     atom  129 type  2   force =     3.59923780    3.33236081  136.75835560
     atom  130 type  2   force =    -3.83039157   -3.26881774  136.90776756
     atom  131 type  2   force =    -2.24791168    1.30442561   18.91111003
     atom  132 type  2   force =     2.13688187   -1.60312160   18.89551712
     atom  133 type  2   force =    -0.14292385    2.95819129  104.46759060
     atom  134 type  2   force =     2.16128715    2.19048819  133.59405081
     atom  135 type  2   force =    -0.00654144   -2.67520957  105.23444284
     atom  136 type  2   force =    -2.29159475   -2.27793254  133.57087050
     atom  137 type  2   force =     2.38706179    1.85587095  137.20224129
     atom  138 type  2   force =     2.07420824   -5.25849574   16.30030818
     atom  139 type  2   force =     1.90900160    0.01782900   93.71755154
     atom  140 type  2   force =    -1.87196167    0.05334695   64.29606406
     atom  141 type  2   force =    -2.71874071   -2.08738823   98.48587431
     atom  142 type  2   force =     2.96896677    2.29648183   99.37204838
     atom  143 type  2   force =     2.56901291   -1.77637050   59.44591031
     atom  144 type  2   force =    -2.59862804    1.68026068   60.74104556
     atom  145 type  2   force =    -2.13749961    2.29119878  133.49136751
     atom  146 type  2   force =     0.02076166    2.73682728  105.20956858
     atom  147 type  2   force =     2.28005291   -2.21677728  133.56608998
     atom  148 type  2   force =    -0.04124478   -2.66781842  105.08102191
     atom  149 type  2   force =    -1.71941031   -0.02716923   93.57872886
     atom  150 type  2   force =     1.49569354   -0.09073781   64.86735190
     atom  151 type  2   force =    -2.38396555    1.84591767  137.31156745
     atom  152 type  2   force =     1.44252948    0.31124694   15.18951633
     atom  153 type  4   force =    -1.45229191    2.14266164  -23.60634236
     atom  154 type  4   force =     1.47489991   -2.15947455  -23.55025922
     atom  155 type  4   force =    -1.74018439    1.54068191  -25.70809626
     atom  156 type  4   force =     1.14462569    1.03793374  -26.10973966
     atom  157 type  4   force =    -1.08995326   -1.01475969  -26.14833545
     atom  158 type  4   force =     1.45384804    2.15528134  -23.58635732
     atom  159 type  4   force =    -1.49029714   -2.14629678  -23.57625965
     atom  160 type  4   force =     1.74220125    1.53171371  -25.70214844
     atom  161 type  4   force =     1.12721185   -0.97728352  -26.14417824
     atom  162 type  4   force =    -1.11057901    1.05731927  -26.11517439
     atom  163 type  4   force =     1.70038262   -1.55764804  -25.70322838
     atom  164 type  4   force =    -1.72855793   -1.53046169  -25.70324915
     atom  165 type  4   force =     1.74018443    1.54068194   25.70809629
     atom  166 type  4   force =    -1.14462570    1.03793372   26.10973963
     atom  167 type  4   force =     1.08995324   -1.01475971   26.14833548
     atom  168 type  4   force =    -1.74220129    1.53171375   25.70214846
     atom  169 type  4   force =    -1.12721187   -0.97728350   26.14417821
     atom  170 type  4   force =     1.11057899    1.05731928   26.11517443
     atom  171 type  4   force =    -1.47489989   -2.15947450   23.55025919
     atom  172 type  4   force =     1.45229193    2.14266169   23.60634238
     atom  173 type  4   force =    -1.70038266   -1.55764805   25.70322836
     atom  174 type  4   force =     1.49029716   -2.14629683   23.57625967
     atom  175 type  4   force =    -1.45384802    2.15528129   23.58635731
     atom  176 type  4   force =     1.72855796   -1.53046175   25.70324923
     The local contribution  to forces
     atom    1 type  1   force =    -3.19023394   -1.10022180  258.23145290
     atom    2 type  1   force =     3.32908136    1.29650298  257.96876119
     atom    3 type  1   force =     0.53422121    0.54608560   86.37955550
     atom    4 type  1   force =     3.18633974   -1.31772923  258.57806086
     atom    5 type  1   force =    -4.42256631    0.21694345   86.18359978
     atom    6 type  1   force =     4.16808938   -3.17703150  257.65534553
     atom    7 type  1   force =    -0.05500640   -3.40173042  172.43022688
     atom    8 type  1   force =    -0.04089739    3.39117748  172.35081682
     atom    9 type  1   force =    -0.40280768   -0.47103670  178.63292944
     atom   10 type  1   force =     4.42308081   -2.09563893   85.99504785
     atom   11 type  1   force =    -4.29598257   -3.26521620  256.98769372
     atom   12 type  1   force =     0.00423872    0.00351793  178.60785866
     atom   13 type  2   force =    -2.90992530   -2.08826559   98.94485553
     atom   14 type  2   force =     2.73447256    2.33247392   98.93624332
     atom   15 type  2   force =     2.82336132   -1.58902596   59.85449375
     atom   16 type  2   force =    -2.45589184    2.15122047   59.90461561
     atom   17 type  2   force =    -1.37980362    1.04078948  133.51685093
     atom   18 type  2   force =    -0.03787483    2.62322190  105.15959793
     atom   19 type  2   force =     1.25315145   -0.95471984  133.50692856
     atom   20 type  2   force =    -0.09300440   -2.86683209  104.34798762
     atom   21 type  2   force =    -1.69379350    0.03454238   93.91862461
     atom   22 type  2   force =     1.72878189    0.20623682   64.18522800
     atom   23 type  2   force =    -1.33857711    0.78347376  138.15638058
     atom   24 type  2   force =     1.85663278    0.15746860   15.38727337
     atom   25 type  2   force =     2.70744305    2.33013489  137.83830973
     atom   26 type  2   force =    -2.58450451   -2.24894123  137.63570722
     atom   27 type  2   force =    -2.24890609    1.87897642   19.53599993
     atom   28 type  2   force =     3.45007133   -2.65431079   18.82080053
     atom   29 type  2   force =    -0.00279409    2.61492458  104.97547734
     atom   30 type  2   force =     1.37091405    0.97862026  133.50344436
     atom   31 type  2   force =    -0.00566938   -2.66421081  105.09696664
     atom   32 type  2   force =    -1.22912401   -1.04916046  133.42957794
     atom   33 type  2   force =     1.33758982    0.85153181  138.04676542
     atom   34 type  2   force =    -1.70289693   -0.21317445   15.02848664
     atom   35 type  2   force =     1.76366197   -0.06551052   93.99954619
     atom   36 type  2   force =    -1.73419074   -0.13096754   64.51480657
     atom   37 type  1   force =     1.29597675   -0.14733531   87.19387252
     atom   38 type  1   force =    -0.26506911   -0.82327283   86.72690715
     atom   39 type  1   force =    -3.24259097    1.05752355  257.11063438
     atom   40 type  1   force =    -1.49314883    0.61396712   85.71009896
     atom   41 type  1   force =    -3.87644430    3.30907829  257.10195042
     atom   42 type  1   force =     3.99168074    0.56075815   87.49909955
     atom   43 type  1   force =     0.28766807    0.33430499    7.05356156
     atom   44 type  1   force =     0.43900673   -0.36237132  165.65586579
     atom   45 type  1   force =     3.83319006    3.27203673  257.54136690
     atom   46 type  1   force =    -3.38004249    0.59161030   86.56177058
     atom   47 type  1   force =     0.13806667    3.79304134  173.01595747
     atom   48 type  1   force =    -0.07628309   -3.89614984  170.86022974
     atom   49 type  1   force =    -0.37045549    0.35451314  165.67032629
     atom   50 type  1   force =    -0.80688276   -0.02507323    6.74916151
     atom   51 type  2   force =    -2.19758638   -1.29204253   18.84721581
     atom   52 type  2   force =     2.08957762    1.56954936   18.84299371
     atom   53 type  2   force =     2.51939069   -2.34003563  137.62804447
     atom   54 type  2   force =    -2.73805231    2.24749386  137.75186662
     atom   55 type  2   force =     0.08722801   -2.52441117   53.23024642
     atom   56 type  2   force =    -4.18897801   -0.17721056   26.38363303
     atom   57 type  2   force =     0.15463240    2.53213964   53.56042566
     atom   58 type  2   force =     0.20260380   -2.18712029   25.60407643
     atom   59 type  2   force =     1.75094256    4.67296334   15.95406071
     atom   60 type  2   force =     1.42111384   -0.81702679  137.96914267
     atom   61 type  2   force =    -1.82735934   -0.01487380   64.12681530
     atom   62 type  2   force =     1.90425448    0.05306531   93.78691066
     atom   63 type  2   force =     2.45287360    1.69879080   59.35979764
     atom   64 type  2   force =    -2.53875984   -1.66578519   60.74430934
     atom   65 type  2   force =    -2.69492773    2.03821117   98.47442294
     atom   66 type  2   force =     2.92882312   -2.22824406   99.34497640
     atom   67 type  2   force =    -0.06029958    2.30704713   25.76029945
     atom   68 type  2   force =    -0.05322582   -2.53512294   53.68340576
     atom   69 type  2   force =     0.12778895   -2.45539986   25.48269142
     atom   70 type  2   force =     0.09981066    2.30108674   53.49289698
     atom   71 type  2   force =     1.49284271    0.09997019   64.75029222
     atom   72 type  2   force =    -1.72533740    0.07409141   93.67425962
     atom   73 type  2   force =     1.41967488   -0.22968298   15.23976752
     atom   74 type  2   force =    -1.40384334   -0.82152387  138.08619765
     atom   75 type  1   force =    -0.53422129    0.54608551  -86.37955773
     atom   76 type  1   force =     1.49314890    0.61396720  -85.71010116
     atom   77 type  1   force =     3.19023394   -1.10022180 -258.23145290
     atom   78 type  1   force =     0.26506918   -0.82327291  -86.72690937
     atom   79 type  1   force =    -4.16808938   -3.17703150 -257.65534553
     atom   80 type  1   force =     4.42256631    0.21694341  -86.18360128
     atom   81 type  1   force =     0.05500640   -3.40173042 -172.43022688
     atom   82 type  1   force =     0.04089739    3.39117748 -172.35081682
     atom   83 type  1   force =    -0.43900673   -0.36237132 -165.65586579
     atom   84 type  1   force =    -0.28766807    0.33430499   -7.05356156
     atom   85 type  1   force =     4.29598257   -3.26521620 -256.98769372
     atom   86 type  1   force =    -4.42308081   -2.09563897  -85.99504933
     atom   87 type  3   force =     0.00000001    1.28841474   -0.00000059
     atom   88 type  1   force =    -0.00000002   -3.02763137   -0.00000073
     atom   89 type  1   force =     0.80688276   -0.02507323   -6.74916151
     atom   90 type  1   force =     0.37045549    0.35451314 -165.67032629
     atom   91 type  2   force =    -2.82336203   -1.58902594  -59.85449447
     atom   92 type  2   force =     2.45589108    2.15122046  -59.90461638
     atom   93 type  2   force =     2.90992530   -2.08826559  -98.94485553
     atom   94 type  2   force =    -2.73447256    2.33247392  -98.93624332
     atom   95 type  2   force =    -0.20260380   -2.18712029  -25.60407643
     atom   96 type  2   force =    -0.15463302    2.53213962  -53.56042568
     atom   97 type  2   force =     4.18897801   -0.17721056  -26.38363303
     atom   98 type  2   force =    -0.08722863   -2.52441119  -53.23024640
     atom   99 type  2   force =    -1.72878189    0.20623682  -64.18522800
     atom  100 type  2   force =     1.69379350    0.03454238  -93.91862461
     atom  101 type  2   force =    -1.85663278    0.15746860  -15.38727337
     atom  102 type  2   force =     1.33857711    0.78347375 -138.15638130
     atom  103 type  2   force =     2.24890542    1.87897648  -19.53600175
     atom  104 type  2   force =    -3.45007208   -2.65431075  -18.82080240
     atom  105 type  2   force =    -2.70744374    2.33013491 -137.83830972
     atom  106 type  2   force =     2.58450382   -2.24894121 -137.63570722
     atom  107 type  2   force =    -0.09981128    2.30108676  -53.49289697
     atom  108 type  2   force =    -0.12778895   -2.45539986  -25.48269142
     atom  109 type  2   force =     0.05322520   -2.53512292  -53.68340578
     atom  110 type  2   force =     0.06029958    2.30704713  -25.76029945
     atom  111 type  2   force =     1.70289693   -0.21317445  -15.02848664
     atom  112 type  2   force =    -1.33758982    0.85153180 -138.04676614
     atom  113 type  2   force =     1.73419074   -0.13096754  -64.51480657
     atom  114 type  2   force =    -1.76366197   -0.06551052  -93.99954619
     atom  115 type  1   force =     3.24259097    1.05752355 -257.11063438
     atom  116 type  1   force =    -3.18633974   -1.31772923 -258.57806086
     atom  117 type  1   force =    -1.29597682   -0.14733523  -87.19387475
     atom  118 type  1   force =    -3.32908136    1.29650298 -257.96876119
     atom  119 type  1   force =    -3.99168074    0.56075819  -87.49910104
     atom  120 type  1   force =     3.87644566    3.30907830 -257.10195041
     atom  121 type  1   force =     0.00000003   -5.08783443   -0.00000074
     atom  122 type  1   force =    -0.00000002    4.23922199   -0.00000073
     atom  123 type  1   force =     0.40280768   -0.47103670 -178.63292944
     atom  124 type  1   force =     3.38004250    0.59161035  -86.56177208
     atom  125 type  1   force =    -3.83318870    3.27203672 -257.54136691
     atom  126 type  1   force =    -0.13806667    3.79304134 -173.01595747
     atom  127 type  1   force =     0.07628309   -3.89614984 -170.86022974
     atom  128 type  1   force =    -0.00423872    0.00351793 -178.60785866
     atom  129 type  2   force =    -2.51939138   -2.34003565 -137.62804446
     atom  130 type  2   force =     2.73805162    2.24749385 -137.75186662
     atom  131 type  2   force =     2.19758570   -1.29204258  -18.84721764
     atom  132 type  2   force =    -2.08957840    1.56954939  -18.84299558
     atom  133 type  2   force =     0.09300440   -2.86683209 -104.34798762
     atom  134 type  2   force =    -1.25315145   -0.95471984 -133.50692856
     atom  135 type  2   force =     0.03787483    2.62322190 -105.15959793
     atom  136 type  2   force =     1.37980362    1.04078948 -133.51685093
     atom  137 type  2   force =    -1.42111384   -0.81702678 -137.96914340
     atom  138 type  2   force =    -1.75094256    4.67296334  -15.95406071
     atom  139 type  2   force =    -1.90425448    0.05306531  -93.78691066
     atom  140 type  2   force =     1.82735934   -0.01487380  -64.12681530
     atom  141 type  2   force =     2.69492773    2.03821117  -98.47442294
     atom  142 type  2   force =    -2.92882312   -2.22824406  -99.34497640
     atom  143 type  2   force =    -2.45287431    1.69879079  -59.35979837
     atom  144 type  2   force =     2.53875908   -1.66578519  -60.74431010
     atom  145 type  2   force =     1.22912401   -1.04916046 -133.42957794
     atom  146 type  2   force =     0.00566938   -2.66421081 -105.09696664
     atom  147 type  2   force =    -1.37091405    0.97862026 -133.50344436
     atom  148 type  2   force =     0.00279409    2.61492458 -104.97547734
     atom  149 type  2   force =     1.72533740    0.07409141  -93.67425962
     atom  150 type  2   force =    -1.49284271    0.09997019  -64.75029222
     atom  151 type  2   force =     1.40384335   -0.82152386 -138.08619836
     atom  152 type  2   force =    -1.41967488   -0.22968298  -15.23976752
     atom  153 type  4   force =     1.38991880   -2.06919226   23.57404912
     atom  154 type  4   force =    -1.41222456    2.08607363   23.51904068
     atom  155 type  4   force =     1.68784440   -1.49362170   25.62990652
     atom  156 type  4   force =    -1.10245822   -0.99677775   26.02193860
     atom  157 type  4   force =     1.04993497    0.97535376   26.05895050
     atom  158 type  4   force =    -1.39161350   -2.08151886   23.55436600
     atom  159 type  4   force =     1.42731999    2.07310104   23.54424395
     atom  160 type  4   force =    -1.68968541   -1.48458717   25.62394427
     atom  161 type  4   force =    -1.08634288    0.93866448   26.05507533
     atom  162 type  4   force =     1.06940510   -1.01585294   26.02726747
     atom  163 type  4   force =    -1.64866804    1.50982490   25.62539904
     atom  164 type  4   force =     1.67595937    1.48376743   25.62525583
     atom  165 type  4   force =    -1.68784440   -1.49362170  -25.62990652
     atom  166 type  4   force =     1.10245822   -0.99677775  -26.02193860
     atom  167 type  4   force =    -1.04993497    0.97535376  -26.05895050
     atom  168 type  4   force =     1.68968541   -1.48458717  -25.62394427
     atom  169 type  4   force =     1.08634288    0.93866448  -26.05507533
     atom  170 type  4   force =    -1.06940510   -1.01585294  -26.02726747
     atom  171 type  4   force =     1.41222458    2.08607359  -23.51904066
     atom  172 type  4   force =    -1.38991878   -2.06919230  -23.57404914
     atom  173 type  4   force =     1.64866808    1.50982489  -25.62539901
     atom  174 type  4   force =    -1.42731997    2.07310107  -23.54424397
     atom  175 type  4   force =     1.39161353   -2.08151883  -23.55436599
     atom  176 type  4   force =    -1.67595932    1.48376745  -25.62525587
     The core correction contribution to forces
     atom    1 type  1   force =    -0.00140691   -0.00061146   -0.00071446
     atom    2 type  1   force =     0.00169182    0.00067635   -0.00100221
     atom    3 type  1   force =     0.00060322    0.00133559   -0.00266707
     atom    4 type  1   force =     0.00151423   -0.00105351   -0.00068266
     atom    5 type  1   force =     0.00009231   -0.00043536   -0.00272840
     atom    6 type  1   force =    -0.00140349   -0.00261679    0.00047402
     atom    7 type  1   force =     0.00047457    0.00285457   -0.00274322
     atom    8 type  1   force =    -0.00012223   -0.00301899   -0.00235493
     atom    9 type  1   force =    -0.00138247   -0.00141690   -0.00157147
     atom   10 type  1   force =     0.00561891   -0.00582369   -0.00607033
     atom   11 type  1   force =     0.00099202   -0.00267242    0.00028716
     atom   12 type  1   force =    -0.00051955   -0.00049641   -0.00049430
     atom   13 type  2   force =    -0.00003732    0.00022946   -0.00007287
     atom   14 type  2   force =     0.00004194   -0.00038701   -0.00012687
     atom   15 type  2   force =    -0.00040701    0.00014329   -0.00008031
     atom   16 type  2   force =     0.00054825   -0.00017725    0.00000615
     atom   17 type  2   force =     0.00709257   -0.00989807   -0.00075025
     atom   18 type  2   force =    -0.00024172   -0.00018363   -0.00039936
     atom   19 type  2   force =    -0.00705717    0.00988574   -0.00102811
     atom   20 type  2   force =     0.00041474    0.00054397   -0.00081476
     atom   21 type  2   force =    -0.00011654   -0.00051062    0.00073782
     atom   22 type  2   force =    -0.00026143   -0.00026269   -0.00010222
     atom   23 type  2   force =     0.00782395   -0.00844407    0.00640752
     atom   24 type  2   force =    -0.00058898    0.00022796   -0.00000591
     atom   25 type  2   force =    -0.00911137   -0.00834127    0.00669071
     atom   26 type  2   force =     0.00885395    0.00817211    0.00702497
     atom   27 type  2   force =    -0.00030731    0.00046042   -0.00111456
     atom   28 type  2   force =    -0.00090355    0.00047023   -0.00091877
     atom   29 type  2   force =     0.00030943   -0.00020446   -0.00067054
     atom   30 type  2   force =    -0.00707258   -0.00990218   -0.00082009
     atom   31 type  2   force =    -0.00020578    0.00038048   -0.00073365
     atom   32 type  2   force =     0.00705959    0.00994306   -0.00080632
     atom   33 type  2   force =    -0.00781480   -0.00851808    0.00635484
     atom   34 type  2   force =     0.00109507    0.00051371   -0.00019747
     atom   35 type  2   force =     0.00000789   -0.00064234    0.00061688
     atom   36 type  2   force =     0.00033336   -0.00043865   -0.00059966
     atom   37 type  1   force =     0.00241120   -0.00572963   -0.00739610
     atom   38 type  1   force =    -0.00128808   -0.00221784   -0.00229223
     atom   39 type  1   force =    -0.00152169    0.00029958   -0.00099091
     atom   40 type  1   force =    -0.00468374    0.00834437   -0.00667727
     atom   41 type  1   force =     0.00172791    0.00298235    0.00010219
     atom   42 type  1   force =    -0.00661128    0.00063365   -0.00748597
     atom   43 type  1   force =     0.00608557    0.00559589    0.00529632
     atom   44 type  1   force =     0.00119867   -0.00123002   -0.00308394
     atom   45 type  1   force =    -0.00198442    0.00303585    0.00022354
     atom   46 type  1   force =     0.00308323    0.00055443   -0.00213555
     atom   47 type  1   force =     0.00003251   -0.00275736   -0.00121862
     atom   48 type  1   force =     0.00038550    0.00226103   -0.00352954
     atom   49 type  1   force =    -0.00170352    0.00104318   -0.00305010
     atom   50 type  1   force =    -0.00656287   -0.00513264    0.00191368
     atom   51 type  2   force =     0.00017755   -0.00015581   -0.00052852
     atom   52 type  2   force =    -0.00014503   -0.00006733   -0.00044472
     atom   53 type  2   force =    -0.00889161    0.00812185    0.00699526
     atom   54 type  2   force =     0.00900389   -0.00834470    0.00676269
     atom   55 type  2   force =    -0.00061879   -0.00015821   -0.00062404
     atom   56 type  2   force =     0.00244871    0.00133037   -0.00353487
     atom   57 type  2   force =     0.00049434   -0.00024814    0.00017481
     atom   58 type  2   force =     0.00027882    0.00028505   -0.00003253
     atom   59 type  2   force =    -0.00203644   -0.00363837   -0.00217119
     atom   60 type  2   force =    -0.00778900    0.00856483    0.00625383
     atom   61 type  2   force =     0.00012604    0.00029486   -0.00121626
     atom   62 type  2   force =     0.00020362    0.00057965    0.00037538
     atom   63 type  2   force =    -0.00076737   -0.00045253   -0.00089964
     atom   64 type  2   force =     0.00022812   -0.00010512    0.00001007
     atom   65 type  2   force =    -0.00007225   -0.00020640    0.00001179
     atom   66 type  2   force =    -0.00006524    0.00037029   -0.00011815
     atom   67 type  2   force =     0.00002478   -0.00116842   -0.00012757
     atom   68 type  2   force =     0.00028541    0.00058362   -0.00065928
     atom   69 type  2   force =    -0.00148272   -0.00015948    0.00004626
     atom   70 type  2   force =    -0.00076486    0.00008901   -0.00030285
     atom   71 type  2   force =     0.00019484    0.00003437   -0.00071981
     atom   72 type  2   force =    -0.00026459    0.00036387    0.00059973
     atom   73 type  2   force =     0.00001904    0.00087517    0.00013281
     atom   74 type  2   force =     0.00790460    0.00845719    0.00631502
     atom   75 type  1   force =    -0.00060322    0.00133559    0.00266691
     atom   76 type  1   force =     0.00468374    0.00834437    0.00667710
     atom   77 type  1   force =     0.00140691   -0.00061146    0.00071446
     atom   78 type  1   force =     0.00128808   -0.00221784    0.00229207
     atom   79 type  1   force =     0.00140349   -0.00261679   -0.00047402
     atom   80 type  1   force =    -0.00009231   -0.00043536    0.00272829
     atom   81 type  1   force =    -0.00047457    0.00285457    0.00274322
     atom   82 type  1   force =     0.00012223   -0.00301899    0.00235493
     atom   83 type  1   force =    -0.00119867   -0.00123002    0.00308394
     atom   84 type  1   force =    -0.00608557    0.00559589   -0.00529632
     atom   85 type  1   force =    -0.00099202   -0.00267242   -0.00028716
     atom   86 type  1   force =    -0.00561891   -0.00582369    0.00607022
     atom   87 type  3   force =    -0.00000000   -0.03504995   -0.00000000
     atom   88 type  1   force =    -0.00000000    0.00293898   -0.00000006
     atom   89 type  1   force =     0.00656287   -0.00513264   -0.00191368
     atom   90 type  1   force =     0.00170352    0.00104318    0.00305010
     atom   91 type  2   force =     0.00040701    0.00014329    0.00008031
     atom   92 type  2   force =    -0.00054825   -0.00017725   -0.00000615
     atom   93 type  2   force =     0.00003732    0.00022946    0.00007287
     atom   94 type  2   force =    -0.00004194   -0.00038701    0.00012687
     atom   95 type  2   force =    -0.00027882    0.00028505    0.00003253
     atom   96 type  2   force =    -0.00049434   -0.00024814   -0.00017481
     atom   97 type  2   force =    -0.00244871    0.00133037    0.00353487
     atom   98 type  2   force =     0.00061879   -0.00015821    0.00062404
     atom   99 type  2   force =     0.00026143   -0.00026269    0.00010222
     atom  100 type  2   force =     0.00011654   -0.00051062   -0.00073782
     atom  101 type  2   force =     0.00058898    0.00022796    0.00000591
     atom  102 type  2   force =    -0.00782395   -0.00844407   -0.00640752
     atom  103 type  2   force =     0.00030731    0.00046042    0.00111456
     atom  104 type  2   force =     0.00090355    0.00047023    0.00091877
     atom  105 type  2   force =     0.00911137   -0.00834127   -0.00669070
     atom  106 type  2   force =    -0.00885395    0.00817211   -0.00702497
     atom  107 type  2   force =     0.00076486    0.00008901    0.00030285
     atom  108 type  2   force =     0.00148272   -0.00015948   -0.00004626
     atom  109 type  2   force =    -0.00028541    0.00058362    0.00065928
     atom  110 type  2   force =    -0.00002478   -0.00116842    0.00012757
     atom  111 type  2   force =    -0.00109507    0.00051371    0.00019747
     atom  112 type  2   force =     0.00781481   -0.00851808   -0.00635484
     atom  113 type  2   force =    -0.00033336   -0.00043865    0.00059966
     atom  114 type  2   force =    -0.00000789   -0.00064234   -0.00061688
     atom  115 type  1   force =     0.00152169    0.00029958    0.00099091
     atom  116 type  1   force =    -0.00151423   -0.00105351    0.00068266
     atom  117 type  1   force =    -0.00241120   -0.00572963    0.00739593
     atom  118 type  1   force =    -0.00169182    0.00067635    0.00100221
     atom  119 type  1   force =     0.00661128    0.00063365    0.00748586
     atom  120 type  1   force =    -0.00172778    0.00298235   -0.00010219
     atom  121 type  1   force =     0.00000000   -0.00086306   -0.00000006
     atom  122 type  1   force =    -0.00000000    0.00137455   -0.00000006
     atom  123 type  1   force =     0.00138247   -0.00141690    0.00157147
     atom  124 type  1   force =    -0.00308323    0.00055443    0.00213544
     atom  125 type  1   force =     0.00198454    0.00303585   -0.00022354
     atom  126 type  1   force =    -0.00003251   -0.00275736    0.00121862
     atom  127 type  1   force =    -0.00038550    0.00226103    0.00352954
     atom  128 type  1   force =     0.00051955   -0.00049641    0.00049430
     atom  129 type  2   force =     0.00889161    0.00812185   -0.00699526
     atom  130 type  2   force =    -0.00900389   -0.00834470   -0.00676270
     atom  131 type  2   force =    -0.00017755   -0.00015581    0.00052852
     atom  132 type  2   force =     0.00014503   -0.00006733    0.00044473
     atom  133 type  2   force =    -0.00041474    0.00054397    0.00081476
     atom  134 type  2   force =     0.00705717    0.00988574    0.00102811
     atom  135 type  2   force =     0.00024172   -0.00018363    0.00039936
     atom  136 type  2   force =    -0.00709257   -0.00989807    0.00075025
     atom  137 type  2   force =     0.00778900    0.00856483   -0.00625383
     atom  138 type  2   force =     0.00203644   -0.00363837    0.00217119
     atom  139 type  2   force =    -0.00020362    0.00057965   -0.00037538
     atom  140 type  2   force =    -0.00012604    0.00029486    0.00121626
     atom  141 type  2   force =     0.00007225   -0.00020640   -0.00001179
     atom  142 type  2   force =     0.00006524    0.00037029    0.00011815
     atom  143 type  2   force =     0.00076737   -0.00045253    0.00089965
     atom  144 type  2   force =    -0.00022812   -0.00010512   -0.00001007
     atom  145 type  2   force =    -0.00705959    0.00994306    0.00080632
     atom  146 type  2   force =     0.00020578    0.00038048    0.00073365
     atom  147 type  2   force =     0.00707258   -0.00990218    0.00082009
     atom  148 type  2   force =    -0.00030943   -0.00020446    0.00067054
     atom  149 type  2   force =     0.00026459    0.00036387   -0.00059973
     atom  150 type  2   force =    -0.00019484    0.00003437    0.00071981
     atom  151 type  2   force =    -0.00790460    0.00845719   -0.00631502
     atom  152 type  2   force =    -0.00001904    0.00087517   -0.00013281
     atom  153 type  4   force =     0.00000000    0.00000000    0.00000000
     atom  154 type  4   force =     0.00000000    0.00000000    0.00000000
     atom  155 type  4   force =     0.00000000    0.00000000    0.00000000
     atom  156 type  4   force =     0.00000000    0.00000000    0.00000000
     atom  157 type  4   force =     0.00000000    0.00000000    0.00000000
     atom  158 type  4   force =     0.00000000    0.00000000    0.00000000
     atom  159 type  4   force =     0.00000000    0.00000000    0.00000000
     atom  160 type  4   force =     0.00000000    0.00000000    0.00000000
     atom  161 type  4   force =     0.00000000    0.00000000    0.00000000
     atom  162 type  4   force =     0.00000000    0.00000000    0.00000000
     atom  163 type  4   force =     0.00000000    0.00000000    0.00000000
     atom  164 type  4   force =     0.00000000    0.00000000    0.00000000
     atom  165 type  4   force =     0.00000000    0.00000000    0.00000000
     atom  166 type  4   force =     0.00000000    0.00000000    0.00000000
     atom  167 type  4   force =     0.00000000    0.00000000    0.00000000
     atom  168 type  4   force =     0.00000000    0.00000000    0.00000000
     atom  169 type  4   force =     0.00000000    0.00000000    0.00000000
     atom  170 type  4   force =     0.00000000    0.00000000    0.00000000
     atom  171 type  4   force =     0.00000000    0.00000000    0.00000000
     atom  172 type  4   force =     0.00000000    0.00000000    0.00000000
     atom  173 type  4   force =     0.00000000    0.00000000    0.00000000
     atom  174 type  4   force =     0.00000000    0.00000000    0.00000000
     atom  175 type  4   force =     0.00000000    0.00000000    0.00000000
     atom  176 type  4   force =     0.00000000    0.00000000    0.00000000
     The Hubbard contrib.    to forces
     atom    1 type  1   force =     0.00000000    0.00000000    0.00000000
     atom    2 type  1   force =     0.00000000    0.00000000    0.00000000
     atom    3 type  1   force =     0.00000000    0.00000000    0.00000000
     atom    4 type  1   force =     0.00000000    0.00000000    0.00000000
     atom    5 type  1   force =     0.00000000    0.00000000    0.00000000
     atom    6 type  1   force =     0.00000000    0.00000000    0.00000000
     atom    7 type  1   force =     0.00000000    0.00000000    0.00000000
     atom    8 type  1   force =     0.00000000    0.00000000    0.00000000
     atom    9 type  1   force =     0.00000000    0.00000000    0.00000000
     atom   10 type  1   force =     0.00000000    0.00000000    0.00000000
     atom   11 type  1   force =     0.00000000    0.00000000    0.00000000
     atom   12 type  1   force =     0.00000000    0.00000000    0.00000000
     atom   13 type  2   force =     0.00000000    0.00000000    0.00000000
     atom   14 type  2   force =     0.00000000    0.00000000    0.00000000
     atom   15 type  2   force =     0.00000000    0.00000000    0.00000000
     atom   16 type  2   force =     0.00000000    0.00000000    0.00000000
     atom   17 type  2   force =     0.00000000    0.00000000    0.00000000
     atom   18 type  2   force =     0.00000000    0.00000000    0.00000000
     atom   19 type  2   force =     0.00000000    0.00000000    0.00000000
     atom   20 type  2   force =     0.00000000    0.00000000    0.00000000
     atom   21 type  2   force =     0.00000000    0.00000000    0.00000000
     atom   22 type  2   force =     0.00000000    0.00000000    0.00000000
     atom   23 type  2   force =     0.00000000    0.00000000    0.00000000
     atom   24 type  2   force =     0.00000000    0.00000000    0.00000000
     atom   25 type  2   force =     0.00000000    0.00000000    0.00000000
     atom   26 type  2   force =     0.00000000    0.00000000    0.00000000
     atom   27 type  2   force =     0.00000000    0.00000000    0.00000000
     atom   28 type  2   force =     0.00000000    0.00000000    0.00000000
     atom   29 type  2   force =     0.00000000    0.00000000    0.00000000
     atom   30 type  2   force =     0.00000000    0.00000000    0.00000000
     atom   31 type  2   force =     0.00000000    0.00000000    0.00000000
     atom   32 type  2   force =     0.00000000    0.00000000    0.00000000
     atom   33 type  2   force =     0.00000000    0.00000000    0.00000000
     atom   34 type  2   force =     0.00000000    0.00000000    0.00000000
     atom   35 type  2   force =     0.00000000    0.00000000    0.00000000
     atom   36 type  2   force =     0.00000000    0.00000000    0.00000000
     atom   37 type  1   force =     0.00000000    0.00000000    0.00000000
     atom   38 type  1   force =     0.00000000    0.00000000    0.00000000
     atom   39 type  1   force =     0.00000000    0.00000000    0.00000000
     atom   40 type  1   force =     0.00000000    0.00000000    0.00000000
     atom   41 type  1   force =     0.00000000    0.00000000    0.00000000
     atom   42 type  1   force =     0.00000000    0.00000000    0.00000000
     atom   43 type  1   force =     0.00000000    0.00000000    0.00000000
     atom   44 type  1   force =     0.00000000    0.00000000    0.00000000
     atom   45 type  1   force =     0.00000000    0.00000000    0.00000000
     atom   46 type  1   force =     0.00000000    0.00000000    0.00000000
     atom   47 type  1   force =     0.00000000    0.00000000    0.00000000
     atom   48 type  1   force =     0.00000000    0.00000000    0.00000000
     atom   49 type  1   force =     0.00000000    0.00000000    0.00000000
     atom   50 type  1   force =     0.00000000    0.00000000    0.00000000
     atom   51 type  2   force =     0.00000000    0.00000000    0.00000000
     atom   52 type  2   force =     0.00000000    0.00000000    0.00000000
     atom   53 type  2   force =     0.00000000    0.00000000    0.00000000
     atom   54 type  2   force =     0.00000000    0.00000000    0.00000000
     atom   55 type  2   force =     0.00000000    0.00000000    0.00000000
     atom   56 type  2   force =     0.00000000    0.00000000    0.00000000
     atom   57 type  2   force =     0.00000000    0.00000000    0.00000000
     atom   58 type  2   force =     0.00000000    0.00000000    0.00000000
     atom   59 type  2   force =     0.00000000    0.00000000    0.00000000
     atom   60 type  2   force =     0.00000000    0.00000000    0.00000000
     atom   61 type  2   force =     0.00000000    0.00000000    0.00000000
     atom   62 type  2   force =     0.00000000    0.00000000    0.00000000
     atom   63 type  2   force =     0.00000000    0.00000000    0.00000000
     atom   64 type  2   force =     0.00000000    0.00000000    0.00000000
     atom   65 type  2   force =     0.00000000    0.00000000    0.00000000
     atom   66 type  2   force =     0.00000000    0.00000000    0.00000000
     atom   67 type  2   force =     0.00000000    0.00000000    0.00000000
     atom   68 type  2   force =     0.00000000    0.00000000    0.00000000
     atom   69 type  2   force =     0.00000000    0.00000000    0.00000000
     atom   70 type  2   force =     0.00000000    0.00000000    0.00000000
     atom   71 type  2   force =     0.00000000    0.00000000    0.00000000
     atom   72 type  2   force =     0.00000000    0.00000000    0.00000000
     atom   73 type  2   force =     0.00000000    0.00000000    0.00000000
     atom   74 type  2   force =     0.00000000    0.00000000    0.00000000
     atom   75 type  1   force =     0.00000000    0.00000000    0.00000000
     atom   76 type  1   force =     0.00000000    0.00000000    0.00000000
     atom   77 type  1   force =     0.00000000    0.00000000    0.00000000
     atom   78 type  1   force =     0.00000000    0.00000000    0.00000000
     atom   79 type  1   force =     0.00000000    0.00000000    0.00000000
     atom   80 type  1   force =     0.00000000    0.00000000    0.00000000
     atom   81 type  1   force =     0.00000000    0.00000000    0.00000000
     atom   82 type  1   force =     0.00000000    0.00000000    0.00000000
     atom   83 type  1   force =     0.00000000    0.00000000    0.00000000
     atom   84 type  1   force =     0.00000000    0.00000000    0.00000000
     atom   85 type  1   force =     0.00000000    0.00000000    0.00000000
     atom   86 type  1   force =     0.00000000    0.00000000    0.00000000
     atom   87 type  3   force =     0.00000000    0.00000000    0.00000000
     atom   88 type  1   force =     0.00000000    0.00000000    0.00000000
     atom   89 type  1   force =     0.00000000    0.00000000    0.00000000
     atom   90 type  1   force =     0.00000000    0.00000000    0.00000000
     atom   91 type  2   force =     0.00000000    0.00000000    0.00000000
     atom   92 type  2   force =     0.00000000    0.00000000    0.00000000
     atom   93 type  2   force =     0.00000000    0.00000000    0.00000000
     atom   94 type  2   force =     0.00000000    0.00000000    0.00000000
     atom   95 type  2   force =     0.00000000    0.00000000    0.00000000
     atom   96 type  2   force =     0.00000000    0.00000000    0.00000000
     atom   97 type  2   force =     0.00000000    0.00000000    0.00000000
     atom   98 type  2   force =     0.00000000    0.00000000    0.00000000
     atom   99 type  2   force =     0.00000000    0.00000000    0.00000000
     atom  100 type  2   force =     0.00000000    0.00000000    0.00000000
     atom  101 type  2   force =     0.00000000    0.00000000    0.00000000
     atom  102 type  2   force =     0.00000000    0.00000000    0.00000000
     atom  103 type  2   force =     0.00000000    0.00000000    0.00000000
     atom  104 type  2   force =     0.00000000    0.00000000    0.00000000
     atom  105 type  2   force =     0.00000000    0.00000000    0.00000000
     atom  106 type  2   force =     0.00000000    0.00000000    0.00000000
     atom  107 type  2   force =     0.00000000    0.00000000    0.00000000
     atom  108 type  2   force =     0.00000000    0.00000000    0.00000000
     atom  109 type  2   force =     0.00000000    0.00000000    0.00000000
     atom  110 type  2   force =     0.00000000    0.00000000    0.00000000
     atom  111 type  2   force =     0.00000000    0.00000000    0.00000000
     atom  112 type  2   force =     0.00000000    0.00000000    0.00000000
     atom  113 type  2   force =     0.00000000    0.00000000    0.00000000
     atom  114 type  2   force =     0.00000000    0.00000000    0.00000000
     atom  115 type  1   force =     0.00000000    0.00000000    0.00000000
     atom  116 type  1   force =     0.00000000    0.00000000    0.00000000
     atom  117 type  1   force =     0.00000000    0.00000000    0.00000000
     atom  118 type  1   force =     0.00000000    0.00000000    0.00000000
     atom  119 type  1   force =     0.00000000    0.00000000    0.00000000
     atom  120 type  1   force =     0.00000000    0.00000000    0.00000000
     atom  121 type  1   force =     0.00000000    0.00000000    0.00000000
     atom  122 type  1   force =     0.00000000    0.00000000    0.00000000
     atom  123 type  1   force =     0.00000000    0.00000000    0.00000000
     atom  124 type  1   force =     0.00000000    0.00000000    0.00000000
     atom  125 type  1   force =     0.00000000    0.00000000    0.00000000
     atom  126 type  1   force =     0.00000000    0.00000000    0.00000000
     atom  127 type  1   force =     0.00000000    0.00000000    0.00000000
     atom  128 type  1   force =     0.00000000    0.00000000    0.00000000
     atom  129 type  2   force =     0.00000000    0.00000000    0.00000000
     atom  130 type  2   force =     0.00000000    0.00000000    0.00000000
     atom  131 type  2   force =     0.00000000    0.00000000    0.00000000
     atom  132 type  2   force =     0.00000000    0.00000000    0.00000000
     atom  133 type  2   force =     0.00000000    0.00000000    0.00000000
     atom  134 type  2   force =     0.00000000    0.00000000    0.00000000
     atom  135 type  2   force =     0.00000000    0.00000000    0.00000000
     atom  136 type  2   force =     0.00000000    0.00000000    0.00000000
     atom  137 type  2   force =     0.00000000    0.00000000    0.00000000
     atom  138 type  2   force =     0.00000000    0.00000000    0.00000000
     atom  139 type  2   force =     0.00000000    0.00000000    0.00000000
     atom  140 type  2   force =     0.00000000    0.00000000    0.00000000
     atom  141 type  2   force =     0.00000000    0.00000000    0.00000000
     atom  142 type  2   force =     0.00000000    0.00000000    0.00000000
     atom  143 type  2   force =     0.00000000    0.00000000    0.00000000
     atom  144 type  2   force =     0.00000000    0.00000000    0.00000000
     atom  145 type  2   force =     0.00000000    0.00000000    0.00000000
     atom  146 type  2   force =     0.00000000    0.00000000    0.00000000
     atom  147 type  2   force =     0.00000000    0.00000000    0.00000000
     atom  148 type  2   force =     0.00000000    0.00000000    0.00000000
     atom  149 type  2   force =     0.00000000    0.00000000    0.00000000
     atom  150 type  2   force =     0.00000000    0.00000000    0.00000000
     atom  151 type  2   force =     0.00000000    0.00000000    0.00000000
     atom  152 type  2   force =     0.00000000    0.00000000    0.00000000
     atom  153 type  4   force =     0.00000000    0.00000000    0.00000000
     atom  154 type  4   force =     0.00000000    0.00000000    0.00000000
     atom  155 type  4   force =     0.00000000    0.00000000    0.00000000
     atom  156 type  4   force =     0.00000000    0.00000000    0.00000000
     atom  157 type  4   force =     0.00000000    0.00000000    0.00000000
     atom  158 type  4   force =     0.00000000    0.00000000    0.00000000
     atom  159 type  4   force =     0.00000000    0.00000000    0.00000000
     atom  160 type  4   force =     0.00000000    0.00000000    0.00000000
     atom  161 type  4   force =     0.00000000    0.00000000    0.00000000
     atom  162 type  4   force =     0.00000000    0.00000000    0.00000000
     atom  163 type  4   force =     0.00000000    0.00000000    0.00000000
     atom  164 type  4   force =     0.00000000    0.00000000    0.00000000
     atom  165 type  4   force =     0.00000000    0.00000000    0.00000000
     atom  166 type  4   force =     0.00000000    0.00000000    0.00000000
     atom  167 type  4   force =     0.00000000    0.00000000    0.00000000
     atom  168 type  4   force =     0.00000000    0.00000000    0.00000000
     atom  169 type  4   force =     0.00000000    0.00000000    0.00000000
     atom  170 type  4   force =     0.00000000    0.00000000    0.00000000
     atom  171 type  4   force =     0.00000000    0.00000000    0.00000000
     atom  172 type  4   force =     0.00000000    0.00000000    0.00000000
     atom  173 type  4   force =     0.00000000    0.00000000    0.00000000
     atom  174 type  4   force =     0.00000000    0.00000000    0.00000000
     atom  175 type  4   force =     0.00000000    0.00000000    0.00000000
     atom  176 type  4   force =     0.00000000    0.00000000    0.00000000
     The SCF correction term to forces
     atom    1 type  1   force =     0.00000565   -0.00000037   -0.00000530
     atom    2 type  1   force =    -0.00000631   -0.00000425   -0.00000530
     atom    3 type  1   force =    -0.00000532    0.00000155   -0.00000801
     atom    4 type  1   force =    -0.00000677    0.00000542   -0.00000652
     atom    5 type  1   force =    -0.00000645    0.00000201   -0.00000484
     atom    6 type  1   force =    -0.00000694    0.00000233   -0.00000099
     atom    7 type  1   force =     0.00000203   -0.00000268    0.00000004
     atom    8 type  1   force =    -0.00000118    0.00000325    0.00000308
     atom    9 type  1   force =     0.00000010   -0.00000081    0.00000128
     atom   10 type  1   force =     0.00001331    0.00000301   -0.00001489
     atom   11 type  1   force =     0.00000377    0.00000202   -0.00000398
     atom   12 type  1   force =     0.00000023    0.00000200    0.00000410
     atom   13 type  2   force =    -0.00000289   -0.00000396    0.00000706
     atom   14 type  2   force =     0.00000416    0.00000262    0.00000785
     atom   15 type  2   force =     0.00000352   -0.00000216   -0.00000030
     atom   16 type  2   force =    -0.00000248    0.00000623   -0.00000122
     atom   17 type  2   force =    -0.00000709    0.00000862   -0.00001200
     atom   18 type  2   force =     0.00000304    0.00000118    0.00001045
     atom   19 type  2   force =     0.00001050   -0.00000951   -0.00001028
     atom   20 type  2   force =    -0.00000142   -0.00000254    0.00000710
     atom   21 type  2   force =    -0.00000497    0.00000186    0.00000293
     atom   22 type  2   force =     0.00000139    0.00000140    0.00000325
     atom   23 type  2   force =    -0.00001337    0.00001085   -0.00002065
     atom   24 type  2   force =    -0.00000111   -0.00000148   -0.00000338
     atom   25 type  2   force =     0.00001057    0.00001065   -0.00002105
     atom   26 type  2   force =    -0.00001180   -0.00001201   -0.00002040
     atom   27 type  2   force =    -0.00000378    0.00000298    0.00000106
     atom   28 type  2   force =    -0.00001501    0.00001546   -0.00001501
     atom   29 type  2   force =    -0.00000254    0.00000164    0.00001086
     atom   30 type  2   force =     0.00000893    0.00001067   -0.00001102
     atom   31 type  2   force =     0.00000042   -0.00000195    0.00001198
     atom   32 type  2   force =    -0.00001230   -0.00000765   -0.00001001
     atom   33 type  2   force =     0.00001296    0.00001006   -0.00002016
     atom   34 type  2   force =    -0.00000027    0.00000402   -0.00000737
     atom   35 type  2   force =     0.00000333    0.00000550    0.00000170
     atom   36 type  2   force =    -0.00000525   -0.00000034    0.00000408
     atom   37 type  1   force =     0.00000521   -0.00001385   -0.00001493
     atom   38 type  1   force =    -0.00000425   -0.00000659   -0.00000576
     atom   39 type  1   force =     0.00000755   -0.00000287   -0.00000820
     atom   40 type  1   force =     0.00000045    0.00001893   -0.00001207
     atom   41 type  1   force =    -0.00000039   -0.00000270   -0.00000118
     atom   42 type  1   force =    -0.00001327    0.00000693   -0.00001864
     atom   43 type  1   force =     0.00001435    0.00001322   -0.00000484
     atom   44 type  1   force =     0.00000476   -0.00000481    0.00000280
     atom   45 type  1   force =     0.00000115   -0.00000446   -0.00000591
     atom   46 type  1   force =     0.00000360   -0.00000025   -0.00000833
     atom   47 type  1   force =    -0.00000410    0.00000331    0.00001078
     atom   48 type  1   force =     0.00000486   -0.00000265   -0.00000882
     atom   49 type  1   force =    -0.00000002    0.00000274    0.00000118
     atom   50 type  1   force =    -0.00001558   -0.00001357   -0.00000281
     atom   51 type  2   force =     0.00000335   -0.00000746   -0.00000698
     atom   52 type  2   force =     0.00000619   -0.00000193   -0.00000561
     atom   53 type  2   force =     0.00001355   -0.00001112   -0.00002230
     atom   54 type  2   force =    -0.00000939    0.00001304   -0.00002172
     atom   55 type  2   force =     0.00000716   -0.00000549   -0.00000793
     atom   56 type  2   force =     0.00000887    0.00000472   -0.00001135
     atom   57 type  2   force =    -0.00000176    0.00000440   -0.00000216
     atom   58 type  2   force =    -0.00000038   -0.00000103   -0.00000168
     atom   59 type  2   force =    -0.00001014   -0.00000650   -0.00001153
     atom   60 type  2   force =     0.00001134   -0.00001163   -0.00001748
     atom   61 type  2   force =    -0.00000718    0.00000417    0.00000262
     atom   62 type  2   force =     0.00000391   -0.00000228    0.00000021
     atom   63 type  2   force =     0.00000152    0.00000204   -0.00000582
     atom   64 type  2   force =    -0.00000640   -0.00000450    0.00000119
     atom   65 type  2   force =    -0.00000092    0.00000168    0.00000535
     atom   66 type  2   force =    -0.00000129   -0.00000152    0.00001074
     atom   67 type  2   force =    -0.00000354   -0.00000213   -0.00000239
     atom   68 type  2   force =     0.00000133   -0.00000459   -0.00000210
     atom   69 type  2   force =    -0.00000654   -0.00000443   -0.00000430
     atom   70 type  2   force =     0.00000081    0.00000286   -0.00000282
     atom   71 type  2   force =     0.00000579   -0.00000132    0.00000258
     atom   72 type  2   force =     0.00000038   -0.00000415    0.00000239
     atom   73 type  2   force =     0.00000522    0.00000383   -0.00001010
     atom   74 type  2   force =    -0.00001459   -0.00001119   -0.00001927
     atom   75 type  1   force =     0.00000531    0.00000154    0.00000770
     atom   76 type  1   force =    -0.00000045    0.00001894    0.00001176
     atom   77 type  1   force =    -0.00000566   -0.00000037    0.00000428
     atom   78 type  1   force =     0.00000426   -0.00000660    0.00000545
     atom   79 type  1   force =     0.00000694    0.00000232   -0.00000003
     atom   80 type  1   force =     0.00000647    0.00000200    0.00000453
     atom   81 type  1   force =    -0.00000202   -0.00000269   -0.00000102
     atom   82 type  1   force =     0.00000118    0.00000327   -0.00000406
     atom   83 type  1   force =    -0.00000477   -0.00000481   -0.00000372
     atom   84 type  1   force =    -0.00001435    0.00001322    0.00000480
     atom   85 type  1   force =    -0.00000377    0.00000201    0.00000296
     atom   86 type  1   force =    -0.00001332    0.00000301    0.00001457
     atom   87 type  3   force =     0.00000000    0.00004719   -0.00000002
     atom   88 type  1   force =    -0.00000000    0.00000534   -0.00000002
     atom   89 type  1   force =     0.00001558   -0.00001357    0.00000277
     atom   90 type  1   force =     0.00000003    0.00000274   -0.00000207
     atom   91 type  2   force =    -0.00000353   -0.00000216    0.00000001
     atom   92 type  2   force =     0.00000248    0.00000623    0.00000092
     atom   93 type  2   force =     0.00000289   -0.00000396   -0.00000760
     atom   94 type  2   force =    -0.00000415    0.00000262   -0.00000839
     atom   95 type  2   force =     0.00000038   -0.00000103    0.00000162
     atom   96 type  2   force =     0.00000175    0.00000441    0.00000191
     atom   97 type  2   force =    -0.00000887    0.00000472    0.00001130
     atom   98 type  2   force =    -0.00000716   -0.00000549    0.00000768
     atom   99 type  2   force =    -0.00000139    0.00000140   -0.00000356
     atom  100 type  2   force =     0.00000496    0.00000186   -0.00000347
     atom  101 type  2   force =     0.00000111   -0.00000148    0.00000334
     atom  102 type  2   force =     0.00001335    0.00001085    0.00002044
     atom  103 type  2   force =     0.00000378    0.00000298   -0.00000110
     atom  104 type  2   force =     0.00001501    0.00001546    0.00001498
     atom  105 type  2   force =    -0.00001056    0.00001063    0.00002082
     atom  106 type  2   force =     0.00001178   -0.00001199    0.00002016
     atom  107 type  2   force =    -0.00000081    0.00000287    0.00000257
     atom  108 type  2   force =     0.00000654   -0.00000443    0.00000424
     atom  109 type  2   force =    -0.00000133   -0.00000460    0.00000184
     atom  110 type  2   force =     0.00000354   -0.00000213    0.00000233
     atom  111 type  2   force =     0.00000027    0.00000402    0.00000733
     atom  112 type  2   force =    -0.00001296    0.00001006    0.00001994
     atom  113 type  2   force =     0.00000525   -0.00000034   -0.00000439
     atom  114 type  2   force =    -0.00000334    0.00000551   -0.00000224
     atom  115 type  1   force =    -0.00000752   -0.00000287    0.00000718
     atom  116 type  1   force =     0.00000674    0.00000540    0.00000551
     atom  117 type  1   force =    -0.00000522   -0.00001385    0.00001460
     atom  118 type  1   force =     0.00000632   -0.00000424    0.00000430
     atom  119 type  1   force =     0.00001327    0.00000694    0.00001832
     atom  120 type  1   force =     0.00000038   -0.00000269    0.00000016
     atom  121 type  1   force =     0.00000000   -0.00000012   -0.00000002
     atom  122 type  1   force =    -0.00000000   -0.00000551   -0.00000002
     atom  123 type  1   force =    -0.00000009   -0.00000081   -0.00000229
     atom  124 type  1   force =    -0.00000359   -0.00000025    0.00000801
     atom  125 type  1   force =    -0.00000112   -0.00000445    0.00000490
     atom  126 type  1   force =     0.00000409    0.00000331   -0.00001176
     atom  127 type  1   force =    -0.00000484   -0.00000265    0.00000785
     atom  128 type  1   force =    -0.00000024    0.00000200   -0.00000514
     atom  129 type  2   force =    -0.00001352   -0.00001111    0.00002206
     atom  130 type  2   force =     0.00000937    0.00001302    0.00002148
     atom  131 type  2   force =    -0.00000335   -0.00000746    0.00000694
     atom  132 type  2   force =    -0.00000620   -0.00000193    0.00000557
     atom  133 type  2   force =     0.00000143   -0.00000254   -0.00000763
     atom  134 type  2   force =    -0.00001048   -0.00000951    0.00000999
     atom  135 type  2   force =    -0.00000304    0.00000118   -0.00001099
     atom  136 type  2   force =     0.00000707    0.00000862    0.00001171
     atom  137 type  2   force =    -0.00001132   -0.00001163    0.00001726
     atom  138 type  2   force =     0.00001014   -0.00000650    0.00001150
     atom  139 type  2   force =    -0.00000391   -0.00000228   -0.00000075
     atom  140 type  2   force =     0.00000719    0.00000417   -0.00000293
     atom  141 type  2   force =     0.00000093    0.00000168   -0.00000589
     atom  142 type  2   force =     0.00000129   -0.00000152   -0.00001129
     atom  143 type  2   force =    -0.00000152    0.00000204    0.00000553
     atom  144 type  2   force =     0.00000641   -0.00000450   -0.00000149
     atom  145 type  2   force =     0.00001229   -0.00000765    0.00000972
     atom  146 type  2   force =    -0.00000042   -0.00000196   -0.00001252
     atom  147 type  2   force =    -0.00000893    0.00001066    0.00001073
     atom  148 type  2   force =     0.00000253    0.00000165   -0.00001141
     atom  149 type  2   force =    -0.00000036   -0.00000415   -0.00000292
     atom  150 type  2   force =    -0.00000580   -0.00000132   -0.00000290
     atom  151 type  2   force =     0.00001459   -0.00001119    0.00001905
     atom  152 type  2   force =    -0.00000522    0.00000383    0.00001006
     atom  153 type  4   force =     0.00000056   -0.00000091   -0.00000135
     atom  154 type  4   force =    -0.00000020    0.00000064   -0.00000110
     atom  155 type  4   force =    -0.00000020    0.00000009   -0.00000004
     atom  156 type  4   force =     0.00000032    0.00000018   -0.00000035
     atom  157 type  4   force =    -0.00000054   -0.00000047   -0.00000031
     atom  158 type  4   force =    -0.00000032   -0.00000067   -0.00000118
     atom  159 type  4   force =     0.00000009    0.00000096   -0.00000108
     atom  160 type  4   force =    -0.00000003   -0.00000022    0.00000035
     atom  161 type  4   force =     0.00000052   -0.00000028   -0.00000031
     atom  162 type  4   force =     0.00000004    0.00000023    0.00000015
     atom  163 type  4   force =    -0.00000028    0.00000012    0.00000058
     atom  164 type  4   force =    -0.00000011   -0.00000000    0.00000027
     atom  165 type  4   force =     0.00000021    0.00000010    0.00000004
     atom  166 type  4   force =    -0.00000032    0.00000019    0.00000035
     atom  167 type  4   force =     0.00000054   -0.00000048    0.00000031
     atom  168 type  4   force =     0.00000002   -0.00000021   -0.00000035
     atom  169 type  4   force =    -0.00000052   -0.00000028    0.00000031
     atom  170 type  4   force =    -0.00000004    0.00000024   -0.00000015
     atom  171 type  4   force =     0.00000020    0.00000064    0.00000107
     atom  172 type  4   force =    -0.00000056   -0.00000090    0.00000131
     atom  173 type  4   force =     0.00000028    0.00000012   -0.00000058
     atom  174 type  4   force =    -0.00000009    0.00000095    0.00000105
     atom  175 type  4   force =     0.00000032   -0.00000066    0.00000114
     atom  176 type  4   force =     0.00000012   -0.00000001   -0.00000027

     Total force =     0.005386     Total SCF correction =     0.000174


     Computing stress (Cartesian axis) and pressure


     negative rho (up, down):  4.591E-02 0.000E+00
          total   stress  (Ry/bohr**3)                   (kbar)     P=        1.80
   0.00001904   0.00000000   0.00000145            2.80        0.00        0.21
   0.00000000   0.00001936   0.00000000            0.00        2.85        0.00
   0.00000145   0.00000000  -0.00000180            0.21        0.00       -0.26

     kinetic stress (kbar)  12760.23      0.00     -0.12
                                0.00  12752.95      0.00
                               -0.12      0.00  12720.17

     local   stress (kbar)**********     -0.00     -1.60
                               -0.00**********      0.00
                               -1.60      0.001219044.87

     nonloc. stress (kbar)  -1018.68      0.00      0.20
                                0.00  -1018.00      0.00
                                0.20      0.00  -1019.54

     hartree stress (kbar) 612551.34     -0.00      2.90
                               -0.00 612736.82     -0.00
                                2.90     -0.00-604814.65

     exc-cor stress (kbar)   4598.91     -0.00     -0.04
                               -0.00   4599.30     -0.00
                               -0.04     -0.00   4598.95

     corecor stress (kbar)  -7679.88     -0.00      0.02
                               -0.00  -7679.95     -0.00
                                0.02     -0.00  -7679.83

     ewald   stress (kbar) 600868.64      0.00     -1.15
                                0.00 601149.11     -0.00
                               -1.15     -0.00-622850.24

     hubbard stress (kbar)      0.00      0.00      0.00
                                0.00      0.00      0.00
                                0.00      0.00      0.00

     DFT-D   stress (kbar)      0.00      0.00      0.00
                                0.00      0.00      0.00
                                0.00      0.00      0.00

     XDM     stress (kbar)      0.00      0.00      0.00
                                0.00      0.00      0.00
                                0.00      0.00      0.00

     dft-nl  stress (kbar)      0.00      0.00      0.00
                                0.00      0.00      0.00
                                0.00      0.00      0.00

     TS-vdW  stress (kbar)      0.00      0.00      0.00
                                0.00      0.00      0.00
                                0.00      0.00      0.00

     MDB     stress (kbar)      0.00      0.00      0.00
                                0.00      0.00      0.00
                                0.00      0.00      0.00

     3D-RISM stress (kbar)      0.00      0.00      0.00
                                0.00      0.00      0.00
                                0.00      0.00      0.00


     Writing all to output data dir ./tmp/slab.save/ :
     XML data file, charge density, pseudopotentials, collected wavefunctions

     init_run     :    129.97s CPU    136.31s WALL (       1 calls)
     electrons    :  27355.76s CPU  28602.07s WALL (       1 calls)
     forces       :     84.59s CPU     87.89s WALL (       1 calls)
     stress       :    268.21s CPU    274.68s WALL (       1 calls)

     Called by init_run:
     wfcinit      :    120.59s CPU    126.15s WALL (       1 calls)
     wfcinit:atom :      0.19s CPU      0.31s WALL (       4 calls)
     wfcinit:wfcr :    117.88s CPU    123.08s WALL (       4 calls)
     potinit      :      2.22s CPU      2.31s WALL (       1 calls)
     hinit0       :      0.97s CPU      1.02s WALL (       1 calls)

     Called by electrons:
     c_bands      :  24264.47s CPU  25237.58s WALL (      91 calls)
     sum_band     :   2609.85s CPU   2805.28s WALL (      91 calls)
     v_of_rho     :     28.64s CPU     31.59s WALL (      92 calls)
     v_h          :      1.94s CPU      2.35s WALL (      92 calls)
     v_xc         :     27.20s CPU     29.87s WALL (      94 calls)
     newd         :    230.28s CPU    283.04s WALL (      92 calls)
     PAW_pot      :    124.19s CPU    125.89s WALL (      92 calls)
     mix_rho      :     99.10s CPU    119.16s WALL (      91 calls)

     Called by c_bands:
     init_us_2    :     96.25s CPU     98.08s WALL (     740 calls)
     cegterg      :  24039.23s CPU  25008.20s WALL (     364 calls)

     Called by sum_band:
     sum_band:wei :      0.24s CPU      0.25s WALL (      91 calls)
     sum_band:loo :   2363.02s CPU   2499.77s WALL (      91 calls)
     sum_band:buf :     14.60s CPU     15.01s WALL (     364 calls)
     sum_band:ini :     45.01s CPU     45.85s WALL (     364 calls)
     sum_band:cal :   1652.12s CPU   1679.88s WALL (     364 calls)
     sum_band:bec :      3.73s CPU      3.79s WALL (     364 calls)
     addusdens    :    177.71s CPU    233.85s WALL (      91 calls)
                                        0.00s GPU  (      91 calls)
     addusd:skk   :     14.39s CPU     23.61s WALL (     364 calls)
                                        0.00s GPU  (     364 calls)

     Called by *egterg:
     cdiaghg      :    515.48s CPU    542.31s WALL (    1829 calls)
     cegterg:over :   3814.62s CPU   3871.81s WALL (    1465 calls)
     cegterg:upda :   1671.19s CPU   1712.88s WALL (    1465 calls)
     cegterg:last :   4459.26s CPU   4543.67s WALL (     709 calls)
     cdiaghg:chol :     38.87s CPU     39.35s WALL (    1829 calls)
     cdiaghg:inve :     46.21s CPU     46.71s WALL (    1829 calls)
     cdiaghg:para :    100.77s CPU    111.14s WALL (    3658 calls)
     h_psi        :   9320.35s CPU   9957.29s WALL (    1833 calls)
     s_psi        :   2491.97s CPU   2526.30s WALL (    1833 calls)
     g_psi        :     23.82s CPU     24.32s WALL (    1465 calls)

     Called by h_psi:
     h_psi:calbec :   3761.55s CPU   3828.91s WALL (    1833 calls)
     vloc_psi     :   3007.83s CPU   3514.81s WALL (    1833 calls)
                                        0.00s GPU  (    1833 calls)
     add_vuspsi   :   2539.02s CPU   2577.35s WALL (    1833 calls)

     General routines
     calbec       :   5703.65s CPU   5804.48s WALL (    2265 calls)
     fft          :     24.47s CPU     29.31s WALL (    1219 calls)
     ffts         :     46.28s CPU     64.85s WALL (   11253 calls)
     fftw         :   3412.13s CPU   4018.03s WALL ( 1377388 calls)
     interpolate  :      2.58s CPU      3.08s WALL (      92 calls)

     Parallel routines

     PAW routines
     PAW_pot      :    124.19s CPU    125.89s WALL (      92 calls)
     PAW_symme    :      0.24s CPU      0.33s WALL (     183 calls)

     PWSCF        :      7h44m CPU      8h 5m WALL


   This run was terminated on:   2:27:54   6Oct2026            

=------------------------------------------------------------------------------=
   JOB DONE.
=------------------------------------------------------------------------------=
Note: The following floating-point exceptions are signalling: IEEE_UNDERFLOW_FLAG IEEE_DENORMAL
Note: The following floating-point exceptions are signalling: IEEE_UNDERFLOW_FLAG IEEE_DENORMAL
Note: The following floating-point exceptions are signalling: IEEE_UNDERFLOW_FLAG IEEE_DENORMAL
Note: The following floating-point exceptions are signalling: IEEE_UNDERFLOW_FLAG IEEE_DENORMAL
Note: The following floating-point exceptions are signalling: IEEE_UNDERFLOW_FLAG IEEE_DENORMAL
Note: The following floating-point exceptions are signalling: IEEE_UNDERFLOW_FLAG IEEE_DENORMAL
Note: The following floating-point exceptions are signalling: IEEE_UNDERFLOW_FLAG IEEE_DENORMAL
Note: The following floating-point exceptions are signalling: IEEE_UNDERFLOW_FLAG IEEE_DENORMAL
Note: The following floating-point exceptions are signalling: IEEE_UNDERFLOW_FLAG IEEE_DENORMAL
Note: The following floating-point exceptions are signalling: IEEE_UNDERFLOW_FLAG IEEE_DENORMAL
Note: The following floating-point exceptions are signalling: IEEE_UNDERFLOW_FLAG IEEE_DENORMAL
Note: The following floating-point exceptions are signalling: IEEE_UNDERFLOW_FLAG IEEE_DENORMAL
Note: The following floating-point exceptions are signalling: IEEE_UNDERFLOW_FLAG IEEE_DENORMAL
Note: The following floating-point exceptions are signalling: IEEE_UNDERFLOW_FLAG IEEE_DENORMAL
Note: The following floating-point exceptions are signalling: IEEE_UNDERFLOW_FLAG IEEE_DENORMAL
Note: The following floating-point exceptions are signalling: IEEE_UNDERFLOW_FLAG IEEE_DENORMAL
Note: The following floating-point exceptions are signalling: IEEE_UNDERFLOW_FLAG IEEE_DENORMAL
Note: The following floating-point exceptions are signalling: IEEE_UNDERFLOW_FLAG IEEE_DENORMAL
Note: The following floating-point exceptions are signalling: IEEE_UNDERFLOW_FLAG IEEE_DENORMAL
