
     Program PWSCF v.7.5 starts on 27Sep2026 at  9:24:23 

     This program is part of the open-source Quantum ESPRESSO suite
     for quantum simulation of materials; please cite
         "P. Giannozzi et al., J. Phys.:Condens. Matter 21 395502 (2009);
         "P. Giannozzi et al., J. Phys.:Condens. Matter 29 465901 (2017);
         "P. Giannozzi et al., J. Chem. Phys. 152 154105 (2020);
          URL http://www.quantum-espresso.org", 
     in publications or presentations arising from this work. More details at
     http://www.quantum-espresso.org/quote

     Parallel version (MPI & OpenMP), running on      10 processor cores
     Number of MPI processes:                10
     Threads/MPI process:                     1

     MPI processes distributed on     1 nodes
     12963 MiB available memory on the printing compute node when the environment starts

     Reading input from bands_gamma.in
Warning: card &IONS ignored
Warning: card &CELL ignored
Warning: card   PRESS_CONV_THR = 0.2 ignored

     Current dimensions of program PWSCF are:
     Max number of different atomic species (ntypx) = 10
     Max number of k-points (npk) =  40000
     Max angular momentum in pseudopotentials (lmaxx) =  4
     file In.pbe-dn-kjpaw_psl.1.0.0.UPF: wavefunction(s)  5S 5P 4D renormalized
     file O.pbe-n-kjpaw_psl.1.0.0.UPF: wavefunction(s)  2S 2P renormalized

     Atomic positions and unit cell read from directory:
     ./tmp/vcr.save/
     Atomic positions from file used, from input discarded

     Message from routine setup:
     using ibrav=0 with symmetry is DISCOURAGED, use correct ibrav instead

     K-points division:     npool     =       2
     R & G space division:  proc/nbgrp/npool/nimage =       5
     Subspace diagonalization in iterative solution of the eigenvalue problem:
     one sub-group per band group will be used
     ELPA distributed-memory algorithm (size of sub-group:  2*  2 procs)


     Parallelization info
     --------------------
     sticks:   dense  smooth     PW     G-vecs:    dense   smooth      PW
     Min        2419    1213    309               168858    59743    7673
     Max        2420    1213    310               168862    59744    7674
     Sum       12097    6065   1547               844297   298717   38367

     Using Slab Decomposition



     bravais-lattice index     =            0
     lattice parameter (alat)  =      16.5570  a.u.
     unit-cell volume          =    3693.5878 (a.u.)^3
     number of atoms/cell      =           40
     number of atomic types    =            2
     number of electrons       =       352.00
     number of Kohn-Sham states=          190
     kinetic-energy cutoff     =      71.0000  Ry
     charge density cutoff     =     568.0000  Ry
     Exchange-correlation= SLA  PW   PBX  PBC
                           (   1   4   3   4   0   0   0)

     celldm(1)=  16.866440  celldm(2)=   0.000000  celldm(3)=   0.000000
     celldm(4)=   0.000000  celldm(5)=   0.000000  celldm(6)=   0.000000

     crystal axes: (cart. coord. in units of alat)
               a(1) = (  -0.588141   0.588141   0.588141 )  
               a(2) = (   0.588141  -0.588141   0.588141 )  
               a(3) = (   0.588141   0.588141  -0.588141 )  

     reciprocal axes: (cart. coord. in units 2 pi/alat)
               b(1) = (  0.000000  0.850136  0.850136 )  
               b(2) = (  0.850136  0.000000  0.850136 )  
               b(3) = (  0.850136  0.850136  0.000000 )  


     PseudoPot. # 1 for In read from file:
     ../pseudo/In.pbe-dn-kjpaw_psl.1.0.0.UPF
     MD5 check sum: 235b15e6a7fdfd96486e0ecdcb5b12c6
     Pseudo is Projector augmented-wave + core cor, Zval = 13.0
     Generated using &quot;atomic&quot; code by A. Dal Corso  v.6.3
     Shape of augmentation charge: PSQ
     Using radial grid of 1241 points,  6 beta functions with: 
                l(1) =   0
                l(2) =   0
                l(3) =   1
                l(4) =   1
                l(5) =   2
                l(6) =   2
     Q(r) pseudized with 0 coefficients 


     PseudoPot. # 2 for O  read from file:
     ../pseudo/O.pbe-n-kjpaw_psl.1.0.0.UPF
     MD5 check sum: e99d9cef9b487d1ca56f5b95ecd0fd7a
     Pseudo is Projector augmented-wave + core cor, Zval =  6.0
     Generated using &quot;atomic&quot; code by A. Dal Corso  v.6.3
     Shape of augmentation charge: PSQ
     Using radial grid of 1095 points,  4 beta functions with: 
                l(1) =   0
                l(2) =   0
                l(3) =   1
                l(4) =   1
     Q(r) pseudized with 0 coefficients 


     atomic species   valence    mass     pseudopotential
     In               13.00   114.81800     In( 1.00)
     O                 6.00    15.99900     O ( 1.00)

     24 Sym. Ops., with inversion, found (18 have fractional translation)


                                    s                        frac. trans.

      isym =  1     identity                                     

 cryst.   s( 1) = (     1          0          0      )
                  (     0          1          0      )
                  (     0          0          1      )

 cart.    s( 1) = (  1.0000000  0.0000000  0.0000000 )
                  (  0.0000000  1.0000000  0.0000000 )
                  (  0.0000000  0.0000000  1.0000000 )


      isym =  2     180 deg rotation - cart. axis [0,0,1]        

 cryst.   s( 2) = (     0          1          0      )    f =( -0.5000000 )
                  (     1          0          0      )       (  0.0000000 )
                  (    -1         -1         -1      )       ( -0.5000000 )

 cart.    s( 2) = ( -1.0000000  0.0000000  0.0000000 )    f =(  0.0000000 )
                  (  0.0000000 -1.0000000  0.0000000 )       ( -0.5881411 )
                  (  0.0000000  0.0000000  1.0000000 )       (  0.0000000 )


      isym =  3     180 deg rotation - cart. axis [0,1,0]        

 cryst.   s( 3) = (     0          0          1      )    f =(  0.0000000 )
                  (    -1         -1         -1      )       ( -0.5000000 )
                  (     1          0          0      )       ( -0.5000000 )

 cart.    s( 3) = ( -1.0000000  0.0000000  0.0000000 )    f =( -0.5881411 )
                  (  0.0000000  1.0000000  0.0000000 )       (  0.0000000 )
                  (  0.0000000  0.0000000 -1.0000000 )       (  0.0000000 )


      isym =  4     180 deg rotation - cart. axis [1,0,0]        

 cryst.   s( 4) = (    -1         -1         -1      )    f =( -0.5000000 )
                  (     0          0          1      )       ( -0.5000000 )
                  (     0          1          0      )       (  0.0000000 )

 cart.    s( 4) = (  1.0000000  0.0000000  0.0000000 )    f =(  0.0000000 )
                  (  0.0000000 -1.0000000  0.0000000 )       (  0.0000000 )
                  (  0.0000000  0.0000000 -1.0000000 )       ( -0.5881411 )


      isym =  5     120 deg rotation - cart. axis [-1,-1,-1]     

 cryst.   s( 5) = (     0          0          1      )
                  (     1          0          0      )
                  (     0          1          0      )

 cart.    s( 5) = (  0.0000000  1.0000000  0.0000000 )
                  (  0.0000000  0.0000000  1.0000000 )
                  (  1.0000000  0.0000000  0.0000000 )


      isym =  6     120 deg rotation - cart. axis [-1,1,1]       

 cryst.   s( 6) = (     1          0          0      )    f =(  0.0000000 )
                  (     0          0          1      )       ( -0.5000000 )
                  (    -1         -1         -1      )       ( -0.5000000 )

 cart.    s( 6) = (  0.0000000 -1.0000000  0.0000000 )    f =( -0.5881411 )
                  (  0.0000000  0.0000000  1.0000000 )       (  0.0000000 )
                  ( -1.0000000  0.0000000  0.0000000 )       (  0.0000000 )


      isym =  7     120 deg rotation - cart. axis [1,1,-1]       

 cryst.   s( 7) = (     0          1          0      )    f =( -0.5000000 )
                  (    -1         -1         -1      )       ( -0.5000000 )
                  (     0          0          1      )       (  0.0000000 )

 cart.    s( 7) = (  0.0000000  1.0000000  0.0000000 )    f =(  0.0000000 )
                  (  0.0000000  0.0000000 -1.0000000 )       (  0.0000000 )
                  ( -1.0000000  0.0000000  0.0000000 )       ( -0.5881411 )


      isym =  8     120 deg rotation - cart. axis [1,-1,1]       

 cryst.   s( 8) = (    -1         -1         -1      )    f =( -0.5000000 )
                  (     0          1          0      )       (  0.0000000 )
                  (     1          0          0      )       ( -0.5000000 )

 cart.    s( 8) = (  0.0000000 -1.0000000  0.0000000 )    f =(  0.0000000 )
                  (  0.0000000  0.0000000 -1.0000000 )       ( -0.5881411 )
                  (  1.0000000  0.0000000  0.0000000 )       (  0.0000000 )


      isym =  9     120 deg rotation - cart. axis [1,1,1]        

 cryst.   s( 9) = (     0          1          0      )
                  (     0          0          1      )
                  (     1          0          0      )

 cart.    s( 9) = (  0.0000000  0.0000000  1.0000000 )
                  (  1.0000000  0.0000000  0.0000000 )
                  (  0.0000000  1.0000000  0.0000000 )


      isym = 10     120 deg rotation - cart. axis [-1,1,-1]      

 cryst.   s(10) = (     0          0          1      )    f =( -0.5000000 )
                  (     0          1          0      )       ( -0.5000000 )
                  (    -1         -1         -1      )       (  0.0000000 )

 cart.    s(10) = (  0.0000000  0.0000000  1.0000000 )    f =(  0.0000000 )
                  ( -1.0000000  0.0000000  0.0000000 )       (  0.0000000 )
                  (  0.0000000 -1.0000000  0.0000000 )       ( -0.5881411 )


      isym = 11     120 deg rotation - cart. axis [1,-1,-1]      

 cryst.   s(11) = (     1          0          0      )    f =( -0.5000000 )
                  (    -1         -1         -1      )       (  0.0000000 )
                  (     0          1          0      )       ( -0.5000000 )

 cart.    s(11) = (  0.0000000  0.0000000 -1.0000000 )    f =(  0.0000000 )
                  ( -1.0000000  0.0000000  0.0000000 )       ( -0.5881411 )
                  (  0.0000000  1.0000000  0.0000000 )       (  0.0000000 )


      isym = 12     120 deg rotation - cart. axis [-1,-1,1]      

 cryst.   s(12) = (    -1         -1         -1      )    f =(  0.0000000 )
                  (     1          0          0      )       ( -0.5000000 )
                  (     0          0          1      )       ( -0.5000000 )

 cart.    s(12) = (  0.0000000  0.0000000 -1.0000000 )    f =( -0.5881411 )
                  (  1.0000000  0.0000000  0.0000000 )       (  0.0000000 )
                  (  0.0000000 -1.0000000  0.0000000 )       (  0.0000000 )


      isym = 13     inversion                                    

 cryst.   s(13) = (    -1          0          0      )
                  (     0         -1          0      )
                  (     0          0         -1      )

 cart.    s(13) = ( -1.0000000  0.0000000  0.0000000 )
                  (  0.0000000 -1.0000000  0.0000000 )
                  (  0.0000000  0.0000000 -1.0000000 )


      isym = 14     inv. 180 deg rotation - cart. axis [0,0,1]   

 cryst.   s(14) = (     0         -1          0      )    f =( -0.5000000 )
                  (    -1          0          0      )       (  0.0000000 )
                  (     1          1          1      )       ( -0.5000000 )

 cart.    s(14) = (  1.0000000  0.0000000  0.0000000 )    f =(  0.0000000 )
                  (  0.0000000  1.0000000  0.0000000 )       ( -0.5881411 )
                  (  0.0000000  0.0000000 -1.0000000 )       (  0.0000000 )


      isym = 15     inv. 180 deg rotation - cart. axis [0,1,0]   

 cryst.   s(15) = (     0          0         -1      )    f =(  0.0000000 )
                  (     1          1          1      )       ( -0.5000000 )
                  (    -1          0          0      )       ( -0.5000000 )

 cart.    s(15) = (  1.0000000  0.0000000  0.0000000 )    f =( -0.5881411 )
                  (  0.0000000 -1.0000000  0.0000000 )       (  0.0000000 )
                  (  0.0000000  0.0000000  1.0000000 )       (  0.0000000 )


      isym = 16     inv. 180 deg rotation - cart. axis [1,0,0]   

 cryst.   s(16) = (     1          1          1      )    f =( -0.5000000 )
                  (     0          0         -1      )       ( -0.5000000 )
                  (     0         -1          0      )       (  0.0000000 )

 cart.    s(16) = ( -1.0000000  0.0000000  0.0000000 )    f =(  0.0000000 )
                  (  0.0000000  1.0000000  0.0000000 )       (  0.0000000 )
                  (  0.0000000  0.0000000  1.0000000 )       ( -0.5881411 )


      isym = 17     inv. 120 deg rotation - cart. axis [-1,-1,-1]

 cryst.   s(17) = (     0          0         -1      )
                  (    -1          0          0      )
                  (     0         -1          0      )

 cart.    s(17) = (  0.0000000 -1.0000000  0.0000000 )
                  (  0.0000000  0.0000000 -1.0000000 )
                  ( -1.0000000  0.0000000  0.0000000 )


      isym = 18     inv. 120 deg rotation - cart. axis [-1,1,1]  

 cryst.   s(18) = (    -1          0          0      )    f =(  0.0000000 )
                  (     0          0         -1      )       ( -0.5000000 )
                  (     1          1          1      )       ( -0.5000000 )

 cart.    s(18) = (  0.0000000  1.0000000  0.0000000 )    f =( -0.5881411 )
                  (  0.0000000  0.0000000 -1.0000000 )       (  0.0000000 )
                  (  1.0000000  0.0000000  0.0000000 )       (  0.0000000 )


      isym = 19     inv. 120 deg rotation - cart. axis [1,1,-1]  

 cryst.   s(19) = (     0         -1          0      )    f =( -0.5000000 )
                  (     1          1          1      )       ( -0.5000000 )
                  (     0          0         -1      )       (  0.0000000 )

 cart.    s(19) = (  0.0000000 -1.0000000  0.0000000 )    f =(  0.0000000 )
                  (  0.0000000  0.0000000  1.0000000 )       (  0.0000000 )
                  (  1.0000000  0.0000000  0.0000000 )       ( -0.5881411 )


      isym = 20     inv. 120 deg rotation - cart. axis [1,-1,1]  

 cryst.   s(20) = (     1          1          1      )    f =( -0.5000000 )
                  (     0         -1          0      )       (  0.0000000 )
                  (    -1          0          0      )       ( -0.5000000 )

 cart.    s(20) = (  0.0000000  1.0000000  0.0000000 )    f =(  0.0000000 )
                  (  0.0000000  0.0000000  1.0000000 )       ( -0.5881411 )
                  ( -1.0000000  0.0000000  0.0000000 )       (  0.0000000 )


      isym = 21     inv. 120 deg rotation - cart. axis [1,1,1]   

 cryst.   s(21) = (     0         -1          0      )
                  (     0          0         -1      )
                  (    -1          0          0      )

 cart.    s(21) = (  0.0000000  0.0000000 -1.0000000 )
                  ( -1.0000000  0.0000000  0.0000000 )
                  (  0.0000000 -1.0000000  0.0000000 )


      isym = 22     inv. 120 deg rotation - cart. axis [-1,1,-1] 

 cryst.   s(22) = (     0          0         -1      )    f =( -0.5000000 )
                  (     0         -1          0      )       ( -0.5000000 )
                  (     1          1          1      )       (  0.0000000 )

 cart.    s(22) = (  0.0000000  0.0000000 -1.0000000 )    f =(  0.0000000 )
                  (  1.0000000  0.0000000  0.0000000 )       (  0.0000000 )
                  (  0.0000000  1.0000000  0.0000000 )       ( -0.5881411 )


      isym = 23     inv. 120 deg rotation - cart. axis [1,-1,-1] 

 cryst.   s(23) = (    -1          0          0      )    f =( -0.5000000 )
                  (     1          1          1      )       (  0.0000000 )
                  (     0         -1          0      )       ( -0.5000000 )

 cart.    s(23) = (  0.0000000  0.0000000  1.0000000 )    f =(  0.0000000 )
                  (  1.0000000  0.0000000  0.0000000 )       ( -0.5881411 )
                  (  0.0000000 -1.0000000  0.0000000 )       (  0.0000000 )


      isym = 24     inv. 120 deg rotation - cart. axis [-1,-1,1] 

 cryst.   s(24) = (     1          1          1      )    f =(  0.0000000 )
                  (    -1          0          0      )       ( -0.5000000 )
                  (     0          0         -1      )       ( -0.5000000 )

 cart.    s(24) = (  0.0000000  0.0000000  1.0000000 )    f =( -0.5881411 )
                  ( -1.0000000  0.0000000  0.0000000 )       (  0.0000000 )
                  (  0.0000000  1.0000000  0.0000000 )       (  0.0000000 )


   Cartesian axes

     site n.     atom                  positions (alat units)
         1        In     tau(   1) = (   0.2940706   0.2940706   0.2940706  )
         2        In     tau(   2) = (  -0.2940706   0.2940706   0.2940706  )
         3        In     tau(   3) = (   0.2940706   0.2940706  -0.2940706  )
         4        In     tau(   4) = (   0.2940706  -0.2940706   0.2940706  )
         5        In     tau(   5) = (   0.5483755   0.5881411  -0.2940706  )
         6        In     tau(   6) = (   0.0397656   0.5881411   0.2940706  )
         7        In     tau(   7) = (  -0.2940706   0.5483755   0.5881411  )
         8        In     tau(   8) = (   0.2940706   0.0397656   0.5881411  )
         9        In     tau(   9) = (   0.5881411  -0.2940706   0.5483755  )
        10        In     tau(  10) = (   0.5881411   0.2940706   0.0397656  )
        11        In     tau(  11) = (   0.0397656  -0.0000000   0.8822117  )
        12        In     tau(  12) = (   0.5483755  -0.0000000   0.2940706  )
        13        In     tau(  13) = (   0.8822117   0.0397656   0.0000000  )
        14        In     tau(  14) = (   0.2940706   0.5483755   0.0000000  )
        15        In     tau(  15) = (   0.0000000   0.8822117   0.0397656  )
        16        In     tau(  16) = (   0.0000000   0.2940706   0.5483755  )
        17        O      tau(  17) = (   0.4584346   0.1817038   0.4497833  )
        18        O      tau(  18) = (   0.7178477   0.4064374   0.4497833  )
        19        O      tau(  19) = (   0.1297065   0.1817038   0.7264990  )
        20        O      tau(  20) = (  -0.1297065   0.4064374   0.7264990  )
        21        O      tau(  21) = (   0.4497833   0.4584346   0.1817038  )
        22        O      tau(  22) = (   0.4497833   0.7178477   0.4064374  )
        23        O      tau(  23) = (   0.7264990   0.1297065   0.1817038  )
        24        O      tau(  24) = (   0.7264990  -0.1297065   0.4064374  )
        25        O      tau(  25) = (   0.1817038   0.4497833   0.4584346  )
        26        O      tau(  26) = (   0.4064374   0.4497833   0.7178477  )
        27        O      tau(  27) = (   0.1817038   0.7264990   0.1297065  )
        28        O      tau(  28) = (   0.4064374   0.7264990  -0.1297065  )
        29        O      tau(  29) = (   0.1297065   0.4064374   0.1383579  )
        30        O      tau(  30) = (  -0.1297065   0.1817038   0.1383579  )
        31        O      tau(  31) = (   0.4584346   0.4064374  -0.1383579  )
        32        O      tau(  32) = (   0.7178477   0.1817038  -0.1383579  )
        33        O      tau(  33) = (   0.1383579   0.1297065   0.4064374  )
        34        O      tau(  34) = (   0.1383579  -0.1297065   0.1817038  )
        35        O      tau(  35) = (  -0.1383579   0.4584346   0.4064374  )
        36        O      tau(  36) = (  -0.1383579   0.7178477   0.1817038  )
        37        O      tau(  37) = (   0.4064374   0.1383579   0.1297065  )
        38        O      tau(  38) = (   0.1817038   0.1383579  -0.1297065  )
        39        O      tau(  39) = (   0.4064374  -0.1383579   0.4584346  )
        40        O      tau(  40) = (   0.1817038  -0.1383579   0.7178477  )

   Crystallographic axes

     site n.     atom                  positions (cryst. coord.)
         1        In     tau(   1) = (  0.5000000  0.5000000  0.5000000  )
         2        In     tau(   2) = (  0.5000000  0.0000000  0.0000000  )
         3        In     tau(   3) = (  0.0000000  0.0000000  0.5000000  )
         4        In     tau(   4) = (  0.0000000  0.5000000  0.0000000  )
         5        In     tau(   5) = (  0.2500000  0.2161938  0.9661938  )
         6        In     tau(   6) = (  0.7500000  0.2838062  0.5338062  )
         7        In     tau(   7) = (  0.9661938  0.2500000  0.2161938  )
         8        In     tau(   8) = (  0.5338062  0.7500000  0.2838062  )
         9        In     tau(   9) = (  0.2161938  0.9661938  0.2500000  )
        10        In     tau(  10) = (  0.2838062  0.5338062  0.7500000  )
        11        In     tau(  11) = (  0.7500000  0.7838062  0.0338062  )
        12        In     tau(  12) = (  0.2500000  0.7161938  0.4661938  )
        13        In     tau(  13) = (  0.0338062  0.7500000  0.7838062  )
        14        In     tau(  14) = (  0.4661938  0.2500000  0.7161938  )
        15        In     tau(  15) = (  0.7838062  0.0338062  0.7500000  )
        16        In     tau(  16) = (  0.7161938  0.4661938  0.2500000  )
        17        O      tau(  17) = (  0.5368499  0.7721088  0.5442047  )
        18        O      tau(  18) = (  0.7279041  0.9926452  0.9557953  )
        19        O      tau(  19) = (  0.7720959  0.7278912  0.2647411  )
        20        O      tau(  20) = (  0.9631501  0.5073548  0.2352589  )
        21        O      tau(  21) = (  0.5442047  0.5368499  0.7721088  )
        22        O      tau(  22) = (  0.9557953  0.7279041  0.9926452  )
        23        O      tau(  23) = (  0.2647411  0.7720959  0.7278912  )
        24        O      tau(  24) = (  0.2352589  0.9631501  0.5073548  )
        25        O      tau(  25) = (  0.7721088  0.5442047  0.5368499  )
        26        O      tau(  26) = (  0.9926452  0.9557953  0.7279041  )
        27        O      tau(  27) = (  0.7278912  0.2647411  0.7720959  )
        28        O      tau(  28) = (  0.5073548  0.2352589  0.9631501  )
        29        O      tau(  29) = (  0.4631501  0.2278912  0.4557953  )
        30        O      tau(  30) = (  0.2720959  0.0073548  0.0442047  )
        31        O      tau(  31) = (  0.2279041  0.2721088  0.7352589  )
        32        O      tau(  32) = (  0.0368499  0.4926452  0.7647411  )
        33        O      tau(  33) = (  0.4557953  0.4631501  0.2278912  )
        34        O      tau(  34) = (  0.0442047  0.2720959  0.0073548  )
        35        O      tau(  35) = (  0.7352589  0.2279041  0.2721088  )
        36        O      tau(  36) = (  0.7647411  0.0368499  0.4926452  )
        37        O      tau(  37) = (  0.2278912  0.4557953  0.4631501  )
        38        O      tau(  38) = (  0.0073548  0.0442047  0.2720959  )
        39        O      tau(  39) = (  0.2721088  0.7352589  0.2279041  )
        40        O      tau(  40) = (  0.4926452  0.7647411  0.0368499  )

     number of k points=    31
                       cart. coord. in units 2pi/alat
        k(    1) = (   0.0000000   0.0000000   0.0000000), wk =   0.0645161
        k(    2) = (   0.0213077   0.0000000   0.0000000), wk =   0.0645161
        k(    3) = (   0.0426153   0.0000000   0.0000000), wk =   0.0645161
        k(    4) = (   0.0639230   0.0000000   0.0000000), wk =   0.0645161
        k(    5) = (   0.0852307   0.0000000   0.0000000), wk =   0.0645161
        k(    6) = (   0.1065384   0.0000000   0.0000000), wk =   0.0645161
        k(    7) = (   0.1278460   0.0000000   0.0000000), wk =   0.0645161
        k(    8) = (   0.1491537   0.0000000   0.0000000), wk =   0.0645161
        k(    9) = (   0.1704614   0.0000000   0.0000000), wk =   0.0645161
        k(   10) = (   0.1917690   0.0000000   0.0000000), wk =   0.0645161
        k(   11) = (   0.2130767   0.0000000   0.0000000), wk =   0.0645161
        k(   12) = (   0.0150668   0.0150668   0.0000000), wk =   0.0645161
        k(   13) = (   0.0301336   0.0301336   0.0000000), wk =   0.0645161
        k(   14) = (   0.0452004   0.0452004   0.0000000), wk =   0.0645161
        k(   15) = (   0.0602672   0.0602672   0.0000000), wk =   0.0645161
        k(   16) = (   0.0753340   0.0753340   0.0000000), wk =   0.0645161
        k(   17) = (   0.0904008   0.0904008   0.0000000), wk =   0.0645161
        k(   18) = (   0.1054676   0.1054676   0.0000000), wk =   0.0645161
        k(   19) = (   0.1205344   0.1205344   0.0000000), wk =   0.0645161
        k(   20) = (   0.1356012   0.1356012   0.0000000), wk =   0.0645161
        k(   21) = (   0.1506680   0.1506680   0.0000000), wk =   0.0645161
        k(   22) = (   0.0123020   0.0123020   0.0123020), wk =   0.0645161
        k(   23) = (   0.0246040   0.0246040   0.0246040), wk =   0.0645161
        k(   24) = (   0.0369060   0.0369060   0.0369060), wk =   0.0645161
        k(   25) = (   0.0492080   0.0492080   0.0492080), wk =   0.0645161
        k(   26) = (   0.0615099   0.0615099   0.0615099), wk =   0.0645161
        k(   27) = (   0.0738119   0.0738119   0.0738119), wk =   0.0645161
        k(   28) = (   0.0861139   0.0861139   0.0861139), wk =   0.0645161
        k(   29) = (   0.0984159   0.0984159   0.0984159), wk =   0.0645161
        k(   30) = (   0.1107179   0.1107179   0.1107179), wk =   0.0645161
        k(   31) = (   0.1230199   0.1230199   0.1230199), wk =   0.0645161

                       cryst. coord.
        k(    1) = (   0.0000000   0.0000000   0.0000000), wk =   0.0645161
        k(    2) = (  -0.0125319   0.0125319   0.0125319), wk =   0.0645161
        k(    3) = (  -0.0250638   0.0250638   0.0250638), wk =   0.0645161
        k(    4) = (  -0.0375958   0.0375958   0.0375958), wk =   0.0645161
        k(    5) = (  -0.0501277   0.0501277   0.0501277), wk =   0.0645161
        k(    6) = (  -0.0626596   0.0626596   0.0626596), wk =   0.0645161
        k(    7) = (  -0.0751915   0.0751915   0.0751915), wk =   0.0645161
        k(    8) = (  -0.0877234   0.0877234   0.0877234), wk =   0.0645161
        k(    9) = (  -0.1002553   0.1002553   0.1002553), wk =   0.0645161
        k(   10) = (  -0.1127873   0.1127873   0.1127873), wk =   0.0645161
        k(   11) = (  -0.1253192   0.1253192   0.1253192), wk =   0.0645161
        k(   12) = (   0.0000000   0.0000000   0.0177228), wk =   0.0645161
        k(   13) = (   0.0000000   0.0000000   0.0354456), wk =   0.0645161
        k(   14) = (   0.0000000   0.0000000   0.0531684), wk =   0.0645161
        k(   15) = (   0.0000000   0.0000000   0.0708912), wk =   0.0645161
        k(   16) = (   0.0000000   0.0000000   0.0886140), wk =   0.0645161
        k(   17) = (   0.0000000   0.0000000   0.1063368), wk =   0.0645161
        k(   18) = (   0.0000000   0.0000000   0.1240597), wk =   0.0645161
        k(   19) = (   0.0000000   0.0000000   0.1417825), wk =   0.0645161
        k(   20) = (   0.0000000   0.0000000   0.1595053), wk =   0.0645161
        k(   21) = (   0.0000000   0.0000000   0.1772281), wk =   0.0645161
        k(   22) = (   0.0072353   0.0072353   0.0072353), wk =   0.0645161
        k(   23) = (   0.0144706   0.0144706   0.0144706), wk =   0.0645161
        k(   24) = (   0.0217059   0.0217059   0.0217059), wk =   0.0645161
        k(   25) = (   0.0289412   0.0289412   0.0289412), wk =   0.0645161
        k(   26) = (   0.0361765   0.0361765   0.0361765), wk =   0.0645161
        k(   27) = (   0.0434118   0.0434118   0.0434118), wk =   0.0645161
        k(   28) = (   0.0506471   0.0506471   0.0506471), wk =   0.0645161
        k(   29) = (   0.0578824   0.0578824   0.0578824), wk =   0.0645161
        k(   30) = (   0.0651178   0.0651178   0.0651178), wk =   0.0645161
        k(   31) = (   0.0723531   0.0723531   0.0723531), wk =   0.0645161

     Dense  grid:   844297 G-vectors     FFT dimensions: ( 128, 128, 128)

     Smooth grid:   298717 G-vectors     FFT dimensions: (  96,  96,  96)

     Dynamical RAM for                 wfc:      21.64 MB

     Dynamical RAM for     wfc (w. buffer):      21.64 MB

     Dynamical RAM for           str. fact:       5.15 MB

     Dynamical RAM for           local pot:       0.00 MB

     Dynamical RAM for          nlocal pot:      54.66 MB

     Dynamical RAM for                qrad:       3.82 MB

     Dynamical RAM for          rho,v,vnew:      17.48 MB

     Dynamical RAM for           G-vectors:      10.12 MB

     Dynamical RAM for          h,s,v(r/c):       0.41 MB

     Dynamical RAM for          <psi|beta>:       1.39 MB

     Dynamical RAM for      wfcinit/wfcrot:      44.10 MB

     Dynamical RAM for           addusdens:     271.83 MB

     Estimated static dynamical RAM per process >     136.85 MB

     Estimated max dynamical RAM per process >     408.69 MB

     Estimated total dynamical RAM >       3.99 GB

     The potential is recalculated from file :
     ./tmp/vcr.save/charge-density

     Starting wfcs are  240 randomized atomic wfcs
     Checking if some PAW data can be deallocated... 
       PAW data deallocated on    6 nodes for type:  1
       PAW data deallocated on    4 nodes for type:  2

     Band Structure Calculation
     CG style diagonalization

     Computing kpt #:     1  of    16 on this pool
     c_bands: 12 eigenvalues not converged
     total cpu time spent up to now is      965.8 secs

     Computing kpt #:     2  of    16 on this pool
     c_bands: 11 eigenvalues not converged
     total cpu time spent up to now is     1967.1 secs

     Computing kpt #:     3  of    16 on this pool
     c_bands: 12 eigenvalues not converged
     total cpu time spent up to now is     2969.4 secs

     Computing kpt #:     4  of    16 on this pool
     c_bands: 10 eigenvalues not converged
     total cpu time spent up to now is     3970.4 secs

     Computing kpt #:     5  of    16 on this pool
     c_bands: 10 eigenvalues not converged
     total cpu time spent up to now is     4970.0 secs

     Computing kpt #:     6  of    16 on this pool
     c_bands: 10 eigenvalues not converged
     total cpu time spent up to now is     5978.2 secs

     Computing kpt #:     7  of    16 on this pool
     c_bands: 10 eigenvalues not converged
     total cpu time spent up to now is     6987.8 secs

     Computing kpt #:     8  of    16 on this pool
     c_bands: 11 eigenvalues not converged
     total cpu time spent up to now is     7992.6 secs

     Computing kpt #:     9  of    16 on this pool
     c_bands: 10 eigenvalues not converged
     total cpu time spent up to now is     9000.2 secs

     Computing kpt #:    10  of    16 on this pool
     c_bands:  9 eigenvalues not converged
     total cpu time spent up to now is    10007.4 secs

     Computing kpt #:    11  of    16 on this pool
     c_bands:  8 eigenvalues not converged
     total cpu time spent up to now is    11020.7 secs

     Computing kpt #:    12  of    16 on this pool
     c_bands: 11 eigenvalues not converged
     total cpu time spent up to now is    12028.7 secs

     Computing kpt #:    13  of    16 on this pool
     c_bands: 10 eigenvalues not converged
     total cpu time spent up to now is    13037.3 secs

     Computing kpt #:    14  of    16 on this pool
     c_bands: 13 eigenvalues not converged
     total cpu time spent up to now is    14069.6 secs

     Computing kpt #:    15  of    16 on this pool
     c_bands: 12 eigenvalues not converged
     total cpu time spent up to now is    15080.5 secs

     Computing kpt #:    16  of    16 on this pool
     c_bands: 11 eigenvalues not converged
     total cpu time spent up to now is    15652.6 secs

     ethr =  2.84E-13,  avg # of iterations = 73.1

     total cpu time spent up to now is    15652.6 secs

     End of band structure calculation

          k = 0.0000 0.0000 0.0000 ( 37359 PWs)   bands (ev):

    -9.3827  -8.8337  -8.8337  -8.7650  -8.7650  -8.7650  -8.7179  -8.7179
    -8.7179  -8.6844  -8.6844  -8.6844  -8.4790  -8.4790  -8.4790  -8.4689
    -8.4689  -8.4092  -8.4092  -8.4092  -8.3480  -8.3480  -8.3480  -8.1205
    -4.3947  -4.3947  -4.3947  -4.3008  -4.3008  -4.3008  -4.2993  -4.2906
    -4.2906  -4.2629  -4.2629  -4.2629  -4.2385  -4.2270  -4.2270  -4.2270
    -4.2214  -4.2214  -4.2192  -4.2086  -4.2086  -4.2086  -4.1906  -4.1906
    -4.1906  -4.1778  -4.1778  -4.1525  -4.1525  -4.1525  -4.1405  -4.1405
    -4.1405  -4.1160  -4.1160  -4.1040  -4.1040  -4.1040  -4.1010  -4.0929
    -4.0896  -4.0896  -4.0896  -4.0632  -4.0632  -4.0372  -4.0372  -4.0372
    -4.0157  -4.0157  -4.0157  -3.9814  -3.9814  -3.9814  -3.9632  -3.9632
    -3.9632  -3.9445  -3.9445  -3.9410  -3.8882  -3.8466  -3.8466  -3.8466
    -3.8179  -3.8179  -3.8179  -3.7978  -3.7978  -3.7740  -3.7740  -3.7740
    -3.3214  -3.3214  -3.3214  -3.2718  -3.2718  -2.9322  -2.9322  -2.9322
     2.9883   3.0090   3.0090   3.4962   3.4962   3.6145   3.6145   3.6145
     3.8291   3.8291   3.8291   3.9909   3.9909   3.9909   4.1915   4.5453
     4.5453   4.5453   4.9735   4.9735   4.9735   5.1940   5.2552   5.2552
     5.2552   5.3102   5.3102   5.3103   5.7424   5.9865   5.9865   5.9865
     6.0350   6.0350   6.4129   6.4129   6.4129   6.4563   6.4563   6.4563
     6.5466   6.5466   6.5466   6.5908   6.6725   6.6725   6.7152   6.7152
     6.7152   7.0530   7.0530   7.3584   7.3584   7.3584   7.3770   7.3770
     7.3770   7.6596   7.6596   7.6596   7.7633   7.7633   7.7633   7.8144
     7.8144   7.8452   7.8565   7.8565   7.8565   8.0741   8.0741   8.0741
     8.9672  13.2470  13.2470  13.2470  13.3302  13.3625  13.3625  13.3738
    13.3738  13.3738  13.4862  13.4862  13.4862  14.1721

          k = 0.0213 0.0000 0.0000 ( 37295 PWs)   bands (ev):

    -9.3824  -8.8343  -8.8339  -8.7663  -8.7651  -8.7646  -8.7189  -8.7180
    -8.7174  -8.6847  -8.6832  -8.6831  -8.4792  -8.4790  -8.4788  -8.4689
    -8.4686  -8.4093  -8.4091  -8.4090  -8.3481  -8.3480  -8.3479  -8.1206
    -4.3946  -4.3946  -4.3945  -4.3010  -4.3008  -4.3007  -4.2992  -4.2906
    -4.2906  -4.2632  -4.2630  -4.2628  -4.2387  -4.2274  -4.2271  -4.2270
    -4.2215  -4.2212  -4.2190  -4.2089  -4.2086  -4.2084  -4.1908  -4.1905
    -4.1902  -4.1778  -4.1777  -4.1528  -4.1526  -4.1526  -4.1407  -4.1405
    -4.1405  -4.1164  -4.1158  -4.1044  -4.1039  -4.1037  -4.1009  -4.0927
    -4.0897  -4.0895  -4.0894  -4.0633  -4.0631  -4.0380  -4.0372  -4.0371
    -4.0158  -4.0156  -4.0151  -3.9814  -3.9814  -3.9808  -3.9632  -3.9631
    -3.9628  -3.9446  -3.9446  -3.9411  -3.8887  -3.8495  -3.8479  -3.8467
    -3.8214  -3.8179  -3.8150  -3.7995  -3.7954  -3.7741  -3.7724  -3.7703
    -3.3215  -3.3215  -3.3213  -3.2719  -3.2717  -2.9327  -2.9326  -2.9325
     2.9887   3.0087   3.0098   3.4942   3.4956   3.6128   3.6136   3.6144
     3.8246   3.8288   3.8294   3.9929   3.9929   3.9956   4.1926   4.5452
     4.5452   4.5454   4.9730   4.9733   4.9739   5.1935   5.2539   5.2564
     5.2567   5.3099   5.3117   5.3120   5.7429   5.9752   5.9852   5.9858
     6.0351   6.0410   6.4024   6.4125   6.4171   6.4556   6.4563   6.4672
     6.5386   6.5421   6.5466   6.5926   6.6732   6.6812   6.7136   6.7176
     6.7214   7.0527   7.0539   7.3512   7.3552   7.3585   7.3715   7.3775
     7.3825   7.6583   7.6591   7.6606   7.7618   7.7635   7.7636   7.8143
     7.8146   7.8450   7.8559   7.8571   7.8583   8.0738   8.0740   8.0743
     8.9729  13.2343  13.2388  13.2470  13.3073  13.3398  13.3540  13.3747
    13.3857  13.4117  13.4868  13.4933  13.5016  14.1724

          k = 0.0426 0.0000 0.0000 ( 37287 PWs)   bands (ev):

    -9.3814  -8.8361  -8.8346  -8.7699  -8.7657  -8.7637  -8.7215  -8.7183
    -8.7160  -8.6858  -8.6800  -8.6795  -8.4797  -8.4791  -8.4783  -8.4690
    -8.4679  -8.4095  -8.4088  -8.4084  -8.3485  -8.3480  -8.3476  -8.1211
    -4.3943  -4.3942  -4.3940  -4.3016  -4.3010  -4.3004  -4.2991  -4.2908
    -4.2905  -4.2640  -4.2633  -4.2624  -4.2392  -4.2283  -4.2273  -4.2270
    -4.2218  -4.2211  -4.2181  -4.2098  -4.2085  -4.2077  -4.1914  -4.1902
    -4.1892  -4.1780  -4.1774  -4.1534  -4.1529  -4.1529  -4.1415  -4.1407
    -4.1404  -4.1173  -4.1152  -4.1055  -4.1035  -4.1029  -4.1004  -4.0920
    -4.0898  -4.0892  -4.0888  -4.0636  -4.0630  -4.0400  -4.0374  -4.0367
    -4.0160  -4.0153  -4.0136  -3.9816  -3.9813  -3.9793  -3.9632  -3.9630
    -3.9619  -3.9447  -3.9446  -3.9412  -3.8902  -3.8560  -3.8516  -3.8471
    -3.8292  -3.8176  -3.8082  -3.8029  -3.7902  -3.7745  -3.7679  -3.7616
    -3.3219  -3.3218  -3.3208  -3.2723  -3.2714  -2.9339  -2.9336  -2.9332
     2.9898   3.0080   3.0125   3.4881   3.4938   3.6078   3.6108   3.6141
     3.8127   3.8280   3.8302   3.9988   3.9988   4.0084   4.1956   4.5448
     4.5449   4.5457   4.9717   4.9729   4.9751   5.1922   5.2501   5.2598
     5.2612   5.3087   5.3159   5.3170   5.7439   5.9506   5.9812   5.9838
     6.0354   6.0504   6.3833   6.4110   6.4285   6.4532   6.4563   6.4872
     6.5215   6.5309   6.5466   6.5951   6.6753   6.7032   6.7089   6.7247
     6.7381   7.0517   7.0566   7.3375   7.3466   7.3555   7.3589   7.3782
     7.3910   7.6544   7.6576   7.6634   7.7574   7.7639   7.7644   7.8139
     7.8149   7.8446   7.8541   7.8586   7.8633   8.0730   8.0737   8.0747
     8.9900  13.2046  13.2169  13.2470  13.2628  13.3063  13.3501  13.3766
    13.4128  13.4572  13.4888  13.5125  13.5353  14.1637

          k = 0.0639 0.0000 0.0000 ( 37295 PWs)   bands (ev):

    -9.3798  -8.8389  -8.8357  -8.7754  -8.7667  -8.7623  -8.7250  -8.7188
    -8.7138  -8.6874  -8.6755  -8.6741  -8.4805  -8.4792  -8.4775  -8.4692
    -8.4667  -8.4100  -8.4084  -8.4074  -8.3491  -8.3481  -8.3471  -8.1219
    -4.3938  -4.3936  -4.3931  -4.3026  -4.3012  -4.3000  -4.2990  -4.2910
    -4.2903  -4.2651  -4.2639  -4.2618  -4.2400  -4.2299  -4.2276  -4.2271
    -4.2222  -4.2213  -4.2163  -4.2112  -4.2083  -4.2068  -4.1923  -4.1898
    -4.1877  -4.1782  -4.1770  -4.1544  -4.1534  -4.1533  -4.1426  -4.1409
    -4.1402  -4.1186  -4.1142  -4.1069  -4.1029  -4.1023  -4.0992  -4.0908
    -4.0900  -4.0888  -4.0880  -4.0640  -4.0628  -4.0427  -4.0377  -4.0360
    -4.0163  -4.0147  -4.0118  -3.9818  -3.9813  -3.9768  -3.9632  -3.9627
    -3.9604  -3.9450  -3.9447  -3.9414  -3.8925  -3.8640  -3.8570  -3.8478
    -3.8386  -3.8172  -3.8063  -3.8000  -3.7840  -3.7749  -3.7612  -3.7506
    -3.3224  -3.3223  -3.3200  -3.2728  -3.2708  -2.9361  -2.9354  -2.9344
     2.9915   3.0069   3.0172   3.4783   3.4907   3.5997   3.6058   3.6136
     3.7966   3.8268   3.8315   4.0082   4.0084   4.0262   4.2005   4.5441
     4.5443   4.5462   4.9698   4.9721   4.9772   5.1903   5.2440   5.2651
     5.2686   5.3066   5.3233   5.3252   5.7448   5.9214   5.9747   5.9804
     6.0358   6.0563   6.3640   6.4082   6.4429   6.4485   6.4562   6.5060
     6.5069   6.5179   6.5478   6.5971   6.6788   6.7013   6.7328   6.7364
     6.7614   7.0499   7.0609   7.3215   7.3298   7.3339   7.3596   7.3782
     7.3987   7.6481   7.6550   7.6676   7.7514   7.7645   7.7657   7.8134
     7.8154   7.8441   7.8512   7.8607   7.8705   8.0716   8.0731   8.0753
     9.0176  13.1678  13.1863  13.2154  13.2469  13.2641  13.3499  13.3786
    13.4433  13.4938  13.5029  13.5397  13.5753  14.1531

          k = 0.0852 0.0000 0.0000 ( 37303 PWs)   bands (ev):

    -9.3775  -8.8426  -8.8372  -8.7822  -8.7682  -8.7605  -8.7288  -8.7195
    -8.7107  -8.6897  -8.6703  -8.6676  -8.4817  -8.4793  -8.4764  -8.4695
    -8.4651  -8.4106  -8.4078  -8.4061  -8.3499  -8.3483  -8.3465  -8.1230
    -4.3930  -4.3928  -4.3918  -4.3039  -4.3015  -4.2993  -4.2989  -4.2913
    -4.2901  -4.2666  -4.2647  -4.2611  -4.2410  -4.2319  -4.2282  -4.2272
    -4.2227  -4.2216  -4.2139  -4.2129  -4.2079  -4.2056  -4.1935  -4.1894
    -4.1859  -4.1786  -4.1765  -4.1557  -4.1540  -4.1538  -4.1440  -4.1414
    -4.1400  -4.1199  -4.1131  -4.1086  -4.1021  -4.1020  -4.0974  -4.0903
    -4.0894  -4.0882  -4.0874  -4.0646  -4.0625  -4.0456  -4.0381  -4.0351
    -4.0167  -4.0140  -4.0099  -3.9822  -3.9812  -3.9737  -3.9632  -3.9621
    -3.9584  -3.9454  -3.9448  -3.9416  -3.8954  -3.8723  -3.8633  -3.8487
    -3.8485  -3.8167  -3.8094  -3.7916  -3.7770  -3.7751  -3.7529  -3.7385
    -3.3232  -3.3229  -3.3190  -3.2736  -3.2700  -2.9390  -2.9378  -2.9361
     2.9933   3.0055   3.0240   3.4653   3.4864   3.5889   3.5980   3.6132
     3.7791   3.8253   3.8332   4.0205   4.0211   4.0467   4.2073   4.5433
     4.5436   4.5468   4.9675   4.9709   4.9805   5.1881   5.2356   5.2715
     5.2785   5.3035   5.3340   5.3362   5.7437   5.8919   5.9659   5.9758
     6.0357   6.0579   6.3465   6.4030   6.4410   6.4472   6.4560   6.5064
     6.5074   6.5214   6.5530   6.5989   6.6838   6.6912   6.7523   6.7663
     6.7880   7.0472   7.0661   7.2957   7.3041   7.3182   7.3606   7.3773
     7.4048   7.6397   7.6515   7.6728   7.7445   7.7654   7.7674   7.8126
     7.8158   7.8438   7.8473   7.8631   7.8789   8.0697   8.0723   8.0761
     9.0548  13.1279  13.1504  13.1671  13.2186  13.2469  13.3505  13.3804
    13.4669  13.5085  13.5481  13.5718  13.6173  14.1342

          k = 0.1065 0.0000 0.0000 ( 37310 PWs)   bands (ev):

    -9.3745  -8.8470  -8.8390  -8.7898  -8.7703  -8.7586  -8.7325  -8.7203
    -8.7068  -8.6926  -8.6646  -8.6602  -8.4830  -8.4794  -8.4749  -8.4699
    -8.4634  -8.4114  -8.4073  -8.4044  -8.3508  -8.3484  -8.3456  -8.1244
    -4.3921  -4.3917  -4.3901  -4.3055  -4.3019  -4.2988  -4.2985  -4.2916
    -4.2898  -4.2682  -4.2657  -4.2603  -4.2423  -4.2343  -4.2290  -4.2274
    -4.2233  -4.2220  -4.2148  -4.2111  -4.2074  -4.2042  -4.1951  -4.1891
    -4.1841  -4.1791  -4.1759  -4.1571  -4.1546  -4.1544  -4.1457  -4.1419
    -4.1398  -4.1212  -4.1118  -4.1102  -4.1018  -4.1011  -4.0953  -4.0905
    -4.0879  -4.0872  -4.0872  -4.0654  -4.0620  -4.0482  -4.0385  -4.0340
    -4.0173  -4.0131  -4.0081  -3.9826  -3.9811  -3.9705  -3.9632  -3.9607
    -3.9560  -3.9460  -3.9449  -3.9419  -3.8990  -3.8807  -3.8701  -3.8584
    -3.8499  -3.8159  -3.8124  -3.7848  -3.7736  -3.7695  -3.7435  -3.7257
    -3.3242  -3.3238  -3.3177  -3.2746  -3.2691  -2.9428  -2.9409  -2.9382
     2.9948   3.0042   3.0332   3.4496   3.4807   3.5760   3.5871   3.6128
     3.7624   3.8238   3.8354   4.0352   4.0366   4.0685   4.2157   4.5423
     4.5428   4.5475   4.9654   4.9693   4.9852   5.1858   5.2253   5.2785
     5.2907   5.2993   5.3481   5.3499   5.7373   5.8666   5.9552   5.9701
     6.0343   6.0564   6.3313   6.3939   6.4327   6.4361   6.4557   6.5008
     6.5275   6.5282   6.5650   6.6010   6.6787   6.6906   6.7717   6.8018
     6.8160   7.0432   7.0714   7.2554   7.2857   7.3001   7.3619   7.3757
     7.4093   7.6295   7.6470   7.6786   7.7375   7.7665   7.7694   7.8117
     7.8161   7.8425   7.8435   7.8656   7.8877   8.0672   8.0713   8.0769
     9.1004  13.0863  13.1114  13.1185  13.1715  13.2468  13.3516  13.3822
    13.4775  13.5374  13.5928  13.6064  13.6599  14.1126

          k = 0.1278 0.0000 0.0000 ( 37310 PWs)   bands (ev):

    -9.3709  -8.8519  -8.8411  -8.7980  -8.7730  -8.7566  -8.7358  -8.7212
    -8.7023  -8.6960  -8.6586  -8.6523  -8.4846  -8.4796  -8.4732  -8.4705
    -8.4616  -8.4122  -8.4068  -8.4023  -8.3517  -8.3486  -8.3445  -8.1262
    -4.3909  -4.3904  -4.3882  -4.3073  -4.3023  -4.2989  -4.2975  -4.2920
    -4.2894  -4.2698  -4.2668  -4.2595  -4.2437  -4.2369  -4.2301  -4.2278
    -4.2239  -4.2225  -4.2167  -4.2081  -4.2066  -4.2027  -4.1968  -4.1888
    -4.1822  -4.1798  -4.1753  -4.1586  -4.1553  -4.1550  -4.1475  -4.1427
    -4.1396  -4.1225  -4.1118  -4.1105  -4.1014  -4.1000  -4.0930  -4.0907
    -4.0875  -4.0868  -4.0855  -4.0662  -4.0615  -4.0503  -4.0390  -4.0328
    -4.0179  -4.0121  -4.0065  -3.9832  -3.9810  -3.9682  -3.9632  -3.9580
    -3.9534  -3.9467  -3.9451  -3.9421  -3.9029  -3.8890  -3.8770  -3.8682
    -3.8514  -3.8153  -3.8148  -3.7826  -3.7676  -3.7614  -3.7334  -3.7124
    -3.3253  -3.3248  -3.3160  -3.2758  -3.2679  -2.9474  -2.9447  -2.9409
     2.9951   3.0039   3.0447   3.4317   3.4737   3.5612   3.5724   3.6128
     3.7479   3.8222   3.8379   4.0519   4.0543   4.0907   4.2255   4.5413
     4.5419   4.5481   4.9637   4.9670   4.9914   5.1839   5.2132   5.2854
     5.2932   5.3052   5.3654   5.3660   5.7213   5.8504   5.9429   5.9635
     6.0290   6.0544   6.3189   6.3797   6.4207   6.4262   6.4552   6.4977
     6.5285   6.5581   6.5802   6.6041   6.6644   6.6997   6.7938   6.8386
     6.8441   7.0370   7.0753   7.2121   7.2669   7.2806   7.3636   7.3734
     7.4121   7.6177   7.6418   7.6846   7.7308   7.7678   7.7715   7.8107
     7.8160   7.8371   7.8434   7.8681   7.8964   8.0642   8.0699   8.0777
     9.1534  13.0436  13.0696  13.0704  13.1235  13.2468  13.3529  13.3841
    13.4823  13.5727  13.6367  13.6425  13.7024  14.0873

          k = 0.1492 0.0000 0.0000 ( 37314 PWs)   bands (ev):

    -9.3667  -8.8572  -8.8434  -8.8066  -8.7763  -8.7547  -8.7386  -8.7223
    -8.6998  -8.6971  -8.6525  -8.6442  -8.4863  -8.4798  -8.4711  -8.4711
    -8.4601  -8.4129  -8.4063  -8.4000  -8.3525  -8.3488  -8.3431  -8.1282
    -4.3896  -4.3889  -4.3859  -4.3092  -4.3028  -4.2992  -4.2964  -4.2923
    -4.2889  -4.2713  -4.2682  -4.2588  -4.2453  -4.2397  -4.2317  -4.2283
    -4.2245  -4.2229  -4.2185  -4.2058  -4.2053  -4.2010  -4.1988  -4.1886
    -4.1806  -4.1806  -4.1747  -4.1598  -4.1559  -4.1556  -4.1493  -4.1437
    -4.1394  -4.1235  -4.1131  -4.1093  -4.1009  -4.0990  -4.0906  -4.0906
    -4.0883  -4.0859  -4.0836  -4.0672  -4.0609  -4.0519  -4.0396  -4.0314
    -4.0186  -4.0109  -4.0049  -3.9838  -3.9809  -3.9669  -3.9633  -3.9538
    -3.9507  -3.9477  -3.9454  -3.9422  -3.9071  -3.8970  -3.8838  -3.8777
    -3.8531  -3.8183  -3.8134  -3.7831  -3.7590  -3.7527  -3.7227  -3.6988
    -3.3266  -3.3260  -3.3142  -3.2772  -3.2666  -2.9529  -2.9492  -2.9440
     2.9935   3.0054   3.0584   3.4121   3.4655   3.5450   3.5540   3.6131
     3.7363   3.8207   3.8407   4.0699   4.0737   4.1128   4.2367   4.5403
     4.5410   4.5486   4.9628   4.9640   4.9993   5.1824   5.1995   5.2859
     5.2921   5.3209   5.3843   5.3857   5.6944   5.8452   5.9298   5.9563
     6.0180   6.0544   6.3090   6.3621   6.4064   6.4218   6.4544   6.4965
     6.5279   6.5859   6.5956   6.6119   6.6487   6.7116   6.8173   6.8709
     6.8761   7.0261   7.0742   7.1728   7.2485   7.2605   7.3658   7.3707
     7.4133   7.6045   7.6360   7.6905   7.7246   7.7694   7.7733   7.8096
     7.8155   7.8314   7.8434   7.8707   7.9045   8.0607   8.0682   8.0783
     9.2125  13.0002  13.0206  13.0281  13.0749  13.2470  13.3543  13.3860
    13.4856  13.6098  13.6792  13.6797  13.7448  14.0566

          k = 0.1705 0.0000 0.0000 ( 37326 PWs)   bands (ev):

    -9.3618  -8.8628  -8.8458  -8.8154  -8.7802  -8.7528  -8.7408  -8.7235
    -8.7040  -8.6914  -8.6464  -8.6360  -8.4881  -8.4800  -8.4720  -8.4688
    -8.4592  -8.4134  -8.4061  -8.3974  -8.3532  -8.3490  -8.3414  -8.1306
    -4.3880  -4.3872  -4.3832  -4.3113  -4.3034  -4.2997  -4.2952  -4.2926
    -4.2883  -4.2727  -4.2698  -4.2584  -4.2471  -4.2426  -4.2337  -4.2290
    -4.2252  -4.2232  -4.2199  -4.2048  -4.2033  -4.2009  -4.1985  -4.1885
    -4.1815  -4.1793  -4.1742  -4.1607  -4.1565  -4.1562  -4.1512  -4.1450
    -4.1392  -4.1245  -4.1140  -4.1082  -4.1000  -4.0982  -4.0901  -4.0898
    -4.0883  -4.0849  -4.0817  -4.0680  -4.0601  -4.0528  -4.0402  -4.0298
    -4.0194  -4.0095  -4.0035  -3.9845  -3.9808  -3.9663  -3.9634  -3.9488
    -3.9488  -3.9481  -3.9458  -3.9422  -3.9115  -3.9045  -3.8903  -3.8868
    -3.8551  -3.8214  -3.8114  -3.7845  -3.7496  -3.7435  -3.7117  -3.6850
    -3.3281  -3.3274  -3.3121  -3.2788  -3.2651  -2.9591  -2.9543  -2.9475
     2.9907   3.0081   3.0744   3.3911   3.4561   3.5278   3.5320   3.6140
     3.7276   3.8192   3.8437   4.0891   4.0945   4.1344   4.2488   4.5394
     4.5402   4.5489   4.9602   4.9629   5.0090   5.1816   5.1845   5.2767
     5.2983   5.3382   5.4048   5.4085   5.6596   5.8480   5.9162   5.9489
     6.0020   6.0564   6.3015   6.3429   6.3942   6.4188   6.4531   6.4964
     6.5268   6.5986   6.6104   6.6318   6.6342   6.7279   6.8405   6.8953
     6.9139   7.0034   7.0641   7.1494   7.2314   7.2411   7.3677   7.3685
     7.4129   7.5901   7.6300   7.6960   7.7189   7.7711   7.7744   7.8085
     7.8145   7.8260   7.8433   7.8732   7.9120   8.0567   8.0661   8.0785
     9.2768  12.9562  12.9715  12.9848  13.0259  13.2472  13.3560  13.3880
    13.4886  13.6473  13.7162  13.7218  13.7868  14.0229

          k = 0.1918 0.0000 0.0000 ( 37322 PWs)   bands (ev):

    -9.3562  -8.8686  -8.8484  -8.8243  -8.7846  -8.7512  -8.7426  -8.7248
    -8.7085  -8.6853  -8.6402  -8.6277  -8.4899  -8.4802  -8.4731  -8.4662
    -8.4591  -8.4134  -8.4060  -8.3945  -8.3536  -8.3492  -8.3395  -8.1332
    -4.3863  -4.3852  -4.3803  -4.3134  -4.3039  -4.3005  -4.2938  -4.2927
    -4.2877  -4.2737  -4.2715  -4.2582  -4.2490  -4.2456  -4.2361  -4.2299
    -4.2259  -4.2234  -4.2209  -4.2037  -4.2032  -4.2022  -4.1953  -4.1885
    -4.1826  -4.1784  -4.1737  -4.1612  -4.1570  -4.1567  -4.1531  -4.1465
    -4.1390  -4.1252  -4.1146  -4.1073  -4.0989  -4.0979  -4.0917  -4.0891
    -4.0860  -4.0840  -4.0802  -4.0686  -4.0592  -4.0531  -4.0409  -4.0282
    -4.0203  -4.0081  -4.0021  -3.9852  -3.9807  -3.9660  -3.9635  -3.9501
    -3.9462  -3.9460  -3.9437  -3.9422  -3.9159  -3.9113  -3.8963  -3.8956
    -3.8573  -3.8246  -3.8089  -3.7861  -3.7400  -3.7338  -3.7004  -3.6711
    -3.3298  -3.3289  -3.3098  -3.2805  -3.2635  -2.9661  -2.9601  -2.9516
     2.9871   3.0115   3.0925   3.3692   3.4456   3.5072   3.5099   3.6154
     3.7216   3.8178   3.8469   4.1091   4.1163   4.1553   4.2618   4.5388
     4.5397   4.5490   4.9554   4.9641   5.0205   5.1685   5.1818   5.2659
     5.3037   5.3566   5.4273   5.4331   5.6203   5.8555   5.9027   5.9416
     5.9822   6.0596   6.2961   6.3236   6.3845   6.4165   6.4511   6.4969
     6.5255   6.6030   6.6144   6.6244   6.6611   6.7502   6.8616   6.9159
     6.9517   6.9607   7.0512   7.1444   7.2169   7.2239   7.3647   7.3718
     7.4110   7.5745   7.6240   7.7010   7.7135   7.7730   7.7741   7.8074
     7.8130   7.8215   7.8433   7.8756   7.9185   8.0521   8.0636   8.0784
     9.3454  12.9119  12.9224  12.9407  12.9767  13.2476  13.3577  13.3901
    13.4916  13.6849  13.7532  13.7628  13.8284  13.9860

          k = 0.2131 0.0000 0.0000 ( 37342 PWs)   bands (ev):

    -9.3501  -8.8746  -8.8511  -8.8332  -8.7894  -8.7498  -8.7440  -8.7263
    -8.7132  -8.6788  -8.6341  -8.6195  -8.4918  -8.4804  -8.4747  -8.4634
    -8.4599  -8.4128  -8.4062  -8.3914  -8.3536  -8.3494  -8.3373  -8.1361
    -4.3844  -4.3830  -4.3771  -4.3156  -4.3045  -4.3015  -4.2928  -4.2923
    -4.2872  -4.2744  -4.2733  -4.2585  -4.2510  -4.2486  -4.2386  -4.2310
    -4.2265  -4.2236  -4.2217  -4.2055  -4.2027  -4.2019  -4.1918  -4.1887
    -4.1837  -4.1780  -4.1733  -4.1610  -4.1573  -4.1572  -4.1548  -4.1481
    -4.1389  -4.1258  -4.1148  -4.1065  -4.0980  -4.0976  -4.0938  -4.0875
    -4.0837  -4.0833  -4.0791  -4.0688  -4.0582  -4.0531  -4.0416  -4.0266
    -4.0212  -4.0067  -4.0007  -3.9860  -3.9805  -3.9658  -3.9637  -3.9516
    -3.9467  -3.9445  -3.9422  -3.9397  -3.9203  -3.9163  -3.9038  -3.9017
    -3.8598  -3.8280  -3.8057  -3.7879  -3.7303  -3.7236  -3.6889  -3.6571
    -3.3316  -3.3306  -3.3074  -3.2825  -3.2618  -2.9739  -2.9666  -2.9560
     2.9832   3.0153   3.1128   3.3466   3.4342   3.4803   3.4915   3.6173
     3.7177   3.8164   3.8501   4.1297   4.1388   4.1756   4.2755   4.5385
     4.5395   4.5488   4.9496   4.9664   5.0339   5.1515   5.1830   5.2536
     5.3080   5.3760   5.4517   5.4592   5.5788   5.8656   5.8897   5.9352
     5.9595   6.0639   6.2924   6.3047   6.3773   6.4146   6.4480   6.4975
     6.5242   6.5970   6.6061   6.6379   6.6842   6.7794   6.8786   6.9025
     6.9312   6.9894   7.0411   7.1483   7.2063   7.2108   7.3616   7.3760
     7.4079   7.5580   7.6183   7.7054   7.7085   7.7720   7.7751   7.8063
     7.8111   7.8187   7.8433   7.8779   7.9240   8.0471   8.0606   8.0776
     9.4175  12.8673  12.8735  12.8962  12.9274  13.2482  13.3595  13.3922
    13.4946  13.7223  13.7900  13.8027  13.8695  13.9462

          k = 0.0151 0.0151 0.0000 ( 37291 PWs)   bands (ev):

    -9.3824  -8.8342  -8.8340  -8.7658  -8.7657  -8.7646  -8.7185  -8.7182
    -8.7177  -8.6841  -8.6837  -8.6832  -8.4791  -8.4790  -8.4789  -8.4688
    -8.4687  -8.4092  -8.4091  -8.4090  -8.3481  -8.3479  -8.3479  -8.1206
    -4.3946  -4.3946  -4.3945  -4.3009  -4.3009  -4.3008  -4.2992  -4.2906
    -4.2906  -4.2631  -4.2630  -4.2629  -4.2387  -4.2273  -4.2272  -4.2270
    -4.2214  -4.2213  -4.2190  -4.2087  -4.2087  -4.2084  -4.1906  -4.1905
    -4.1903  -4.1778  -4.1777  -4.1528  -4.1526  -4.1526  -4.1406  -4.1406
    -4.1405  -4.1162  -4.1160  -4.1042  -4.1041  -4.1037  -4.1009  -4.0927
    -4.0896  -4.0895  -4.0894  -4.0633  -4.0632  -4.0376  -4.0375  -4.0371
    -4.0157  -4.0154  -4.0153  -3.9814  -3.9811  -3.9811  -3.9632  -3.9630
    -3.9630  -3.9446  -3.9446  -3.9411  -3.8887  -3.8488  -3.8483  -3.8472
    -3.8202  -3.8177  -3.8164  -3.7985  -3.7965  -3.7733  -3.7726  -3.7708
    -3.3217  -3.3214  -3.3212  -3.2719  -3.2718  -2.9326  -2.9326  -2.9325
     2.9887   3.0090   3.0095   3.4945   3.4953   3.6127   3.6132   3.6149
     3.8257   3.8267   3.8304   3.9908   3.9943   3.9963   4.1926   4.5450
     4.5453   4.5455   4.9728   4.9734   4.9740   5.1935   5.2546   5.2558
     5.2565   5.3103   5.3108   5.3124   5.7429   5.9769   5.9834   5.9855
     6.0368   6.0397   6.4068   6.4088   6.4151   6.4560   6.4619   6.4623
     6.5405   6.5424   6.5442   6.5928   6.6752   6.6789   6.7151   6.7181
     6.7198   7.0530   7.0536   7.3524   7.3542   7.3571   7.3743   7.3781
     7.3804   7.6587   7.6595   7.6599   7.7625   7.7627   7.7637   7.8144
     7.8145   7.8450   7.8561   7.8571   7.8581   8.0739   8.0741   8.0741
     8.9730  13.2351  13.2401  13.2432  13.3143  13.3351  13.3485  13.3805
    13.3964  13.3988  13.4901  13.4931  13.4998  14.1717

          k = 0.0301 0.0301 0.0000 ( 37291 PWs)   bands (ev):

    -9.3814  -8.8357  -8.8350  -8.7681  -8.7679  -8.7634  -8.7201  -8.7188
    -8.7171  -8.6834  -8.6819  -8.6798  -8.4794  -8.4792  -8.4785  -8.4687
    -8.4681  -8.4092  -8.4089  -8.4086  -8.3485  -8.3478  -8.3478  -8.1211
    -4.3944  -4.3943  -4.3938  -4.3013  -4.3011  -4.3007  -4.2991  -4.2907
    -4.2906  -4.2637  -4.2631  -4.2629  -4.2392  -4.2279  -4.2279  -4.2269
    -4.2216  -4.2210  -4.2184  -4.2092  -4.2089  -4.2080  -4.1908  -4.1903
    -4.1897  -4.1778  -4.1775  -4.1536  -4.1529  -4.1527  -4.1411  -4.1409
    -4.1405  -4.1169  -4.1157  -4.1045  -4.1043  -4.1028  -4.1006  -4.0920
    -4.0895  -4.0892  -4.0890  -4.0634  -4.0632  -4.0388  -4.0384  -4.0370
    -4.0157  -4.0146  -4.0144  -3.9814  -3.9804  -3.9803  -3.9632  -3.9624
    -3.9623  -3.9447  -3.9446  -3.9412  -3.8902  -3.8546  -3.8526  -3.8490
    -3.8248  -3.8181  -3.8124  -3.7994  -3.7938  -3.7711  -3.7689  -3.7622
    -3.3226  -3.3213  -3.3206  -3.2720  -3.2716  -2.9338  -2.9336  -2.9333
     2.9899   3.0091   3.0113   3.4895   3.4924   3.6074   3.6094   3.6161
     3.8161   3.8205   3.8343   3.9906   4.0036   4.0115   4.1957   4.5441
     4.5453   4.5460   4.9708   4.9733   4.9756   5.1922   5.2531   5.2577
     5.2607   5.3106   5.3122   5.3186   5.7442   5.9553   5.9756   5.9825
     6.0405   6.0468   6.3937   6.4016   6.4212   6.4548   6.4715   6.4753
     6.5288   6.5319   6.5377   6.5966   6.6816   6.6928   6.7148   6.7262
     6.7354   7.0530   7.0555   7.3361   7.3456   7.3531   7.3667   7.3794
     7.3867   7.6558   7.6590   7.6605   7.7600   7.7606   7.7646   7.8144
     7.8147   7.8442   7.8551   7.8589   7.8625   8.0733   8.0739   8.0742
     8.9900  13.1973  13.2224  13.2323  13.2923  13.3078  13.3286  13.3975
    13.4156  13.4294  13.5008  13.5119  13.5349  14.1676

          k = 0.0452 0.0452 0.0000 ( 37285 PWs)   bands (ev):

    -9.3798  -8.8383  -8.8366  -8.7716  -8.7712  -8.7616  -8.7226  -8.7193
    -8.7161  -8.6824  -8.6791  -8.6749  -8.4800  -8.4795  -8.4779  -8.4685
    -8.4672  -8.4094  -8.4086  -8.4079  -8.3491  -8.3477  -8.3476  -8.1219
    -4.3940  -4.3937  -4.3928  -4.3019  -4.3015  -4.3006  -4.2988  -4.2908
    -4.2905  -4.2646  -4.2634  -4.2628  -4.2400  -4.2291  -4.2289  -4.2268
    -4.2219  -4.2205  -4.2173  -4.2098  -4.2090  -4.2074  -4.1911  -4.1899
    -4.1887  -4.1779  -4.1772  -4.1549  -4.1534  -4.1529  -4.1419  -4.1414
    -4.1406  -4.1177  -4.1154  -4.1050  -4.1046  -4.1017  -4.1001  -4.0908
    -4.0894  -4.0887  -4.0883  -4.0637  -4.0631  -4.0405  -4.0396  -4.0368
    -4.0158  -4.0134  -4.0131  -3.9815  -3.9793  -3.9792  -3.9633  -3.9616
    -3.9612  -3.9449  -3.9447  -3.9414  -3.8927  -3.8624  -3.8582  -3.8517
    -3.8297  -3.8200  -3.8072  -3.7996  -3.7906  -3.7678  -3.7638  -3.7502
    -3.3241  -3.3212  -3.3195  -3.2723  -3.2713  -2.9357  -2.9354  -2.9347
     2.9919   3.0094   3.0142   3.4812   3.4879   3.5992   3.6035   3.6177
     3.8020   3.8121   3.8403   3.9903   4.0173   4.0339   4.2009   4.5427
     4.5453   4.5468   4.9677   4.9732   4.9782   5.1903   5.2508   5.2607
     5.2673   5.3110   5.3143   5.3284   5.7463   5.9284   5.9657   5.9779
     6.0425   6.0513   6.3781   6.3966   6.4292   6.4526   6.4735   6.4904
     6.5163   6.5282   6.5287   6.6009   6.6889   6.7094   6.7142   6.7383
     6.7621   7.0529   7.0586   7.3108   7.3353   7.3467   7.3554   7.3797
     7.3932   7.6512   7.6579   7.6615   7.7562   7.7573   7.7662   7.8148
     7.8150   7.8424   7.8539   7.8616   7.8693   8.0722   8.0737   8.0743
     9.0177  13.1420  13.1990  13.2161  13.2628  13.2895  13.3124  13.4197
    13.4259  13.4608  13.5168  13.5378  13.5810  14.1592

          k = 0.0603 0.0603 0.0000 ( 37311 PWs)   bands (ev):

    -9.3775  -8.8419  -8.8389  -8.7760  -8.7756  -8.7592  -8.7258  -8.7193
    -8.7147  -8.6811  -8.6756  -8.6692  -8.4809  -8.4798  -8.4771  -8.4682
    -8.4658  -8.4097  -8.4082  -8.4069  -8.3500  -8.3474  -8.3472  -8.1230
    -4.3935  -4.3929  -4.3912  -4.3028  -4.3021  -4.3004  -4.2985  -4.2910
    -4.2905  -4.2657  -4.2638  -4.2628  -4.2410  -4.2307  -4.2304  -4.2268
    -4.2224  -4.2197  -4.2161  -4.2105  -4.2090  -4.2067  -4.1914  -4.1896
    -4.1876  -4.1780  -4.1768  -4.1564  -4.1540  -4.1531  -4.1428  -4.1420
    -4.1407  -4.1188  -4.1149  -4.1056  -4.1047  -4.1010  -4.0987  -4.0896
    -4.0890  -4.0881  -4.0875  -4.0642  -4.0630  -4.0425  -4.0409  -4.0365
    -4.0158  -4.0121  -4.0115  -3.9817  -3.9778  -3.9777  -3.9634  -3.9604
    -3.9595  -3.9452  -3.9449  -3.9417  -3.8963  -3.8709  -3.8645  -3.8551
    -3.8345  -3.8232  -3.8016  -3.7995  -3.7864  -3.7637  -3.7578  -3.7363
    -3.3262  -3.3209  -3.3180  -3.2726  -3.2709  -2.9384  -2.9379  -2.9366
     2.9943   3.0102   3.0182   3.4698   3.4819   3.5889   3.5957   3.6194
     3.7851   3.8029   3.8480   3.9899   4.0335   4.0611   4.2085   4.5407
     4.5454   4.5479   4.9640   4.9731   4.9819   5.1882   5.2476   5.2646
     5.2758   5.3120   5.3169   5.3412   5.7491   5.8988   5.9554   5.9719
     6.0389   6.0538   6.3614   6.3943   6.4320   6.4489   6.4721   6.5003
     6.5054   6.5191   6.5398   6.6057   6.6959   6.7132   6.7286   6.7528
     6.7960   7.0528   7.0631   7.2773   7.3239   7.3381   7.3413   7.3790
     7.3992   7.6449   7.6560   7.6627   7.7514   7.7528   7.7684   7.8151
     7.8161   7.8393   7.8529   7.8650   7.8776   8.0708   8.0732   8.0744
     9.0551  13.0787  13.1728  13.1962  13.2301  13.2647  13.3088  13.4326
    13.4443  13.4916  13.5364  13.5671  13.6311  14.1522

          k = 0.0753 0.0753 0.0000 ( 37315 PWs)   bands (ev):

    -9.3745  -8.8466  -8.8416  -8.7809  -8.7807  -8.7563  -8.7295  -8.7188
    -8.7128  -8.6797  -8.6717  -8.6629  -8.4822  -8.4802  -8.4761  -8.4677
    -8.4640  -8.4103  -8.4077  -8.4058  -8.3510  -8.3471  -8.3465  -8.1244
    -4.3928  -4.3919  -4.3893  -4.3038  -4.3030  -4.3002  -4.2980  -4.2911
    -4.2905  -4.2670  -4.2642  -4.2628  -4.2423  -4.2327  -4.2321  -4.2268
    -4.2229  -4.2188  -4.2149  -4.2113  -4.2086  -4.2059  -4.1919  -4.1894
    -4.1864  -4.1781  -4.1764  -4.1582  -4.1549  -4.1534  -4.1440  -4.1429
    -4.1408  -4.1200  -4.1144  -4.1061  -4.1048  -4.1007  -4.0968  -4.0892
    -4.0875  -4.0874  -4.0868  -4.0648  -4.0629  -4.0445  -4.0421  -4.0362
    -4.0158  -4.0106  -4.0100  -3.9819  -3.9765  -3.9759  -3.9635  -3.9590
    -3.9571  -3.9455  -3.9451  -3.9420  -3.9009  -3.8792  -3.8711  -3.8588
    -3.8393  -3.8267  -3.7996  -3.7957  -3.7813  -3.7590  -3.7513  -3.7211
    -3.3289  -3.3207  -3.3161  -3.2731  -3.2703  -2.9418  -2.9410  -2.9390
     2.9969   3.0117   3.0235   3.4558   3.4748   3.5773   3.5866   3.6209
     3.7665   3.7936   3.8571   3.9895   4.0513   4.0908   4.2190   4.5382
     4.5456   4.5494   4.9602   4.9731   4.9866   5.1861   5.2436   5.2693
     5.2849   5.3143   5.3198   5.3567   5.7523   5.8680   5.9458   5.9650
     6.0288   6.0551   6.3439   6.3901   6.4275   6.4431   6.4811   6.4849
     6.5078   6.5224   6.5558   6.6121   6.7030   6.7119   6.7503   6.7688
     6.8337   7.0526   7.0687   7.2369   7.3115   7.3251   7.3276   7.3775
     7.4044   7.6371   7.6531   7.6641   7.7460   7.7473   7.7711   7.8150
     7.8177   7.8347   7.8522   7.8689   7.8871   8.0689   8.0725   8.0746
     9.1012  13.0110  13.1452  13.1740  13.1968  13.2364  13.3109  13.4382
    13.4697  13.5218  13.5582  13.5977  13.6818  14.1371

          k = 0.0904 0.0904 0.0000 ( 37329 PWs)   bands (ev):

    -9.3709  -8.8526  -8.8449  -8.7864  -8.7857  -8.7530  -8.7335  -8.7178
    -8.7106  -8.6783  -8.6676  -8.6564  -8.4837  -8.4807  -8.4748  -8.4672
    -8.4620  -8.4112  -8.4071  -8.4045  -8.3522  -8.3466  -8.3455  -8.1262
    -4.3919  -4.3907  -4.3870  -4.3050  -4.3041  -4.2999  -4.2976  -4.2912
    -4.2904  -4.2684  -4.2646  -4.2629  -4.2438  -4.2351  -4.2342  -4.2270
    -4.2235  -4.2179  -4.2139  -4.2120  -4.2076  -4.2051  -4.1925  -4.1893
    -4.1852  -4.1783  -4.1758  -4.1601  -4.1559  -4.1537  -4.1452  -4.1438
    -4.1410  -4.1212  -4.1137  -4.1065  -4.1047  -4.1005  -4.0945  -4.0889
    -4.0867  -4.0865  -4.0855  -4.0655  -4.0628  -4.0463  -4.0431  -4.0358
    -4.0158  -4.0090  -4.0085  -3.9821  -3.9753  -3.9738  -3.9636  -3.9573
    -3.9540  -3.9460  -3.9453  -3.9423  -3.9066  -3.8868  -3.8777  -3.8629
    -3.8442  -3.8300  -3.8000  -3.7898  -3.7756  -3.7541  -3.7444  -3.7051
    -3.3321  -3.3203  -3.3139  -3.2735  -3.2696  -2.9460  -2.9448  -2.9420
     2.9989   3.0147   3.0298   3.4393   3.4668   3.5649   3.5766   3.6219
     3.7470   3.7843   3.8672   3.9891   4.0699   4.1208   4.2334   4.5354
     4.5460   4.5513   4.9565   4.9733   4.9923   5.1844   5.2388   5.2743
     5.2923   5.3197   5.3229   5.3744   5.7554   5.8370   5.9378   5.9577
     6.0134   6.0547   6.3258   6.3765   6.4302   6.4350   6.4659   6.5002
     6.5011   6.5363   6.5708   6.6216   6.7101   6.7108   6.7740   6.7853
     6.8737   7.0521   7.0754   7.1912   7.2980   7.3072   7.3159   7.3753
     7.4087   7.6279   7.6489   7.6653   7.7405   7.7412   7.7743   7.8144
     7.8198   7.8292   7.8517   7.8731   7.8974   8.0668   8.0714   8.0748
     9.1548  12.9403  13.1171  13.1505  13.1636  13.2074  13.3154  13.4439
    13.4954  13.5512  13.5813  13.6288  13.7320  14.1232

          k = 0.1055 0.1055 0.0000 ( 37333 PWs)   bands (ev):

    -9.3667  -8.8598  -8.8484  -8.7924  -8.7902  -8.7494  -8.7378  -8.7163
    -8.7080  -8.6769  -8.6634  -8.6499  -8.4856  -8.4813  -8.4733  -8.4665
    -8.4596  -8.4127  -8.4064  -8.4032  -8.3535  -8.3461  -8.3440  -8.1282
    -4.3909  -4.3893  -4.3843  -4.3063  -4.3054  -4.2996  -4.2972  -4.2912
    -4.2904  -4.2697  -4.2651  -4.2631  -4.2454  -4.2379  -4.2363  -4.2273
    -4.2241  -4.2169  -4.2132  -4.2127  -4.2061  -4.2045  -4.1932  -4.1894
    -4.1841  -4.1784  -4.1753  -4.1619  -4.1571  -4.1540  -4.1464  -4.1448
    -4.1413  -4.1225  -4.1131  -4.1067  -4.1045  -4.1004  -4.0922  -4.0886
    -4.0864  -4.0858  -4.0835  -4.0663  -4.0626  -4.0478  -4.0437  -4.0354
    -4.0157  -4.0075  -4.0070  -3.9823  -3.9743  -3.9716  -3.9637  -3.9555
    -3.9504  -3.9465  -3.9457  -3.9426  -3.9132  -3.8934  -3.8842  -3.8670
    -3.8494  -3.8328  -3.8007  -3.7840  -3.7695  -3.7492  -3.7374  -3.6884
    -3.3359  -3.3199  -3.3113  -3.2740  -3.2687  -2.9508  -2.9492  -2.9454
     3.0001   3.0193   3.0373   3.4209   3.4582   3.5523   3.5659   3.6220
     3.7269   3.7749   3.8778   3.9889   4.0886   4.1487   4.2533   4.5322
     4.5465   4.5536   4.9534   4.9739   4.9989   5.1832   5.2330   5.2793
     5.2957   5.3261   5.3299   5.3940   5.7567   5.8080   5.9318   5.9506
     5.9943   6.0528   6.3070   6.3564   6.4247   6.4400   6.4504   6.4938
     6.5221   6.5494   6.5824   6.6351   6.7077   6.7196   6.7992   6.8018
     6.9150   7.0504   7.0824   7.1433   7.2829   7.2884   7.3037   7.3724
     7.4122   7.6175   7.6433   7.6662   7.7345   7.7352   7.7779   7.8121
     7.8220   7.8239   7.8514   7.8773   7.9079   8.0643   8.0700   8.0749
     9.2149  12.8674  13.0887  13.1264  13.1307  13.1785  13.3215  13.4499
    13.5207  13.5797  13.6049  13.6598  13.7809  14.1073

          k = 0.1205 0.1205 0.0000 ( 37301 PWs)   bands (ev):

    -9.3618  -8.8683  -8.8522  -8.7987  -8.7943  -8.7456  -8.7423  -8.7145
    -8.7049  -8.6757  -8.6592  -8.6433  -8.4876  -8.4819  -8.4716  -8.4659
    -8.4571  -8.4146  -8.4058  -8.4018  -8.3547  -8.3455  -8.3420  -8.1305
    -4.3898  -4.3877  -4.3812  -4.3077  -4.3069  -4.2993  -4.2970  -4.2911
    -4.2903  -4.2710  -4.2655  -4.2633  -4.2473  -4.2409  -4.2386  -4.2278
    -4.2247  -4.2162  -4.2134  -4.2125  -4.2044  -4.2038  -4.1941  -4.1896
    -4.1832  -4.1786  -4.1747  -4.1634  -4.1585  -4.1542  -4.1477  -4.1458
    -4.1417  -4.1237  -4.1125  -4.1068  -4.1043  -4.1002  -4.0898  -4.0883
    -4.0869  -4.0848  -4.0815  -4.0673  -4.0623  -4.0487  -4.0440  -4.0349
    -4.0156  -4.0059  -4.0056  -3.9825  -3.9736  -3.9694  -3.9639  -3.9537
    -3.9470  -3.9466  -3.9460  -3.9426  -3.9201  -3.8992  -3.8906  -3.8711
    -3.8546  -3.8352  -3.8016  -3.7783  -3.7632  -3.7443  -3.7301  -3.6712
    -3.3403  -3.3195  -3.3085  -3.2744  -3.2676  -2.9563  -2.9543  -2.9494
     3.0007   3.0256   3.0460   3.4010   3.4492   3.5396   3.5548   3.6211
     3.7066   3.7653   3.8887   3.9888   4.1073   4.1723   4.2801   4.5288
     4.5473   4.5564   4.9512   4.9748   5.0065   5.1825   5.2263   5.2839
     5.2959   5.3296   5.3439   5.4153   5.7500   5.7871   5.9283   5.9439
     5.9733   6.0495   6.2875   6.3346   6.4128   6.4303   6.4590   6.4887
     6.5439   6.5608   6.5911   6.6518   6.7047   6.7298   6.8175   6.8256
     6.9570   7.0417   7.0820   7.1076   7.2661   7.2692   7.2916   7.3689
     7.4149   7.6060   7.6364   7.6667   7.7275   7.7303   7.7819   7.8066
     7.8205   7.8241   7.8513   7.8816   7.9186   8.0616   8.0681   8.0752
     9.2805  12.7925  13.0604  13.0982  13.1020  13.1499  13.3289  13.4565
    13.5456  13.6073  13.6286  13.6903  13.8282  14.0906

          k = 0.1356 0.1356 0.0000 ( 37313 PWs)   bands (ev):

    -9.3563  -8.8780  -8.8561  -8.8052  -8.7979  -8.7469  -8.7416  -8.7123
    -8.7016  -8.6746  -8.6552  -8.6369  -8.4899  -8.4825  -8.4697  -8.4653
    -8.4545  -8.4172  -8.4051  -8.4004  -8.3560  -8.3447  -8.3395  -8.1332
    -4.3886  -4.3858  -4.3777  -4.3092  -4.3086  -4.2990  -4.2971  -4.2908
    -4.2902  -4.2722  -4.2660  -4.2637  -4.2493  -4.2440  -4.2409  -4.2285
    -4.2252  -4.2157  -4.2140  -4.2118  -4.2034  -4.2023  -4.1950  -4.1899
    -4.1824  -4.1788  -4.1742  -4.1647  -4.1600  -4.1543  -4.1489  -4.1468
    -4.1422  -4.1249  -4.1119  -4.1066  -4.1040  -4.0999  -4.0884  -4.0875
    -4.0874  -4.0836  -4.0796  -4.0682  -4.0620  -4.0491  -4.0439  -4.0344
    -4.0155  -4.0043  -4.0042  -3.9828  -3.9730  -3.9673  -3.9640  -3.9522
    -3.9476  -3.9464  -3.9432  -3.9425  -3.9266  -3.9041  -3.8966  -3.8750
    -3.8599  -3.8373  -3.8027  -3.7727  -3.7570  -3.7397  -3.7226  -3.6535
    -3.3452  -3.3189  -3.3056  -3.2747  -3.2662  -2.9625  -2.9599  -2.9538
     3.0009   3.0331   3.0557   3.3800   3.4401   3.5270   3.5435   3.6190
     3.6864   3.7553   3.8996   3.9890   4.1255   4.1909   4.3139   4.5254
     4.5483   4.5596   4.9501   4.9761   5.0149   5.1825   5.2183   5.2876
     5.2940   5.3333   5.3598   5.4381   5.7286   5.7808   5.9275   5.9383
     5.9518   6.0450   6.2676   6.3131   6.3999   6.4140   6.4767   6.4842
     6.5655   6.5697   6.5985   6.6695   6.7010   6.7420   6.8321   6.8529
     6.9992   7.0067   7.0696   7.1094   7.2475   7.2503   7.2803   7.3648
     7.4168   7.5935   7.6283   7.6666   7.7205   7.7263   7.7861   7.7982
     7.8188   7.8260   7.8513   7.8858   7.9289   8.0586   8.0656   8.0753
     9.3508  12.7159  13.0325  13.0664  13.0777  13.1220  13.3374  13.4637
    13.5697  13.6339  13.6521  13.7202  13.8737  14.0738

          k = 0.1507 0.1507 0.0000 ( 37319 PWs)   bands (ev):

    -9.3502  -8.8887  -8.8600  -8.8117  -8.8011  -8.7516  -8.7374  -8.7099
    -8.6978  -8.6736  -8.6513  -8.6305  -8.4923  -8.4832  -8.4676  -8.4647
    -8.4519  -8.4203  -8.4044  -8.3991  -8.3571  -8.3439  -8.3365  -8.1361
    -4.3872  -4.3838  -4.3739  -4.3106  -4.3104  -4.2987  -4.2975  -4.2904
    -4.2901  -4.2733  -4.2664  -4.2642  -4.2516  -4.2473  -4.2432  -4.2294
    -4.2256  -4.2156  -4.2146  -4.2111  -4.2030  -4.2003  -4.1961  -4.1904
    -4.1819  -4.1790  -4.1738  -4.1657  -4.1615  -4.1543  -4.1501  -4.1478
    -4.1427  -4.1259  -4.1115  -4.1062  -4.1039  -4.0995  -4.0901  -4.0872
    -4.0853  -4.0820  -4.0777  -4.0690  -4.0615  -4.0490  -4.0434  -4.0339
    -4.0153  -4.0031  -4.0025  -3.9830  -3.9726  -3.9653  -3.9641  -3.9513
    -3.9480  -3.9465  -3.9421  -3.9421  -3.9310  -3.9082  -3.9020  -3.8789
    -3.8650  -3.8390  -3.8039  -3.7674  -3.7508  -3.7354  -3.7148  -3.6355
    -3.3507  -3.3183  -3.3026  -3.2748  -3.2645  -2.9693  -2.9661  -2.9587
     3.0010   3.0417   3.0664   3.3585   3.4309   3.5146   3.5323   3.6155
     3.6664   3.7449   3.9104   3.9894   4.1432   4.2057   4.3531   4.5221
     4.5496   4.5634   4.9503   4.9777   5.0242   5.1830   5.2093   5.2901
     5.2907   5.3372   5.3768   5.4622   5.7010   5.7803   5.9275   5.9334
     5.9338   6.0395   6.2473   6.2925   6.3864   6.3982   6.4799   6.4953
     6.5756   6.5853   6.6066   6.6866   6.6968   6.7565   6.8450   6.8808
     6.9530   7.0411   7.0673   7.1197   7.2274   7.2323   7.2699   7.3601
     7.4181   7.5801   7.6191   7.6659   7.7134   7.7232   7.7881   7.7904
     7.8176   7.8273   7.8516   7.8899   7.9388   8.0555   8.0626   8.0755
     9.4249  12.6378  13.0050  13.0353  13.0539  13.0949  13.3470  13.4716
    13.5929  13.6595  13.6752  13.7491  13.9174  14.0551

          k = 0.0123 0.0123 0.0123 ( 37293 PWs)   bands (ev):

    -9.3824  -8.8341  -8.8341  -8.7660  -8.7650  -8.7650  -8.7182  -8.7182
    -8.7180  -8.6838  -8.6838  -8.6834  -8.4791  -8.4790  -8.4790  -8.4688
    -8.4688  -8.4091  -8.4091  -8.4091  -8.3480  -8.3480  -8.3479  -8.1206
    -4.3946  -4.3946  -4.3945  -4.3009  -4.3009  -4.3008  -4.2992  -4.2906
    -4.2906  -4.2630  -4.2630  -4.2630  -4.2387  -4.2272  -4.2272  -4.2270
    -4.2213  -4.2213  -4.2190  -4.2087  -4.2087  -4.2085  -4.1905  -4.1905
    -4.1905  -4.1777  -4.1777  -4.1528  -4.1526  -4.1526  -4.1406  -4.1406
    -4.1406  -4.1161  -4.1161  -4.1042  -4.1039  -4.1039  -4.1009  -4.0927
    -4.0895  -4.0895  -4.0895  -4.0632  -4.0632  -4.0375  -4.0374  -4.0374
    -4.0155  -4.0155  -4.0154  -3.9812  -3.9812  -3.9812  -3.9631  -3.9631
    -3.9629  -3.9446  -3.9446  -3.9411  -3.8887  -3.8484  -3.8484  -3.8476
    -3.8188  -3.8188  -3.8166  -3.7975  -3.7975  -3.7733  -3.7716  -3.7716
    -3.3218  -3.3213  -3.3213  -3.2718  -3.2718  -2.9326  -2.9325  -2.9325
     2.9887   3.0093   3.0093   3.4949   3.4949   3.6121   3.6143   3.6143
     3.8262   3.8262   3.8304   3.9902   3.9956   3.9956   4.1926   4.5451
     4.5451   4.5456   4.9726   4.9738   4.9738   5.1935   5.2549   5.2560
     5.2560   5.3105   5.3105   5.3124   5.7429   5.9796   5.9796   5.9864
     6.0383   6.0383   6.4082   6.4110   6.4110   6.4601   6.4603   6.4603
     6.5423   6.5423   6.5424   6.5928   6.6770   6.6770   6.7170   6.7170
     6.7191   7.0533   7.0533   7.3529   7.3551   7.3551   7.3763   7.3785
     7.3785   7.6592   7.6592   7.6596   7.7627   7.7627   7.7634   7.8145
     7.8145   7.8450   7.8561   7.8576   7.8576   8.0740   8.0740   8.0741
     8.9730  13.2378  13.2399  13.2399  13.3160  13.3404  13.3404  13.3923
    13.3924  13.3924  13.4906  13.4964  13.4964  14.1712

          k = 0.0246 0.0246 0.0246 ( 37305 PWs)   bands (ev):

    -9.3814  -8.8354  -8.8354  -8.7692  -8.7651  -8.7651  -8.7190  -8.7190
    -8.7181  -8.6822  -8.6822  -8.6807  -8.4794  -8.4789  -8.4789  -8.4684
    -8.4684  -8.4091  -8.4088  -8.4088  -8.3483  -8.3483  -8.3476  -8.1211
    -4.3944  -4.3944  -4.3938  -4.3011  -4.3011  -4.3010  -4.2991  -4.2906
    -4.2906  -4.2634  -4.2631  -4.2631  -4.2392  -4.2279  -4.2279  -4.2270
    -4.2212  -4.2212  -4.2184  -4.2089  -4.2089  -4.2083  -4.1904  -4.1902
    -4.1902  -4.1777  -4.1777  -4.1537  -4.1528  -4.1528  -4.1410  -4.1408
    -4.1408  -4.1163  -4.1163  -4.1047  -4.1034  -4.1034  -4.1007  -4.0919
    -4.0893  -4.0893  -4.0891  -4.0633  -4.0633  -4.0383  -4.0380  -4.0380
    -4.0151  -4.0151  -4.0144  -3.9808  -3.9807  -3.9807  -3.9629  -3.9629
    -3.9623  -3.9447  -3.9447  -3.9412  -3.8902  -3.8533  -3.8533  -3.8500
    -3.8207  -3.8207  -3.8134  -3.7970  -3.7970  -3.7712  -3.7651  -3.7651
    -3.3228  -3.3208  -3.3208  -3.2718  -3.2718  -2.9338  -2.9335  -2.9335
     2.9900   3.0102   3.0102   3.4910   3.4910   3.6053   3.6138   3.6138
     3.8184   3.8184   3.8340   3.9883   4.0087   4.0087   4.1957   4.5445
     4.5445   4.5463   4.9702   4.9748   4.9748   5.1922   5.2543   5.2586
     5.2586   5.3114   5.3114   5.3184   5.7443   5.9635   5.9635   5.9862
     6.0437   6.0437   6.3973   6.4078   6.4078   6.4677   6.4687   6.4687
     6.5323   6.5330   6.5330   6.5974   6.6855   6.6855   6.7248   6.7248
     6.7299   7.0543   7.0543   7.3371   7.3472   7.3472   7.3738   7.3813
     7.3813   7.6580   7.6580   7.6593   7.7608   7.7608   7.7635   7.8146
     7.8146   7.8441   7.8551   7.8608   7.8608   8.0736   8.0736   8.0741
     8.9900  13.2092  13.2167  13.2167  13.3027  13.3207  13.3207  13.4066
    13.4066  13.4177  13.5055  13.5239  13.5239  14.1686

          k = 0.0369 0.0369 0.0369 ( 37296 PWs)   bands (ev):

    -9.3798  -8.8375  -8.8375  -8.7742  -8.7652  -8.7652  -8.7200  -8.7200
    -8.7179  -8.6797  -8.6797  -8.6767  -8.4800  -8.4788  -8.4788  -8.4678
    -8.4678  -8.4090  -8.4084  -8.4084  -8.3486  -8.3486  -8.3472  -8.1219
    -4.3939  -4.3939  -4.3926  -4.3014  -4.3014  -4.3013  -4.2988  -4.2907
    -4.2907  -4.2640  -4.2634  -4.2634  -4.2400  -4.2290  -4.2290  -4.2270
    -4.2210  -4.2210  -4.2176  -4.2092  -4.2092  -4.2079  -4.1901  -4.1898
    -4.1898  -4.1775  -4.1775  -4.1550  -4.1531  -4.1531  -4.1416  -4.1411
    -4.1411  -4.1166  -4.1166  -4.1054  -4.1027  -4.1027  -4.1005  -4.0908
    -4.0888  -4.0888  -4.0886  -4.0634  -4.0634  -4.0393  -4.0389  -4.0389
    -4.0145  -4.0145  -4.0130  -3.9802  -3.9799  -3.9799  -3.9625  -3.9625
    -3.9611  -3.9448  -3.9448  -3.9414  -3.8928  -3.8604  -3.8604  -3.8528
    -3.8226  -3.8226  -3.8094  -3.7969  -3.7969  -3.7675  -3.7558  -3.7558
    -3.3246  -3.3201  -3.3201  -3.2718  -3.2718  -2.9357  -2.9350  -2.9350
     2.9921   3.0117   3.0117   3.4846   3.4846   3.5947   3.6130   3.6130
     3.8076   3.8076   3.8389   3.9851   4.0281   4.0281   4.2010   4.5436
     4.5436   4.5476   4.9663   4.9764   4.9764   5.1903   5.2536   5.2626
     5.2626   5.3129   5.3129   5.3276   5.7468   5.9431   5.9431   5.9856
     6.0466   6.0466   6.3841   6.4062   6.4062   6.4734   6.4737   6.4737
     6.5216   6.5272   6.5272   6.6031   6.6907   6.6907   6.7419   6.7419
     6.7461   7.0559   7.0559   7.3118   7.3363   7.3363   7.3695   7.3837
     7.3837   7.6559   7.6559   7.6588   7.7578   7.7578   7.7634   7.8152
     7.8152   7.8419   7.8543   7.8657   7.8657   8.0731   8.0731   8.0741
     9.0177  13.1671  13.1786  13.1786  13.2981  13.3114  13.3114  13.4146
    13.4146  13.4349  13.5322  13.5612  13.5612  14.1644

          k = 0.0492 0.0492 0.0492 ( 37311 PWs)   bands (ev):

    -9.3775  -8.8405  -8.8405  -8.7807  -8.7653  -8.7653  -8.7210  -8.7210
    -8.7174  -8.6768  -8.6768  -8.6720  -8.4807  -8.4787  -8.4787  -8.4668
    -8.4668  -8.4091  -8.4079  -8.4079  -8.3490  -8.3490  -8.3465  -8.1230
    -4.3933  -4.3933  -4.3911  -4.3019  -4.3019  -4.3018  -4.2982  -4.2907
    -4.2907  -4.2647  -4.2638  -4.2638  -4.2410  -4.2306  -4.2306  -4.2270
    -4.2208  -4.2208  -4.2165  -4.2095  -4.2095  -4.2074  -4.1897  -4.1894
    -4.1894  -4.1774  -4.1774  -4.1567  -4.1535  -4.1535  -4.1424  -4.1416
    -4.1416  -4.1169  -4.1169  -4.1062  -4.1018  -4.1018  -4.1003  -4.0893
    -4.0882  -4.0882  -4.0880  -4.0636  -4.0636  -4.0405  -4.0400  -4.0400
    -4.0137  -4.0137  -4.0113  -3.9794  -3.9789  -3.9789  -3.9619  -3.9619
    -3.9594  -3.9450  -3.9450  -3.9417  -3.8962  -3.8687  -3.8687  -3.8552
    -3.8245  -3.8245  -3.8055  -3.7972  -3.7972  -3.7622  -3.7449  -3.7449
    -3.3270  -3.3191  -3.3191  -3.2717  -3.2717  -2.9384  -2.9372  -2.9372
     2.9950   3.0138   3.0138   3.4760   3.4760   3.5814   3.6117   3.6117
     3.7954   3.7954   3.8441   3.9807   4.0520   4.0520   4.2085   4.5424
     4.5424   4.5493   4.9613   4.9789   4.9789   5.1881   5.2527   5.2677
     5.2677   5.3152   5.3152   5.3392   5.7505   5.9207   5.9207   5.9845
     6.0450   6.0450   6.3699   6.4065   6.4065   6.4691   6.4691   6.4714
     6.5164   6.5327   6.5327   6.6098   6.6921   6.6921   6.7658   6.7661
     6.7661   7.0584   7.0584   7.2781   7.3231   7.3231   7.3635   7.3853
     7.3853   7.6528   7.6528   7.6576   7.7539   7.7539   7.7627   7.8162
     7.8162   7.8382   7.8541   7.8717   7.8717   8.0723   8.0723   8.0740
     9.0552  13.1187  13.1318  13.1318  13.2979  13.3086  13.3086  13.4200
    13.4200  13.4451  13.5668  13.6024  13.6024  14.1588

          k = 0.0615 0.0615 0.0615 ( 37320 PWs)   bands (ev):

    -9.3745  -8.8444  -8.8444  -8.7883  -8.7654  -8.7654  -8.7217  -8.7217
    -8.7165  -8.6735  -8.6735  -8.6667  -8.4816  -8.4788  -8.4788  -8.4655
    -8.4655  -8.4093  -8.4074  -8.4074  -8.3495  -8.3495  -8.3455  -8.1244
    -4.3925  -4.3925  -4.3890  -4.3025  -4.3025  -4.3025  -4.2975  -4.2908
    -4.2908  -4.2655  -4.2643  -4.2643  -4.2423  -4.2325  -4.2325  -4.2270
    -4.2204  -4.2204  -4.2153  -4.2097  -4.2097  -4.2069  -4.1892  -4.1892
    -4.1891  -4.1771  -4.1771  -4.1585  -4.1541  -4.1541  -4.1434  -4.1422
    -4.1422  -4.1173  -4.1173  -4.1070  -4.1008  -4.1008  -4.1002  -4.0876
    -4.0875  -4.0875  -4.0873  -4.0639  -4.0639  -4.0416  -4.0412  -4.0412
    -4.0130  -4.0130  -4.0094  -3.9787  -3.9778  -3.9778  -3.9610  -3.9610
    -3.9572  -3.9452  -3.9452  -3.9421  -3.9005  -3.8775  -3.8775  -3.8571
    -3.8265  -3.8265  -3.8020  -3.7977  -3.7977  -3.7553  -3.7330  -3.7330
    -3.3300  -3.3178  -3.3178  -3.2716  -3.2716  -2.9418  -2.9400  -2.9400
     2.9988   3.0166   3.0166   3.4655   3.4655   3.5661   3.6099   3.6099
     3.7830   3.7830   3.8487   3.9750   4.0789   4.0789   4.2185   4.5410
     4.5410   4.5515   4.9555   4.9823   4.9823   5.1858   5.2512   5.2734
     5.2734   5.3185   5.3185   5.3527   5.7558   5.8977   5.8977   5.9828
     6.0391   6.0391   6.3554   6.4066   6.4066   6.4603   6.4606   6.4606
     6.5187   6.5464   6.5464   6.6179   6.6922   6.6922   6.7878   6.7936
     6.7936   7.0620   7.0620   7.2374   7.3079   7.3079   7.3561   7.3861
     7.3861   7.6488   7.6488   7.6557   7.7494   7.7494   7.7610   7.8176
     7.8176   7.8334   7.8548   7.8786   7.8786   8.0712   8.0712   8.0738
     9.1015  13.0671  13.0806  13.0806  13.2998  13.3092  13.3092  13.4248
    13.4248  13.4522  13.6047  13.6444  13.6444  14.1521

          k = 0.0738 0.0738 0.0738 ( 37323 PWs)   bands (ev):

    -9.3709  -8.8491  -8.8491  -8.7969  -8.7653  -8.7653  -8.7222  -8.7222
    -8.7151  -8.6701  -8.6701  -8.6613  -8.4827  -8.4789  -8.4789  -8.4638
    -8.4638  -8.4098  -8.4068  -8.4068  -8.3500  -8.3500  -8.3441  -8.1262
    -4.3915  -4.3915  -4.3866  -4.3034  -4.3033  -4.3033  -4.2967  -4.2909
    -4.2909  -4.2662  -4.2648  -4.2648  -4.2437  -4.2348  -4.2348  -4.2271
    -4.2200  -4.2200  -4.2141  -4.2098  -4.2098  -4.2063  -4.1891  -4.1891
    -4.1885  -4.1769  -4.1769  -4.1605  -4.1548  -4.1548  -4.1446  -4.1428
    -4.1428  -4.1175  -4.1175  -4.1078  -4.1001  -4.0997  -4.0997  -4.0867
    -4.0866  -4.0866  -4.0857  -4.0642  -4.0642  -4.0425  -4.0423  -4.0423
    -4.0122  -4.0122  -4.0073  -3.9780  -3.9768  -3.9768  -3.9599  -3.9599
    -3.9545  -3.9455  -3.9455  -3.9425  -3.9054  -3.8863  -3.8863  -3.8584
    -3.8285  -3.8285  -3.7989  -3.7985  -3.7985  -3.7471  -3.7207  -3.7207
    -3.3337  -3.3163  -3.3163  -3.2715  -3.2715  -2.9460  -2.9433  -2.9433
     3.0034   3.0199   3.0199   3.4535   3.4535   3.5496   3.6077   3.6077
     3.7708   3.7708   3.8517   3.9683   4.1080   4.1080   4.2310   4.5396
     4.5396   4.5542   4.9494   4.9866   4.9866   5.1838   5.2489   5.2790
     5.2790   5.3229   5.3229   5.3675   5.7627   5.8747   5.8747   5.9803
     6.0294   6.0294   6.3406   6.4020   6.4020   6.4450   6.4566   6.4566
     6.5243   6.5627   6.5627   6.6276   6.6928   6.6928   6.8111   6.8221
     6.8221   7.0669   7.0669   7.1909   7.2911   7.2911   7.3476   7.3863
     7.3863   7.6436   7.6436   7.6526   7.7448   7.7448   7.7577   7.8193
     7.8193   7.8280   7.8563   7.8861   7.8861   8.0700   8.0700   8.0735
     9.1553  13.0137  13.0269  13.0269  13.3030  13.3117  13.3117  13.4297
    13.4297  13.4582  13.6431  13.6860  13.6860  14.1445

          k = 0.0861 0.0861 0.0861 ( 37305 PWs)   bands (ev):

    -9.3667  -8.8546  -8.8546  -8.8061  -8.7652  -8.7652  -8.7221  -8.7221
    -8.7134  -8.6668  -8.6668  -8.6559  -8.4839  -8.4792  -8.4792  -8.4618
    -8.4618  -8.4106  -8.4063  -8.4063  -8.3504  -8.3504  -8.3424  -8.1282
    -4.3904  -4.3904  -4.3837  -4.3046  -4.3042  -4.3042  -4.2957  -4.2910
    -4.2910  -4.2668  -4.2655  -4.2655  -4.2453  -4.2374  -4.2374  -4.2272
    -4.2197  -4.2197  -4.2131  -4.2098  -4.2098  -4.2057  -4.1892  -4.1892
    -4.1877  -4.1765  -4.1765  -4.1624  -4.1557  -4.1557  -4.1460  -4.1434
    -4.1434  -4.1178  -4.1178  -4.1085  -4.1001  -4.0986  -4.0986  -4.0862
    -4.0855  -4.0855  -4.0838  -4.0647  -4.0647  -4.0432  -4.0432  -4.0430
    -4.0115  -4.0115  -4.0051  -3.9773  -3.9758  -3.9758  -3.9585  -3.9585
    -3.9515  -3.9458  -3.9458  -3.9428  -3.9107  -3.8949  -3.8949  -3.8592
    -3.8307  -3.8307  -3.7994  -3.7994  -3.7961  -3.7378  -3.7082  -3.7082
    -3.3379  -3.3146  -3.3146  -3.2712  -3.2712  -2.9509  -2.9472  -2.9472
     3.0089   3.0239   3.0239   3.4403   3.4403   3.5324   3.6050   3.6050
     3.7590   3.7590   3.8527   3.9604   4.1385   4.1385   4.2460   4.5382
     4.5382   4.5574   4.9434   4.9920   4.9920   5.1821   5.2455   5.2840
     5.2840   5.3288   5.3288   5.3835   5.7715   5.8522   5.8523   5.9767
     6.0169   6.0169   6.3256   6.3912   6.3912   6.4289   6.4594   6.4594
     6.5307   6.5792   6.5792   6.6387   6.6952   6.6952   6.8351   6.8502
     6.8502   7.0736   7.0736   7.1398   7.2728   7.2728   7.3380   7.3860
     7.3860   7.6373   7.6373   7.6482   7.7403   7.7403   7.7523   7.8210
     7.8210   7.8226   7.8586   7.8940   7.8940   8.0685   8.0685   8.0731
     9.2157  12.9590  12.9718  12.9718  13.3072  13.3156  13.3156  13.4349
    13.4349  13.4640  13.6808  13.7264  13.7264  14.1362

          k = 0.0984 0.0984 0.0984 ( 37302 PWs)   bands (ev):

    -9.3618  -8.8608  -8.8608  -8.8159  -8.7648  -8.7648  -8.7217  -8.7217
    -8.7112  -8.6635  -8.6635  -8.6504  -8.4852  -8.4795  -8.4795  -8.4596
    -8.4596  -8.4118  -8.4059  -8.4059  -8.3506  -8.3506  -8.3403  -8.1305
    -4.3891  -4.3891  -4.3804  -4.3059  -4.3052  -4.3052  -4.2946  -4.2911
    -4.2911  -4.2672  -4.2662  -4.2662  -4.2471  -4.2402  -4.2402  -4.2273
    -4.2194  -4.2194  -4.2125  -4.2097  -4.2097  -4.2050  -4.1894  -4.1894
    -4.1868  -4.1762  -4.1762  -4.1642  -4.1568  -4.1568  -4.1474  -4.1440
    -4.1440  -4.1179  -4.1179  -4.1092  -4.1002  -4.0974  -4.0974  -4.0856
    -4.0844  -4.0844  -4.0819  -4.0652  -4.0652  -4.0439  -4.0439  -4.0432
    -4.0109  -4.0109  -4.0029  -3.9767  -3.9750  -3.9750  -3.9568  -3.9568
    -3.9486  -3.9460  -3.9460  -3.9425  -3.9162  -3.9029  -3.9029  -3.8595
    -3.8331  -3.8331  -3.8006  -3.8006  -3.7936  -3.7278  -3.6957  -3.6957
    -3.3425  -3.3126  -3.3126  -3.2708  -3.2708  -2.9565  -2.9516  -2.9516
     3.0151   3.0284   3.0284   3.4264   3.4264   3.5150   3.6017   3.6017
     3.7477   3.7477   3.8515   3.9513   4.1699   4.1699   4.2632   4.5370
     4.5370   4.5611   4.9377   4.9985   4.9985   5.1805   5.2407   5.2878
     5.2878   5.3360   5.3360   5.4003   5.7822   5.8308   5.8308   5.9721
     6.0028   6.0028   6.3100   6.3771   6.3771   6.4133   6.4649   6.4649
     6.5374   6.5949   6.5949   6.6509   6.7007   6.7007   6.8590   6.8766
     6.8766   7.0825   7.0825   7.0855   7.2534   7.2534   7.3278   7.3852
     7.3852   7.6298   7.6298   7.6421   7.7363   7.7363   7.7444   7.8173
     7.8227   7.8227   7.8620   7.9019   7.9019   8.0668   8.0668   8.0725
     9.2818  12.9036  12.9159  12.9159  13.3123  13.3206  13.3206  13.4407
    13.4407  13.4700  13.7173  13.7651  13.7651  14.1274

          k = 0.1107 0.1107 0.1107 ( 37293 PWs)   bands (ev):

    -9.3564  -8.8677  -8.8677  -8.8261  -8.7642  -8.7642  -8.7209  -8.7209
    -8.7087  -8.6603  -8.6603  -8.6451  -8.4867  -8.4798  -8.4798  -8.4572
    -8.4572  -8.4135  -8.4058  -8.4058  -8.3506  -8.3506  -8.3378  -8.1331
    -4.3877  -4.3877  -4.3768  -4.3074  -4.3064  -4.3064  -4.2934  -4.2912
    -4.2912  -4.2675  -4.2671  -4.2671  -4.2490  -4.2430  -4.2430  -4.2275
    -4.2192  -4.2192  -4.2123  -4.2094  -4.2094  -4.2043  -4.1899  -4.1899
    -4.1857  -4.1759  -4.1759  -4.1657  -4.1581  -4.1581  -4.1490  -4.1446
    -4.1446  -4.1179  -4.1179  -4.1098  -4.1004  -4.0963  -4.0963  -4.0851
    -4.0832  -4.0832  -4.0801  -4.0657  -4.0657  -4.0444  -4.0444  -4.0430
    -4.0102  -4.0102  -4.0006  -3.9760  -3.9743  -3.9743  -3.9552  -3.9552
    -3.9470  -3.9462  -3.9462  -3.9407  -3.9217  -3.9103  -3.9103  -3.8595
    -3.8356  -3.8356  -3.8019  -3.8019  -3.7911  -3.7172  -3.6834  -3.6834
    -3.3476  -3.3105  -3.3105  -3.2702  -3.2702  -2.9628  -2.9565  -2.9565
     3.0222   3.0335   3.0335   3.4120   3.4120   3.4975   3.5979   3.5979
     3.7367   3.7367   3.8479   3.9410   4.2018   4.2018   4.2826   4.5364
     4.5364   4.5653   4.9326   5.0062   5.0062   5.1788   5.2349   5.2905
     5.2905   5.3443   5.3443   5.4178   5.7948   5.8107   5.8107   5.9663
     5.9880   5.9880   6.2938   6.3624   6.3624   6.3990   6.4692   6.4692
     6.5446   6.6098   6.6098   6.6637   6.7099   6.7099   6.8820   6.9004
     6.9004   7.0297   7.0940   7.0940   7.2332   7.2332   7.3169   7.3843
     7.3843   7.6213   7.6213   7.6344   7.7328   7.7328   7.7340   7.8123
     7.8241   7.8241   7.8665   7.9099   7.9099   8.0649   8.0649   8.0717
     9.3525  12.8476  12.8593  12.8593  13.3183  13.3265  13.3265  13.4472
    13.4472  13.4765  13.7521  13.8016  13.8016  14.1185

          k = 0.1230 0.1230 0.1230 ( 37293 PWs)   bands (ev):

    -9.3503  -8.8751  -8.8751  -8.8366  -8.7634  -8.7634  -8.7197  -8.7197
    -8.7059  -8.6574  -8.6574  -8.6398  -8.4883  -8.4801  -8.4801  -8.4547
    -8.4547  -8.4157  -8.4060  -8.4060  -8.3503  -8.3503  -8.3349  -8.1360
    -4.3862  -4.3862  -4.3728  -4.3090  -4.3076  -4.3076  -4.2922  -4.2913
    -4.2913  -4.2681  -4.2681  -4.2676  -4.2510  -4.2458  -4.2458  -4.2276
    -4.2191  -4.2191  -4.2126  -4.2090  -4.2090  -4.2034  -4.1906  -4.1906
    -4.1846  -4.1757  -4.1757  -4.1668  -4.1596  -4.1596  -4.1506  -4.1451
    -4.1451  -4.1179  -4.1179  -4.1105  -4.1006  -4.0952  -4.0952  -4.0847
    -4.0820  -4.0820  -4.0783  -4.0663  -4.0663  -4.0447  -4.0447  -4.0424
    -4.0097  -4.0097  -3.9984  -3.9753  -3.9738  -3.9738  -3.9538  -3.9538
    -3.9470  -3.9462  -3.9462  -3.9372  -3.9272  -3.9167  -3.9167  -3.8592
    -3.8382  -3.8382  -3.8033  -3.8033  -3.7887  -3.7063  -3.6715  -3.6715
    -3.3529  -3.3083  -3.3083  -3.2694  -3.2694  -2.9697  -2.9619  -2.9619
     3.0300   3.0393   3.0393   3.3976   3.3976   3.4804   3.5936   3.5936
     3.7261   3.7261   3.8421   3.9296   4.2337   4.2337   4.3036   4.5365
     4.5365   4.5700   4.9284   5.0149   5.0149   5.1760   5.2286   5.2919
     5.2919   5.3533   5.3533   5.4357   5.7920   5.7920   5.8092   5.9595
     5.9734   5.9734   6.2767   6.3480   6.3480   6.3864   6.4699   6.4699
     6.5524   6.6245   6.6245   6.6767   6.7226   6.7226   6.8999   6.9209
     6.9209   6.9771   7.1082   7.1082   7.2128   7.2128   7.3057   7.3831
     7.3831   7.6118   7.6118   7.6251   7.7211   7.7300   7.7300   7.8072
     7.8252   7.8252   7.8722   7.9177   7.9177   8.0628   8.0628   8.0707
     9.4273  12.7912  12.8024  12.8024  13.3250  13.3335  13.3335  13.4543
    13.4543  13.4836  13.7850  13.8358  13.8359  14.1094

     Writing all to output data dir ./tmp/vcr.save/ :
     XML data file, pseudopotentials, collected wavefunctions

     init_run     :      3.12s CPU      3.54s WALL (       1 calls)
     electrons    :  15564.32s CPU  15648.25s WALL (       1 calls)

     Called by init_run:
     wfcinit      :      0.00s CPU      0.01s WALL (       1 calls)
     wfcinit:atom :      0.23s CPU      0.23s WALL (      16 calls)
     wfcinit:wfcr :     44.41s CPU     45.29s WALL (      16 calls)
     potinit      :      1.61s CPU      1.83s WALL (       1 calls)
     hinit0       :      0.65s CPU      0.67s WALL (       1 calls)

     Called by electrons:
     c_bands      :  15564.32s CPU  15648.24s WALL (       1 calls)
     v_of_rho     :      0.33s CPU      0.39s WALL (       1 calls)
     v_h          :      0.03s CPU      0.03s WALL (       1 calls)
     v_xc         :      0.30s CPU      0.36s WALL (       1 calls)
     newd         :      0.39s CPU      0.55s WALL (       1 calls)
     PAW_pot      :      0.87s CPU      0.87s WALL (       1 calls)

     Called by c_bands:
     init_us_2    :      0.52s CPU      0.54s WALL (      16 calls)
     ccgdiagg     :  15307.87s CPU  15374.98s WALL (      96 calls)
     wfcrot       :    229.67s CPU    234.36s WALL (      96 calls)

     Called by sum_band:

     Called by *cgdiagg:
     h_psi        :   7040.03s CPU   7101.20s WALL (  199799 calls)
     s_psi        :   3670.66s CPU   3676.05s WALL (  399502 calls)

     Called by h_psi:
     h_psi:calbec :   2327.72s CPU   2343.16s WALL (  199799 calls)
     vloc_psi     :   1734.49s CPU   1778.28s WALL (  199799 calls)
                                        0.00s GPU  (  199799 calls)
     add_vuspsi   :   2965.50s CPU   2968.20s WALL (  199799 calls)
     hs_1psi      :   8538.34s CPU   8596.73s WALL (  199703 calls)
     s_1psi       :   4257.21s CPU   4262.13s WALL (  199703 calls)

     General routines
     calbec       :   4583.36s CPU   4602.48s WALL (  399502 calls)
     fft          :      0.61s CPU      0.65s WALL (      13 calls)
     ffts         :      0.36s CPU      0.36s WALL (       1 calls)
     fftw         :   1479.04s CPU   1518.29s WALL (  437486 calls)
     interpolate  :      0.38s CPU      0.38s WALL (       1 calls)
     davcio       :      0.10s CPU     17.09s WALL (      32 calls)

     Parallel routines

     PAW routines
     PAW_pot      :      0.87s CPU      0.87s WALL (       1 calls)

     PWSCF        :      4h19m CPU      4h21m WALL


   This run was terminated on:  13:45:46  27Sep2026            

=------------------------------------------------------------------------------=
   JOB DONE.
=------------------------------------------------------------------------------=
Note: The following floating-point exceptions are signalling: IEEE_INVALID_FLAG IEEE_UNDERFLOW_FLAG IEEE_DENORMAL
Note: The following floating-point exceptions are signalling: IEEE_INVALID_FLAG
Note: The following floating-point exceptions are signalling: IEEE_INVALID_FLAG IEEE_UNDERFLOW_FLAG IEEE_DENORMAL
Note: The following floating-point exceptions are signalling: IEEE_INVALID_FLAG
Note: The following floating-point exceptions are signalling: IEEE_INVALID_FLAG IEEE_UNDERFLOW_FLAG IEEE_DENORMAL
Note: The following floating-point exceptions are signalling: IEEE_INVALID_FLAG
Note: The following floating-point exceptions are signalling: IEEE_INVALID_FLAG
Note: The following floating-point exceptions are signalling: IEEE_INVALID_FLAG IEEE_UNDERFLOW_FLAG IEEE_DENORMAL
Note: The following floating-point exceptions are signalling: IEEE_INVALID_FLAG IEEE_UNDERFLOW_FLAG IEEE_DENORMAL
Note: The following floating-point exceptions are signalling: IEEE_INVALID_FLAG IEEE_UNDERFLOW_FLAG IEEE_DENORMAL
