
     Program PWSCF v.7.5 starts on 27Sep2026 at  5:44:36 

     This program is part of the open-source Quantum ESPRESSO suite
     for quantum simulation of materials; please cite
         "P. Giannozzi et al., J. Phys.:Condens. Matter 21 395502 (2009);
         "P. Giannozzi et al., J. Phys.:Condens. Matter 29 465901 (2017);
         "P. Giannozzi et al., J. Chem. Phys. 152 154105 (2020);
          URL http://www.quantum-espresso.org", 
     in publications or presentations arising from this work. More details at
     http://www.quantum-espresso.org/quote

     Parallel version (MPI & OpenMP), running on      10 processor cores
     Number of MPI processes:                10
     Threads/MPI process:                     1

     MPI processes distributed on     1 nodes
     12195 MiB available memory on the printing compute node when the environment starts

     Reading input from scf_ecut85_k3.in
Warning: card &CELL ignored
Warning: card   PRESS_CONV_THR = 0.2 ignored

     Current dimensions of program PWSCF are:
     Max number of different atomic species (ntypx) = 10
     Max number of k-points (npk) =  40000
     Max angular momentum in pseudopotentials (lmaxx) =  4
     file In.pbe-dn-kjpaw_psl.1.0.0.UPF: wavefunction(s)  5S 5P 4D renormalized
     file O.pbe-n-kjpaw_psl.1.0.0.UPF: wavefunction(s)  2S 2P renormalized
     Message from routine setup:
     using ibrav=0 with symmetry is DISCOURAGED, use correct ibrav instead

     K-points division:     npool     =       2
     R & G space division:  proc/nbgrp/npool/nimage =       5
     Subspace diagonalization in iterative solution of the eigenvalue problem:
     one sub-group per band group will be used
     ELPA distributed-memory algorithm (size of sub-group:  2*  2 procs)


     Parallelization info
     --------------------
     sticks:   dense  smooth     PW     G-vecs:    dense   smooth      PW
     Min        2798    1400    365               209251    73990   10029
     Max        2799    1401    366               209252    73992   10034
     Sum       13991    7003   1829              1046259   369957   50165

     Using Slab Decomposition



     bravais-lattice index     =            0
     lattice parameter (alat)  =      16.5570  a.u.
     unit-cell volume          =    3493.9916 (a.u.)^3
     number of atoms/cell      =           40
     number of atomic types    =            2
     number of electrons       =       352.00
     number of Kohn-Sham states=          190
     kinetic-energy cutoff     =      85.0000  Ry
     charge density cutoff     =     680.0000  Ry
     scf convergence threshold =      1.0E-09
     mixing beta               =       0.4000
     number of iterations used =            8  plain     mixing
     Exchange-correlation= SLA  PW   PBX  PBC
                           (   1   4   3   4   0   0   0)

     celldm(1)=  16.556985  celldm(2)=   0.000000  celldm(3)=   0.000000
     celldm(4)=   0.000000  celldm(5)=   0.000000  celldm(6)=   0.000000

     crystal axes: (cart. coord. in units of alat)
               a(1) = (  -0.577350   0.577350   0.577350 )  
               a(2) = (   0.577350  -0.577350   0.577350 )  
               a(3) = (   0.577350   0.577350  -0.577350 )  

     reciprocal axes: (cart. coord. in units 2 pi/alat)
               b(1) = (  0.000000  0.866025  0.866025 )  
               b(2) = (  0.866025  0.000000  0.866025 )  
               b(3) = (  0.866025  0.866025  0.000000 )  


     PseudoPot. # 1 for In read from file:
     ../pseudo/In.pbe-dn-kjpaw_psl.1.0.0.UPF
     MD5 check sum: 235b15e6a7fdfd96486e0ecdcb5b12c6
     Pseudo is Projector augmented-wave + core cor, Zval = 13.0
     Generated using &quot;atomic&quot; code by A. Dal Corso  v.6.3
     Shape of augmentation charge: PSQ
     Using radial grid of 1241 points,  6 beta functions with: 
                l(1) =   0
                l(2) =   0
                l(3) =   1
                l(4) =   1
                l(5) =   2
                l(6) =   2
     Q(r) pseudized with 0 coefficients 


     PseudoPot. # 2 for O  read from file:
     ../pseudo/O.pbe-n-kjpaw_psl.1.0.0.UPF
     MD5 check sum: e99d9cef9b487d1ca56f5b95ecd0fd7a
     Pseudo is Projector augmented-wave + core cor, Zval =  6.0
     Generated using &quot;atomic&quot; code by A. Dal Corso  v.6.3
     Shape of augmentation charge: PSQ
     Using radial grid of 1095 points,  4 beta functions with: 
                l(1) =   0
                l(2) =   0
                l(3) =   1
                l(4) =   1
     Q(r) pseudized with 0 coefficients 


     atomic species   valence    mass     pseudopotential
     In               13.00   114.81800     In( 1.00)
     O                 6.00    15.99900     O ( 1.00)

     24 Sym. Ops., with inversion, found (18 have fractional translation)



   Cartesian axes

     site n.     atom                  positions (alat units)
         1        In     tau(   1) = (   0.2886751   0.2886751   0.2886751  )
         2        In     tau(   2) = (  -0.2886751   0.2886751   0.2886751  )
         3        In     tau(   3) = (   0.2886751   0.2886751  -0.2886751  )
         4        In     tau(   4) = (   0.2886751  -0.2886751   0.2886751  )
         5        In     tau(   5) = (   0.5385523   0.5773503  -0.2886751  )
         6        In     tau(   6) = (   0.0387979   0.5773503   0.2886751  )
         7        In     tau(   7) = (  -0.2886751   0.5385523   0.5773503  )
         8        In     tau(   8) = (   0.2886751   0.0387979   0.5773503  )
         9        In     tau(   9) = (   0.5773503  -0.2886751   0.5385523  )
        10        In     tau(  10) = (   0.5773503   0.2886751   0.0387979  )
        11        In     tau(  11) = (   0.0387979   0.0000000   0.8660254  )
        12        In     tau(  12) = (   0.5385523  -0.0000000   0.2886751  )
        13        In     tau(  13) = (   0.8660254   0.0387979   0.0000000  )
        14        In     tau(  14) = (   0.2886751   0.5385523   0.0000000  )
        15        In     tau(  15) = (   0.0000000   0.8660254   0.0387979  )
        16        In     tau(  16) = (  -0.0000000   0.2886751   0.5385523  )
        17        O      tau(  17) = (   0.4509106   0.1765537   0.4424812  )
        18        O      tau(  18) = (   0.7037900   0.4007966   0.4424812  )
        19        O      tau(  19) = (   0.1264397   0.1765537   0.7122193  )
        20        O      tau(  20) = (  -0.1264397   0.4007966   0.7122193  )
        21        O      tau(  21) = (   0.4424812   0.4509106   0.1765537  )
        22        O      tau(  22) = (   0.4424812   0.7037900   0.4007966  )
        23        O      tau(  23) = (   0.7122193   0.1264397   0.1765537  )
        24        O      tau(  24) = (   0.7122193  -0.1264397   0.4007966  )
        25        O      tau(  25) = (   0.1765537   0.4424812   0.4509106  )
        26        O      tau(  26) = (   0.4007966   0.4424812   0.7037900  )
        27        O      tau(  27) = (   0.1765537   0.7122193   0.1264397  )
        28        O      tau(  28) = (   0.4007966   0.7122193  -0.1264397  )
        29        O      tau(  29) = (   0.1264397   0.4007966   0.1348690  )
        30        O      tau(  30) = (  -0.1264397   0.1765537   0.1348690  )
        31        O      tau(  31) = (   0.4509106   0.4007966  -0.1348690  )
        32        O      tau(  32) = (   0.7037900   0.1765537  -0.1348690  )
        33        O      tau(  33) = (   0.1348690   0.1264397   0.4007966  )
        34        O      tau(  34) = (   0.1348690  -0.1264397   0.1765537  )
        35        O      tau(  35) = (  -0.1348690   0.4509106   0.4007966  )
        36        O      tau(  36) = (  -0.1348690   0.7037900   0.1765537  )
        37        O      tau(  37) = (   0.4007966   0.1348690   0.1264397  )
        38        O      tau(  38) = (   0.1765537   0.1348690  -0.1264397  )
        39        O      tau(  39) = (   0.4007966  -0.1348690   0.4509106  )
        40        O      tau(  40) = (   0.1765537  -0.1348690   0.7037900  )

     number of k points=     4
                       cart. coord. in units 2pi/alat
        k(    1) = (   0.0000000   0.0000000   0.0000000), wk =   0.0740741
        k(    2) = (   0.2886751   0.2886751   0.0000000), wk =   0.8888889
        k(    3) = (   0.5773503   0.2886751   0.2886751), wk =   0.5925926
        k(    4) = (  -0.0000000  -0.0000000   0.5773503), wk =   0.4444444

     Dense  grid:  1046259 G-vectors     FFT dimensions: ( 144, 144, 144)

     Smooth grid:   369957 G-vectors     FFT dimensions: ( 100, 100, 100)

     Estimated max dynamical RAM per process >     696.37 MB

     Estimated total dynamical RAM >       6.55 GB

     Initial potential from superposition of free atoms

     starting charge     351.9405, renormalised to     352.0000
     Starting wfcs are  240 randomized atomic wfcs
     Checking if some PAW data can be deallocated... 

     total cpu time spent up to now is       16.3 secs

     per-process dynamical memory:   279.6 Mb

     Self-consistent Calculation

     iteration #  1     ecut=    85.00 Ry     beta= 0.40
     Davidson diagonalization with overlap
     ethr =  1.00E-02,  avg # of iterations =  2.0

     total cpu time spent up to now is       43.9 secs

     total energy              =   -7569.62274608 Ry
     estimated scf accuracy    <      11.71837092 Ry

     iteration #  2     ecut=    85.00 Ry     beta= 0.40
     Davidson diagonalization with overlap
     ethr =  3.33E-03,  avg # of iterations =  2.0

     total cpu time spent up to now is       74.4 secs

     total energy              =   -7572.91723629 Ry
     estimated scf accuracy    <       0.25616156 Ry

     iteration #  3     ecut=    85.00 Ry     beta= 0.40
     Davidson diagonalization with overlap
     ethr =  7.28E-05,  avg # of iterations = 11.0

     total cpu time spent up to now is      131.4 secs

     total energy              =   -7573.08325419 Ry
     estimated scf accuracy    <       0.61869639 Ry

     iteration #  4     ecut=    85.00 Ry     beta= 0.40
     Davidson diagonalization with overlap
     ethr =  7.28E-05,  avg # of iterations =  6.0

     total cpu time spent up to now is      181.5 secs

     total energy              =   -7573.03738153 Ry
     estimated scf accuracy    <       3.23116861 Ry

     iteration #  5     ecut=    85.00 Ry     beta= 0.40
     Davidson diagonalization with overlap
     ethr =  7.28E-05,  avg # of iterations =  6.0

     total cpu time spent up to now is      222.9 secs

     total energy              =   -7573.33204964 Ry
     estimated scf accuracy    <       0.17178413 Ry

     iteration #  6     ecut=    85.00 Ry     beta= 0.40
     Davidson diagonalization with overlap
     ethr =  4.88E-05,  avg # of iterations =  2.0

     total cpu time spent up to now is      255.8 secs

     total energy              =   -7573.33700100 Ry
     estimated scf accuracy    <       0.03445886 Ry

     iteration #  7     ecut=    85.00 Ry     beta= 0.40
     Davidson diagonalization with overlap
     ethr =  9.79E-06,  avg # of iterations = 12.2

     total cpu time spent up to now is      310.6 secs

     total energy              =   -7573.36770367 Ry
     estimated scf accuracy    <       0.00837771 Ry

     iteration #  8     ecut=    85.00 Ry     beta= 0.40
     Davidson diagonalization with overlap
     ethr =  2.38E-06,  avg # of iterations =  9.5

     total cpu time spent up to now is      347.3 secs

     total energy              =   -7573.36940312 Ry
     estimated scf accuracy    <       0.00027793 Ry

     iteration #  9     ecut=    85.00 Ry     beta= 0.40
     Davidson diagonalization with overlap
     ethr =  7.90E-08,  avg # of iterations =  6.0

     total cpu time spent up to now is      399.5 secs

     total energy              =   -7573.36963886 Ry
     estimated scf accuracy    <       0.00019210 Ry

     iteration # 10     ecut=    85.00 Ry     beta= 0.40
     Davidson diagonalization with overlap
     ethr =  5.46E-08,  avg # of iterations =  5.0

     total cpu time spent up to now is      444.1 secs

     total energy              =   -7573.36978480 Ry
     estimated scf accuracy    <       0.00005943 Ry

     iteration # 11     ecut=    85.00 Ry     beta= 0.40
     Davidson diagonalization with overlap
     ethr =  1.69E-08,  avg # of iterations =  5.0

     total cpu time spent up to now is      483.3 secs

     total energy              =   -7573.36971404 Ry
     estimated scf accuracy    <       0.00048681 Ry

     iteration # 12     ecut=    85.00 Ry     beta= 0.40
     Davidson diagonalization with overlap
     ethr =  1.69E-08,  avg # of iterations =  4.5

     total cpu time spent up to now is      518.5 secs

     total energy              =   -7573.36971067 Ry
     estimated scf accuracy    <       0.00013749 Ry

     iteration # 13     ecut=    85.00 Ry     beta= 0.40
     Davidson diagonalization with overlap
     ethr =  1.69E-08,  avg # of iterations =  2.8

     total cpu time spent up to now is      545.8 secs

     total energy              =   -7573.36971033 Ry
     estimated scf accuracy    <       0.00007572 Ry

     iteration # 14     ecut=    85.00 Ry     beta= 0.40
     Davidson diagonalization with overlap
     ethr =  1.69E-08,  avg # of iterations =  2.0

     total cpu time spent up to now is      572.5 secs

     total energy              =   -7573.36970370 Ry
     estimated scf accuracy    <       0.00005239 Ry

     iteration # 15     ecut=    85.00 Ry     beta= 0.40
     Davidson diagonalization with overlap
     ethr =  1.49E-08,  avg # of iterations =  2.0

     total cpu time spent up to now is      602.4 secs

     total energy              =   -7573.36969952 Ry
     estimated scf accuracy    <       0.00002362 Ry

     iteration # 16     ecut=    85.00 Ry     beta= 0.40
     Davidson diagonalization with overlap
     ethr =  6.71E-09,  avg # of iterations =  5.5

     total cpu time spent up to now is      635.8 secs

     total energy              =   -7573.36970529 Ry
     estimated scf accuracy    <       0.00000131 Ry

     iteration # 17     ecut=    85.00 Ry     beta= 0.40
     Davidson diagonalization with overlap
     ethr =  3.72E-10,  avg # of iterations =  6.2

     total cpu time spent up to now is      679.8 secs

     total energy              =   -7573.36970761 Ry
     estimated scf accuracy    <       0.00000149 Ry

     iteration # 18     ecut=    85.00 Ry     beta= 0.40
     Davidson diagonalization with overlap
     ethr =  3.72E-10,  avg # of iterations =  2.0

     total cpu time spent up to now is      709.1 secs

     total energy              =   -7573.36970762 Ry
     estimated scf accuracy    <       0.00000027 Ry

     iteration # 19     ecut=    85.00 Ry     beta= 0.40
     Davidson diagonalization with overlap
     ethr =  7.65E-11,  avg # of iterations =  5.0

     total cpu time spent up to now is      747.4 secs

     total energy              =   -7573.36970781 Ry
     estimated scf accuracy    <       0.00000007 Ry

     iteration # 20     ecut=    85.00 Ry     beta= 0.40
     Davidson diagonalization with overlap
     ethr =  1.87E-11,  avg # of iterations =  2.0

     total cpu time spent up to now is      773.8 secs

     total energy              =   -7573.36970780 Ry
     estimated scf accuracy    <       0.00000003 Ry

     iteration # 21     ecut=    85.00 Ry     beta= 0.40
     Davidson diagonalization with overlap
     ethr =  7.28E-12,  avg # of iterations =  5.0

     total cpu time spent up to now is      815.0 secs

     total energy              =   -7573.36970781 Ry
     estimated scf accuracy    <          5.5E-09 Ry

     iteration # 22     ecut=    85.00 Ry     beta= 0.40
     Davidson diagonalization with overlap
     ethr =  1.56E-12,  avg # of iterations =  3.2

     total cpu time spent up to now is      845.9 secs

     End of self-consistent calculation

          k = 0.0000 0.0000 0.0000 ( 46241 PWs)   bands (ev):

    -8.9258  -8.3173  -8.3173  -8.2266  -8.2266  -8.2266  -8.1678  -8.1678
    -8.1678  -8.1481  -8.1481  -8.1481  -7.8961  -7.8961  -7.8961  -7.8841
    -7.8841  -7.8427  -7.8427  -7.8427  -7.7509  -7.7509  -7.7509  -7.5011
    -3.5707  -3.5707  -3.5707  -3.4738  -3.4738  -3.4738  -3.4646  -3.4646
    -3.4443  -3.3962  -3.3962  -3.3962  -3.3918  -3.3918  -3.3910  -3.3910
    -3.3910  -3.3579  -3.3387  -3.3188  -3.3188  -3.3188  -3.3187  -3.3187
    -3.3187  -3.3024  -3.3024  -3.3024  -3.2828  -3.2828  -3.2592  -3.2568
    -3.2568  -3.2568  -3.2514  -3.2514  -3.2514  -3.2081  -3.2081  -3.1807
    -3.1807  -3.1807  -3.1793  -3.1719  -3.1719  -3.1719  -3.1561  -3.1561
    -3.0843  -3.0843  -3.0843  -3.0747  -3.0747  -3.0747  -3.0372  -3.0372
    -3.0372  -3.0314  -3.0314  -3.0007  -2.9320  -2.9303  -2.9303  -2.9303
    -2.8875  -2.8875  -2.8875  -2.8617  -2.8617  -2.8617  -2.8324  -2.8324
    -2.2879  -2.2879  -2.2785  -2.2785  -2.2785  -1.8861  -1.8861  -1.8861
     3.5749   3.5749   3.6371   4.1433   4.1433   4.2555   4.2555   4.2555
     4.4697   4.4697   4.4697   4.6545   4.6545   4.6545   4.8044   5.1315
     5.1315   5.1315   5.5698   5.5698   5.5698   5.8263   5.8871   5.8871
     5.8871   5.9233   5.9233   5.9233   6.4151   6.6777   6.6777   6.6777
     6.7545   6.7545   7.1280   7.1280   7.1280   7.1675   7.1675   7.1675
     7.1943   7.1943   7.1943   7.3276   7.3987   7.3987   7.4657   7.4657
     7.4657   7.8113   7.8113   8.1368   8.1368   8.1368   8.1655   8.1655
     8.1655   8.4766   8.4766   8.4766   8.5679   8.5679   8.5679   8.6221
     8.6221   8.6769   8.6769   8.6769   8.6809   8.9222   8.9222   8.9222
    10.1124  14.5201  14.5201  14.5201  14.5482  14.5482  14.5482  14.6126
    14.6902  14.6902  14.6902  14.7149  14.7149  15.3650

          k = 0.2887 0.2887 0.0000 ( 46282 PWs)   bands (ev):

    -8.8024  -8.5077  -8.3734  -8.3432  -8.2926  -8.2604  -8.1593  -8.1277
    -8.1204  -8.0911  -8.0747  -8.0224  -7.9429  -7.9186  -7.9126  -7.8826
    -7.8599  -7.8532  -7.8176  -7.8134  -7.7648  -7.7408  -7.6929  -7.5595
    -3.5425  -3.5296  -3.4959  -3.4954  -3.4916  -3.4707  -3.4602  -3.4560
    -3.4482  -3.4435  -3.4317  -3.4231  -3.4127  -3.4082  -3.3999  -3.3903
    -3.3814  -3.3741  -3.3677  -3.3500  -3.3489  -3.3441  -3.3357  -3.3189
    -3.3181  -3.3096  -3.3034  -3.2959  -3.2958  -3.2922  -3.2896  -3.2707
    -3.2542  -3.2477  -3.2412  -3.2336  -3.2264  -3.2204  -3.1957  -3.1823
    -3.1764  -3.1698  -3.1658  -3.1644  -3.1516  -3.1505  -3.1353  -3.1264
    -3.1000  -3.0837  -3.0812  -3.0803  -3.0699  -3.0478  -3.0447  -3.0388
    -3.0346  -3.0271  -3.0169  -3.0163  -3.0125  -2.9945  -2.9786  -2.9594
    -2.9327  -2.9102  -2.8834  -2.8163  -2.7590  -2.7543  -2.6861  -2.5036
    -2.4172  -2.3132  -2.2989  -2.2766  -2.1799  -2.0126  -2.0023  -1.9814
     3.5835   3.7630   3.7740   3.8129   3.9814   4.0534   4.0715   4.1395
     4.1653   4.2601   4.6331   4.6618   4.9190   4.9241   5.1007   5.1483
     5.2278   5.4576   5.5887   5.6255   5.7469   5.7929   5.8195   5.8782
     5.9319   5.9774   6.1338   6.2001   6.3571   6.3596   6.5829   6.5912
     6.6308   6.7344   6.7907   6.8586   6.9144   6.9999   7.0421   7.1732
     7.3052   7.3152   7.3494   7.4162   7.4949   7.5396   7.5952   7.7023
     7.8178   7.8265   7.8614   7.9137   7.9751   8.0213   8.0399   8.1502
     8.2228   8.2544   8.3492   8.4527   8.4659   8.4874   8.5310   8.6179
     8.6384   8.6488   8.6812   8.7493   8.8184   8.8372   8.8830   8.9153
    11.2957  13.0747  14.0293  14.0448  14.1057  14.1244  14.7435  14.7676
    14.9297  15.0792  15.1282  15.2218  15.2515  15.2632

          k = 0.5774 0.2887 0.2887 ( 46249 PWs)   bands (ev):

    -8.5989  -8.5931  -8.5931  -8.4096  -8.2210  -8.2210  -8.1343  -8.1343
    -8.1333  -8.0728  -8.0081  -8.0081  -7.9524  -7.9524  -7.9437  -7.8890
    -7.8890  -7.8502  -7.8207  -7.8207  -7.7278  -7.6674  -7.6481  -7.6481
    -3.5112  -3.5112  -3.5046  -3.5015  -3.5015  -3.4857  -3.4857  -3.4830
    -3.4370  -3.4285  -3.4285  -3.4260  -3.4096  -3.4096  -3.3868  -3.3868
    -3.3764  -3.3686  -3.3686  -3.3550  -3.3539  -3.3539  -3.3445  -3.3304
    -3.3304  -3.3284  -3.3176  -3.3176  -3.3086  -3.2822  -3.2749  -3.2749
    -3.2538  -3.2538  -3.2478  -3.2266  -3.2240  -3.2240  -3.1974  -3.1765
    -3.1700  -3.1700  -3.1556  -3.1556  -3.1508  -3.1253  -3.1253  -3.1198
    -3.0875  -3.0875  -3.0862  -3.0708  -3.0708  -3.0692  -3.0471  -3.0438
    -3.0438  -3.0373  -3.0210  -3.0210  -3.0016  -3.0016  -2.9975  -2.9354
    -2.9354  -2.8943  -2.8054  -2.8054  -2.7305  -2.7305  -2.6568  -2.5907
    -2.2676  -2.2652  -2.2652  -2.2189  -2.2189  -2.1040  -2.0936  -2.0936
     3.6914   3.6914   3.7437   3.8772   3.8772   3.8927   4.1995   4.2119
     4.2119   4.2640   4.3357   4.3357   4.9373   5.1356   5.3005   5.3005
     5.3023   5.5138   5.6004   5.6004   5.8051   5.8051   5.8108   6.0065
     6.0065   6.0911   6.1709   6.1709   6.3319   6.4189   6.4721   6.4721
     6.6510   6.7205   6.7205   6.8907   6.8907   6.9711   6.9711   7.0406
     7.1942   7.2612   7.2612   7.5029   7.5029   7.5675   7.6392   7.6392
     7.7316   7.8410   7.8410   7.9427   8.0235   8.0643   8.0643   8.1728
     8.2929   8.2929   8.3823   8.3823   8.4198   8.4716   8.4727   8.4727
     8.7611   8.7676   8.7676   8.7835   8.7906   8.7906   8.8201   8.8201
    12.5877  12.5877  12.6068  13.7862  14.4625  14.4917  14.4918  14.8800
    14.9450  14.9450  15.3004  15.3671  15.4778  15.4812

          k =-0.0000-0.0000 0.5774 ( 46172 PWs)   bands (ev):

    -8.6851  -8.4491  -8.4398  -8.3847  -8.3673  -8.2744  -8.2177  -8.2161
    -8.1887  -8.1009  -7.9810  -7.9789  -7.9408  -7.9370  -7.9047  -7.9005
    -7.8655  -7.8093  -7.7865  -7.7759  -7.7347  -7.7036  -7.6884  -7.6088
    -3.5265  -3.5145  -3.4944  -3.4910  -3.4854  -3.4764  -3.4735  -3.4639
    -3.4627  -3.4551  -3.4348  -3.4286  -3.4109  -3.4049  -3.3943  -3.3853
    -3.3826  -3.3799  -3.3709  -3.3638  -3.3527  -3.3516  -3.3495  -3.3340
    -3.3284  -3.3235  -3.3168  -3.3086  -3.3019  -3.2876  -3.2692  -3.2608
    -3.2518  -3.2506  -3.2364  -3.2210  -3.2002  -3.1975  -3.1950  -3.1933
    -3.1759  -3.1729  -3.1706  -3.1556  -3.1496  -3.1380  -3.1328  -3.1222
    -3.1077  -3.1029  -3.0934  -3.0896  -3.0784  -3.0638  -3.0625  -3.0559
    -3.0391  -3.0326  -3.0296  -3.0218  -3.0212  -3.0156  -3.0073  -2.9830
    -2.9816  -2.9573  -2.7478  -2.6870  -2.6090  -2.5779  -2.5310  -2.4807
    -2.4040  -2.3639  -2.2909  -2.2773  -2.2410  -2.1726  -2.1137  -2.0652
     3.4623   3.5581   3.5886   3.7356   3.8528   3.8557   4.3640   4.3700
     4.4143   4.4397   4.5069   5.1084   5.1111   5.1530   5.1532   5.1825
     5.2314   5.2622   5.3443   5.4151   5.4345   5.5966   5.7286   5.9629
     6.0679   6.0718   6.1615   6.2500   6.3428   6.3931   6.4857   6.6309
     6.7164   6.7400   6.8442   6.9320   6.9327   6.9652   7.0399   7.1317
     7.1362   7.2469   7.2945   7.3236   7.4189   7.5173   7.5558   7.5823
     7.6326   7.8466   7.9259   7.9922   8.0882   8.1119   8.2376   8.2539
     8.3706   8.3739   8.4247   8.4361   8.5284   8.5418   8.6299   8.6310
     8.6329   8.6789   8.6956   8.7033   8.7090   8.7542   8.7767   8.7957
    11.9469  13.3260  13.3519  13.3661  13.3772  14.1332  14.6278  14.6571
    14.7167  14.7385  15.4464  15.5833  15.5945  15.7435

     highest occupied, lowest unoccupied level (ev):     8.9222   10.1124

!    total energy              =   -7573.36970781 Ry
     total all-electron energy =   -191828.762604 Ry
     estimated scf accuracy    <          2.8E-10 Ry

     The total energy is the sum of the following terms:
     one-electron contribution =    -673.89710178 Ry
     hartree contribution      =     667.59352662 Ry
     xc contribution           =    -922.50891392 Ry
     ewald contribution        =   -2052.11213240 Ry
     one-center paw contrib.   =   -4592.44508632 Ry

     convergence has been achieved in  22 iterations

     Forces acting on atoms (cartesian axes, Ry/au):

     atom    1 type  1   force =     0.00000000    0.00000000    0.00000000
     atom    2 type  1   force =     0.00000000    0.00000000    0.00000000
     atom    3 type  1   force =    -0.00000000    0.00000000   -0.00000000
     atom    4 type  1   force =     0.00000000    0.00000000   -0.00000000
     atom    5 type  1   force =     0.00235611    0.00000000    0.00000000
     atom    6 type  1   force =    -0.00235611    0.00000000   -0.00000000
     atom    7 type  1   force =    -0.00000000    0.00235611   -0.00000000
     atom    8 type  1   force =    -0.00000000   -0.00235611    0.00000000
     atom    9 type  1   force =     0.00000000    0.00000000    0.00235611
     atom   10 type  1   force =     0.00000000    0.00000000   -0.00235611
     atom   11 type  1   force =    -0.00235611    0.00000000    0.00000000
     atom   12 type  1   force =     0.00235611    0.00000000    0.00000000
     atom   13 type  1   force =     0.00000000   -0.00235611    0.00000000
     atom   14 type  1   force =     0.00000000    0.00235611    0.00000000
     atom   15 type  1   force =     0.00000000    0.00000000   -0.00235611
     atom   16 type  1   force =     0.00000000    0.00000000    0.00235611
     atom   17 type  2   force =    -0.00045277    0.01087965   -0.01011248
     atom   18 type  2   force =     0.00045277   -0.01087965   -0.01011248
     atom   19 type  2   force =     0.00045277    0.01087965    0.01011248
     atom   20 type  2   force =    -0.00045277   -0.01087965    0.01011248
     atom   21 type  2   force =    -0.01011248   -0.00045277    0.01087965
     atom   22 type  2   force =    -0.01011248    0.00045277   -0.01087965
     atom   23 type  2   force =     0.01011248    0.00045277    0.01087965
     atom   24 type  2   force =     0.01011248   -0.00045277   -0.01087965
     atom   25 type  2   force =     0.01087965   -0.01011248   -0.00045277
     atom   26 type  2   force =    -0.01087965   -0.01011248    0.00045277
     atom   27 type  2   force =     0.01087965    0.01011248    0.00045277
     atom   28 type  2   force =    -0.01087965    0.01011248   -0.00045277
     atom   29 type  2   force =     0.00045277   -0.01087965    0.01011248
     atom   30 type  2   force =    -0.00045277    0.01087965    0.01011248
     atom   31 type  2   force =    -0.00045277   -0.01087965   -0.01011248
     atom   32 type  2   force =     0.00045277    0.01087965   -0.01011248
     atom   33 type  2   force =     0.01011248    0.00045277   -0.01087965
     atom   34 type  2   force =     0.01011248   -0.00045277    0.01087965
     atom   35 type  2   force =    -0.01011248   -0.00045277   -0.01087965
     atom   36 type  2   force =    -0.01011248    0.00045277    0.01087965
     atom   37 type  2   force =    -0.01087965    0.01011248    0.00045277
     atom   38 type  2   force =     0.01087965    0.01011248   -0.00045277
     atom   39 type  2   force =    -0.01087965   -0.01011248   -0.00045277
     atom   40 type  2   force =     0.01087965   -0.01011248    0.00045277

     Total force =     0.073257     Total SCF correction =     0.000007


     Computing stress (Cartesian axis) and pressure

          total   stress  (Ry/bohr**3)                   (kbar)     P=       97.04
   0.00065965   0.00000000   0.00000000           97.04        0.00        0.00
   0.00000000   0.00065965   0.00000000            0.00       97.04        0.00
   0.00000000   0.00000000   0.00065965            0.00        0.00       97.04


     Writing all to output data dir ./tmp/ec85.save/ :
     XML data file, charge density, pseudopotentials, collected wavefunctions

     init_run     :     13.66s CPU     14.99s WALL (       1 calls)
     electrons    :    793.14s CPU    830.18s WALL (       1 calls)
     forces       :      6.47s CPU      6.39s WALL (       1 calls)
     stress       :     22.72s CPU     24.40s WALL (       1 calls)

     Called by init_run:
     wfcinit      :      9.01s CPU      9.65s WALL (       1 calls)
     potinit      :      1.94s CPU      2.15s WALL (       1 calls)
     hinit0       :      0.92s CPU      0.98s WALL (       1 calls)

     Called by electrons:
     c_bands      :    625.87s CPU    643.12s WALL (      22 calls)
     sum_band     :    105.35s CPU    116.01s WALL (      22 calls)
     v_of_rho     :     14.90s CPU     16.57s WALL (      23 calls)
     newd         :     17.18s CPU     24.01s WALL (      23 calls)
     PAW_pot      :     27.92s CPU     27.82s WALL (      23 calls)
     mix_rho      :      2.16s CPU      2.32s WALL (      22 calls)

     Called by c_bands:
     init_us_2    :      4.08s CPU      4.24s WALL (      94 calls)
     cegterg      :    576.09s CPU    591.19s WALL (      44 calls)

     Called by *egterg:
     cdiaghg      :     10.85s CPU      9.60s WALL (     233 calls)
     h_psi        :    372.10s CPU    385.57s WALL (     235 calls)
     s_psi        :     41.93s CPU     40.45s WALL (     235 calls)
     g_psi        :      1.32s CPU      1.36s WALL (     189 calls)

     Called by h_psi:
     h_psi:calbec :     43.61s CPU     44.99s WALL (     235 calls)
     vloc_psi     :    285.05s CPU    298.70s WALL (     235 calls)
                                        0.00s GPU  (     235 calls)
     add_vuspsi   :     42.23s CPU     39.19s WALL (     235 calls)

     General routines
     calbec       :     68.58s CPU     69.83s WALL (     313 calls)
     fft          :     12.34s CPU     13.94s WALL (     322 calls)
     ffts         :      0.76s CPU      0.81s WALL (      45 calls)
     fftw         :    277.28s CPU    288.74s WALL (   59176 calls)
     interpolate  :      1.51s CPU      1.63s WALL (      23 calls)

     Parallel routines

     PWSCF        :  13m56.50s CPU  14m44.91s WALL


   This run was terminated on:   5:59:21  27Sep2026            

=------------------------------------------------------------------------------=
   JOB DONE.
=------------------------------------------------------------------------------=
Note: The following floating-point exceptions are signalling: IEEE_INVALID_FLAG IEEE_UNDERFLOW_FLAG IEEE_DENORMAL
Note: The following floating-point exceptions are signalling: IEEE_INVALID_FLAG IEEE_UNDERFLOW_FLAG IEEE_DENORMAL
Note: The following floating-point exceptions are signalling: IEEE_INVALID_FLAG IEEE_UNDERFLOW_FLAG IEEE_DENORMAL
Note: The following floating-point exceptions are signalling: IEEE_INVALID_FLAG
Note: The following floating-point exceptions are signalling: IEEE_INVALID_FLAG IEEE_UNDERFLOW_FLAG IEEE_DENORMAL
Note: The following floating-point exceptions are signalling: IEEE_INVALID_FLAG
Note: The following floating-point exceptions are signalling: IEEE_INVALID_FLAG
Note: The following floating-point exceptions are signalling: IEEE_INVALID_FLAG IEEE_UNDERFLOW_FLAG IEEE_DENORMAL
Note: The following floating-point exceptions are signalling: IEEE_INVALID_FLAG
Note: The following floating-point exceptions are signalling: IEEE_INVALID_FLAG IEEE_UNDERFLOW_FLAG IEEE_DENORMAL
