
     Program PWSCF v.7.5 starts on 27Sep2026 at  6:10:53 

     This program is part of the open-source Quantum ESPRESSO suite
     for quantum simulation of materials; please cite
         "P. Giannozzi et al., J. Phys.:Condens. Matter 21 395502 (2009);
         "P. Giannozzi et al., J. Phys.:Condens. Matter 29 465901 (2017);
         "P. Giannozzi et al., J. Chem. Phys. 152 154105 (2020);
          URL http://www.quantum-espresso.org", 
     in publications or presentations arising from this work. More details at
     http://www.quantum-espresso.org/quote

     Parallel version (MPI & OpenMP), running on      10 processor cores
     Number of MPI processes:                10
     Threads/MPI process:                     1

     MPI processes distributed on     1 nodes
     12219 MiB available memory on the printing compute node when the environment starts

     Reading input from scf_ecut71_k4.in
Warning: card &CELL ignored
Warning: card   PRESS_CONV_THR = 0.2 ignored

     Current dimensions of program PWSCF are:
     Max number of different atomic species (ntypx) = 10
     Max number of k-points (npk) =  40000
     Max angular momentum in pseudopotentials (lmaxx) =  4
     file In.pbe-dn-kjpaw_psl.1.0.0.UPF: wavefunction(s)  5S 5P 4D renormalized
     file O.pbe-n-kjpaw_psl.1.0.0.UPF: wavefunction(s)  2S 2P renormalized
     Message from routine setup:
     using ibrav=0 with symmetry is DISCOURAGED, use correct ibrav instead

     K-points division:     npool     =       2
     R & G space division:  proc/nbgrp/npool/nimage =       5
     Subspace diagonalization in iterative solution of the eigenvalue problem:
     one sub-group per band group will be used
     ELPA distributed-memory algorithm (size of sub-group:  2*  2 procs)


     Parallelization info
     --------------------
     sticks:   dense  smooth     PW     G-vecs:    dense   smooth      PW
     Min        2335    1170    332               159829    56438    8587
     Max        2336    1171    334               159832    56439    8588
     Sum       11679    5851   1665               799157   282191   42939

     Using Slab Decomposition



     bravais-lattice index     =            0
     lattice parameter (alat)  =      16.5570  a.u.
     unit-cell volume          =    3493.9916 (a.u.)^3
     number of atoms/cell      =           40
     number of atomic types    =            2
     number of electrons       =       352.00
     number of Kohn-Sham states=          190
     kinetic-energy cutoff     =      71.0000  Ry
     charge density cutoff     =     568.0000  Ry
     scf convergence threshold =      1.0E-09
     mixing beta               =       0.4000
     number of iterations used =            8  plain     mixing
     Exchange-correlation= SLA  PW   PBX  PBC
                           (   1   4   3   4   0   0   0)

     celldm(1)=  16.556985  celldm(2)=   0.000000  celldm(3)=   0.000000
     celldm(4)=   0.000000  celldm(5)=   0.000000  celldm(6)=   0.000000

     crystal axes: (cart. coord. in units of alat)
               a(1) = (  -0.577350   0.577350   0.577350 )  
               a(2) = (   0.577350  -0.577350   0.577350 )  
               a(3) = (   0.577350   0.577350  -0.577350 )  

     reciprocal axes: (cart. coord. in units 2 pi/alat)
               b(1) = (  0.000000  0.866025  0.866025 )  
               b(2) = (  0.866025  0.000000  0.866025 )  
               b(3) = (  0.866025  0.866025  0.000000 )  


     PseudoPot. # 1 for In read from file:
     ../pseudo/In.pbe-dn-kjpaw_psl.1.0.0.UPF
     MD5 check sum: 235b15e6a7fdfd96486e0ecdcb5b12c6
     Pseudo is Projector augmented-wave + core cor, Zval = 13.0
     Generated using &quot;atomic&quot; code by A. Dal Corso  v.6.3
     Shape of augmentation charge: PSQ
     Using radial grid of 1241 points,  6 beta functions with: 
                l(1) =   0
                l(2) =   0
                l(3) =   1
                l(4) =   1
                l(5) =   2
                l(6) =   2
     Q(r) pseudized with 0 coefficients 


     PseudoPot. # 2 for O  read from file:
     ../pseudo/O.pbe-n-kjpaw_psl.1.0.0.UPF
     MD5 check sum: e99d9cef9b487d1ca56f5b95ecd0fd7a
     Pseudo is Projector augmented-wave + core cor, Zval =  6.0
     Generated using &quot;atomic&quot; code by A. Dal Corso  v.6.3
     Shape of augmentation charge: PSQ
     Using radial grid of 1095 points,  4 beta functions with: 
                l(1) =   0
                l(2) =   0
                l(3) =   1
                l(4) =   1
     Q(r) pseudized with 0 coefficients 


     atomic species   valence    mass     pseudopotential
     In               13.00   114.81800     In( 1.00)
     O                 6.00    15.99900     O ( 1.00)

     24 Sym. Ops., with inversion, found (18 have fractional translation)



   Cartesian axes

     site n.     atom                  positions (alat units)
         1        In     tau(   1) = (   0.2886751   0.2886751   0.2886751  )
         2        In     tau(   2) = (  -0.2886751   0.2886751   0.2886751  )
         3        In     tau(   3) = (   0.2886751   0.2886751  -0.2886751  )
         4        In     tau(   4) = (   0.2886751  -0.2886751   0.2886751  )
         5        In     tau(   5) = (   0.5385523   0.5773503  -0.2886751  )
         6        In     tau(   6) = (   0.0387979   0.5773503   0.2886751  )
         7        In     tau(   7) = (  -0.2886751   0.5385523   0.5773503  )
         8        In     tau(   8) = (   0.2886751   0.0387979   0.5773503  )
         9        In     tau(   9) = (   0.5773503  -0.2886751   0.5385523  )
        10        In     tau(  10) = (   0.5773503   0.2886751   0.0387979  )
        11        In     tau(  11) = (   0.0387979   0.0000000   0.8660254  )
        12        In     tau(  12) = (   0.5385523  -0.0000000   0.2886751  )
        13        In     tau(  13) = (   0.8660254   0.0387979   0.0000000  )
        14        In     tau(  14) = (   0.2886751   0.5385523   0.0000000  )
        15        In     tau(  15) = (   0.0000000   0.8660254   0.0387979  )
        16        In     tau(  16) = (  -0.0000000   0.2886751   0.5385523  )
        17        O      tau(  17) = (   0.4509106   0.1765537   0.4424812  )
        18        O      tau(  18) = (   0.7037900   0.4007966   0.4424812  )
        19        O      tau(  19) = (   0.1264397   0.1765537   0.7122193  )
        20        O      tau(  20) = (  -0.1264397   0.4007966   0.7122193  )
        21        O      tau(  21) = (   0.4424812   0.4509106   0.1765537  )
        22        O      tau(  22) = (   0.4424812   0.7037900   0.4007966  )
        23        O      tau(  23) = (   0.7122193   0.1264397   0.1765537  )
        24        O      tau(  24) = (   0.7122193  -0.1264397   0.4007966  )
        25        O      tau(  25) = (   0.1765537   0.4424812   0.4509106  )
        26        O      tau(  26) = (   0.4007966   0.4424812   0.7037900  )
        27        O      tau(  27) = (   0.1765537   0.7122193   0.1264397  )
        28        O      tau(  28) = (   0.4007966   0.7122193  -0.1264397  )
        29        O      tau(  29) = (   0.1264397   0.4007966   0.1348690  )
        30        O      tau(  30) = (  -0.1264397   0.1765537   0.1348690  )
        31        O      tau(  31) = (   0.4509106   0.4007966  -0.1348690  )
        32        O      tau(  32) = (   0.7037900   0.1765537  -0.1348690  )
        33        O      tau(  33) = (   0.1348690   0.1264397   0.4007966  )
        34        O      tau(  34) = (   0.1348690  -0.1264397   0.1765537  )
        35        O      tau(  35) = (  -0.1348690   0.4509106   0.4007966  )
        36        O      tau(  36) = (  -0.1348690   0.7037900   0.1765537  )
        37        O      tau(  37) = (   0.4007966   0.1348690   0.1264397  )
        38        O      tau(  38) = (   0.1765537   0.1348690  -0.1264397  )
        39        O      tau(  39) = (   0.4007966  -0.1348690   0.4509106  )
        40        O      tau(  40) = (   0.1765537  -0.1348690   0.7037900  )

     number of k points=     8
                       cart. coord. in units 2pi/alat
        k(    1) = (   0.0000000   0.0000000   0.0000000), wk =   0.0312500
        k(    2) = (   0.2165064   0.2165064   0.0000000), wk =   0.3750000
        k(    3) = (  -0.4330127  -0.4330127   0.0000000), wk =   0.1875000
        k(    4) = (   0.4330127   0.2165064   0.2165064), wk =   0.7500000
        k(    5) = (   0.4330127   0.4330127   0.4330127), wk =   0.0625000
        k(    6) = (   0.0000000   0.0000000   0.4330127), wk =   0.1875000
        k(    7) = (  -0.8660254  -0.2165064  -0.2165064), wk =   0.3750000
        k(    8) = (  -0.8660254  -0.8660254  -0.8660254), wk =   0.0312500

     Dense  grid:   799157 G-vectors     FFT dimensions: ( 128, 128, 128)

     Smooth grid:   282191 G-vectors     FFT dimensions: (  90,  90,  90)

     Estimated max dynamical RAM per process >     571.13 MB

     Estimated total dynamical RAM >       5.39 GB

     Initial potential from superposition of free atoms

     starting charge     351.9405, renormalised to     352.0000
     Starting wfcs are  240 randomized atomic wfcs
     Checking if some PAW data can be deallocated... 

     total cpu time spent up to now is       18.9 secs

     per-process dynamical memory:   286.4 Mb

     Self-consistent Calculation

     iteration #  1     ecut=    71.00 Ry     beta= 0.40
     Davidson diagonalization with overlap
     ethr =  1.00E-02,  avg # of iterations =  2.0

     total cpu time spent up to now is       50.6 secs

     total energy              =   -7569.55126055 Ry
     estimated scf accuracy    <      11.75842105 Ry

     iteration #  2     ecut=    71.00 Ry     beta= 0.40
     Davidson diagonalization with overlap
     ethr =  3.34E-03,  avg # of iterations =  2.0

     total cpu time spent up to now is       86.0 secs

     total energy              =   -7572.88789443 Ry
     estimated scf accuracy    <       0.25642038 Ry

     iteration #  3     ecut=    71.00 Ry     beta= 0.40
     Davidson diagonalization with overlap
     ethr =  7.28E-05,  avg # of iterations = 12.0

     total cpu time spent up to now is      169.9 secs

     total energy              =   -7573.05349456 Ry
     estimated scf accuracy    <       0.64837019 Ry

     iteration #  4     ecut=    71.00 Ry     beta= 0.40
     Davidson diagonalization with overlap
     ethr =  7.28E-05,  avg # of iterations =  6.1

     total cpu time spent up to now is      259.7 secs

     total energy              =   -7573.04395054 Ry
     estimated scf accuracy    <       3.38461163 Ry

     iteration #  5     ecut=    71.00 Ry     beta= 0.40
     Davidson diagonalization with overlap
     ethr =  7.28E-05,  avg # of iterations =  6.0

     total cpu time spent up to now is      327.1 secs

     total energy              =   -7573.30964780 Ry
     estimated scf accuracy    <       0.22106718 Ry

     iteration #  6     ecut=    71.00 Ry     beta= 0.40
     Davidson diagonalization with overlap
     ethr =  6.28E-05,  avg # of iterations =  2.0

     total cpu time spent up to now is      362.6 secs

     total energy              =   -7573.31652788 Ry
     estimated scf accuracy    <       0.04300878 Ry

     iteration #  7     ecut=    71.00 Ry     beta= 0.40
     Davidson diagonalization with overlap
     ethr =  1.22E-05,  avg # of iterations =  7.4

     total cpu time spent up to now is      420.1 secs

     total energy              =   -7573.35474685 Ry
     estimated scf accuracy    <       0.00810763 Ry

     iteration #  8     ecut=    71.00 Ry     beta= 0.40
     Davidson diagonalization with overlap
     c_bands:  2 eigenvalues not converged
     c_bands:  2 eigenvalues not converged
     ethr =  2.30E-06,  avg # of iterations = 14.2

     total cpu time spent up to now is      472.3 secs

     total energy              =   -7573.35680819 Ry
     estimated scf accuracy    <       0.00009137 Ry

     iteration #  9     ecut=    71.00 Ry     beta= 0.40
     Davidson diagonalization with overlap
     ethr =  2.60E-08,  avg # of iterations =  8.4

     total cpu time spent up to now is      546.8 secs

     total energy              =   -7573.35695610 Ry
     estimated scf accuracy    <       0.00045761 Ry

     iteration # 10     ecut=    71.00 Ry     beta= 0.40
     Davidson diagonalization with overlap
     ethr =  2.60E-08,  avg # of iterations =  6.9

     total cpu time spent up to now is      604.2 secs

     total energy              =   -7573.35700387 Ry
     estimated scf accuracy    <       0.00002613 Ry

     iteration # 11     ecut=    71.00 Ry     beta= 0.40
     Davidson diagonalization with overlap
     ethr =  7.42E-09,  avg # of iterations =  6.2

     total cpu time spent up to now is      674.0 secs

     total energy              =   -7573.35699794 Ry
     estimated scf accuracy    <       0.00017303 Ry

     iteration # 12     ecut=    71.00 Ry     beta= 0.40
     Davidson diagonalization with overlap
     ethr =  7.42E-09,  avg # of iterations =  4.1

     total cpu time spent up to now is      741.6 secs

     total energy              =   -7573.35701127 Ry
     estimated scf accuracy    <       0.00001751 Ry

     iteration # 13     ecut=    71.00 Ry     beta= 0.40
     Davidson diagonalization with overlap
     ethr =  4.98E-09,  avg # of iterations =  2.2

     total cpu time spent up to now is      778.2 secs

     total energy              =   -7573.35701223 Ry
     estimated scf accuracy    <       0.00001063 Ry

     iteration # 14     ecut=    71.00 Ry     beta= 0.40
     Davidson diagonalization with overlap
     ethr =  3.02E-09,  avg # of iterations =  1.8

     total cpu time spent up to now is      819.1 secs

     total energy              =   -7573.35700983 Ry
     estimated scf accuracy    <       0.00001004 Ry

     iteration # 15     ecut=    71.00 Ry     beta= 0.40
     Davidson diagonalization with overlap
     ethr =  2.85E-09,  avg # of iterations =  1.9

     total cpu time spent up to now is      852.8 secs

     total energy              =   -7573.35700871 Ry
     estimated scf accuracy    <       0.00000408 Ry

     iteration # 16     ecut=    71.00 Ry     beta= 0.40
     Davidson diagonalization with overlap
     ethr =  1.16E-09,  avg # of iterations =  5.2

     total cpu time spent up to now is      908.6 secs

     total energy              =   -7573.35701110 Ry
     estimated scf accuracy    <       0.00000039 Ry

     iteration # 17     ecut=    71.00 Ry     beta= 0.40
     Davidson diagonalization with overlap
     ethr =  1.11E-10,  avg # of iterations =  5.2

     total cpu time spent up to now is      962.5 secs

     total energy              =   -7573.35701115 Ry
     estimated scf accuracy    <       0.00000036 Ry

     iteration # 18     ecut=    71.00 Ry     beta= 0.40
     Davidson diagonalization with overlap
     ethr =  1.03E-10,  avg # of iterations =  1.6

     total cpu time spent up to now is      996.8 secs

     total energy              =   -7573.35701108 Ry
     estimated scf accuracy    <       0.00000016 Ry

     iteration # 19     ecut=    71.00 Ry     beta= 0.40
     Davidson diagonalization with overlap
     ethr =  4.44E-11,  avg # of iterations =  5.0

     total cpu time spent up to now is     1065.6 secs

     total energy              =   -7573.35701113 Ry
     estimated scf accuracy    <       0.00000006 Ry

     iteration # 20     ecut=    71.00 Ry     beta= 0.40
     Davidson diagonalization with overlap
     ethr =  1.76E-11,  avg # of iterations =  4.6

     total cpu time spent up to now is     1121.0 secs

     total energy              =   -7573.35701115 Ry
     estimated scf accuracy    <       0.00000002 Ry

     iteration # 21     ecut=    71.00 Ry     beta= 0.40
     Davidson diagonalization with overlap
     ethr =  5.19E-12,  avg # of iterations =  5.1

     total cpu time spent up to now is     1194.4 secs

     total energy              =   -7573.35701117 Ry
     estimated scf accuracy    <       0.00000004 Ry

     iteration # 22     ecut=    71.00 Ry     beta= 0.40
     Davidson diagonalization with overlap
     ethr =  5.19E-12,  avg # of iterations =  1.1

     total cpu time spent up to now is     1233.3 secs

     total energy              =   -7573.35701117 Ry
     estimated scf accuracy    <       0.00000004 Ry

     iteration # 23     ecut=    71.00 Ry     beta= 0.40
     Davidson diagonalization with overlap
     ethr =  5.19E-12,  avg # of iterations =  1.0

     total cpu time spent up to now is     1266.8 secs

     total energy              =   -7573.35701115 Ry
     estimated scf accuracy    <       0.00000003 Ry

     iteration # 24     ecut=    71.00 Ry     beta= 0.40
     Davidson diagonalization with overlap
     ethr =  5.19E-12,  avg # of iterations =  4.4

     total cpu time spent up to now is     1324.3 secs

     total energy              =   -7573.35701116 Ry
     estimated scf accuracy    <          1.0E-09 Ry

     iteration # 25     ecut=    71.00 Ry     beta= 0.40
     Davidson diagonalization with overlap
     ethr =  2.98E-13,  avg # of iterations =  5.1

     total cpu time spent up to now is     1386.0 secs

     End of self-consistent calculation

          k = 0.0000 0.0000 0.0000 ( 35337 PWs)   bands (ev):

    -8.9266  -8.3180  -8.3180  -8.2273  -8.2273  -8.2273  -8.1685  -8.1685
    -8.1685  -8.1488  -8.1488  -8.1488  -7.8968  -7.8968  -7.8968  -7.8848
    -7.8848  -7.8435  -7.8435  -7.8435  -7.7517  -7.7517  -7.7517  -7.5019
    -3.5702  -3.5702  -3.5702  -3.4733  -3.4733  -3.4733  -3.4641  -3.4641
    -3.4438  -3.3956  -3.3956  -3.3956  -3.3913  -3.3913  -3.3904  -3.3904
    -3.3904  -3.3573  -3.3382  -3.3182  -3.3182  -3.3182  -3.3181  -3.3181
    -3.3181  -3.3018  -3.3018  -3.3018  -3.2823  -3.2823  -3.2586  -3.2563
    -3.2563  -3.2563  -3.2508  -3.2508  -3.2508  -3.2075  -3.2075  -3.1801
    -3.1801  -3.1801  -3.1787  -3.1714  -3.1714  -3.1714  -3.1555  -3.1555
    -3.0838  -3.0838  -3.0838  -3.0742  -3.0742  -3.0742  -3.0367  -3.0367
    -3.0367  -3.0308  -3.0308  -3.0001  -2.9315  -2.9298  -2.9298  -2.9298
    -2.8870  -2.8870  -2.8870  -2.8611  -2.8611  -2.8611  -2.8319  -2.8319
    -2.2875  -2.2875  -2.2782  -2.2782  -2.2782  -1.8858  -1.8858  -1.8858
     3.5748   3.5748   3.6370   4.1431   4.1431   4.2554   4.2554   4.2554
     4.4695   4.4695   4.4695   4.6543   4.6543   4.6543   4.8042   5.1314
     5.1314   5.1314   5.5697   5.5697   5.5697   5.8262   5.8870   5.8870
     5.8870   5.9232   5.9232   5.9232   6.4150   6.6776   6.6776   6.6776
     6.7544   6.7544   7.1279   7.1279   7.1279   7.1674   7.1674   7.1674
     7.1941   7.1941   7.1941   7.3275   7.3986   7.3986   7.4656   7.4656
     7.4656   7.8113   7.8113   8.1367   8.1367   8.1367   8.1654   8.1654
     8.1654   8.4765   8.4765   8.4765   8.5678   8.5678   8.5678   8.6220
     8.6220   8.6768   8.6768   8.6768   8.6808   8.9221   8.9221   8.9221
    10.1119  14.5198  14.5198  14.5198  14.5479  14.5479  14.5479  14.6124
    14.6899  14.6899  14.6899  14.7146  14.7146  15.3648

          k = 0.2165 0.2165 0.0000 ( 35308 PWs)   bands (ev):

    -8.8556  -8.4318  -8.3606  -8.3146  -8.2870  -8.2380  -8.1803  -8.1500
    -8.1237  -8.1218  -8.0873  -8.0520  -7.9280  -7.9084  -7.8931  -7.8746
    -7.8656  -7.8599  -7.8222  -7.8221  -7.7681  -7.7451  -7.7237  -7.5357
    -3.5531  -3.5454  -3.5223  -3.4887  -3.4856  -3.4640  -3.4621  -3.4576
    -3.4428  -3.4261  -3.4248  -3.4118  -3.4082  -3.4027  -3.4009  -3.3824
    -3.3792  -3.3668  -3.3631  -3.3527  -3.3393  -3.3348  -3.3255  -3.3182
    -3.3094  -3.3078  -3.3033  -3.2989  -3.2887  -3.2835  -3.2820  -3.2674
    -3.2615  -3.2467  -3.2394  -3.2346  -3.2277  -3.2223  -3.2013  -3.1868
    -3.1828  -3.1793  -3.1693  -3.1633  -3.1604  -3.1510  -3.1417  -3.1355
    -3.0971  -3.0877  -3.0870  -3.0781  -3.0583  -3.0435  -3.0381  -3.0349
    -3.0317  -3.0237  -3.0155  -3.0071  -2.9982  -2.9859  -2.9849  -2.9580
    -2.9482  -2.8985  -2.8853  -2.8218  -2.7790  -2.7745  -2.7407  -2.6055
    -2.3614  -2.3080  -2.2910  -2.2792  -2.2173  -1.9638  -1.9569  -1.9425
     3.5761   3.6888   3.7346   3.8753   4.0169   4.1050   4.1162   4.2157
     4.2302   4.3317   4.5979   4.6538   4.8765   4.8944   5.0941   5.1375
     5.1776   5.2322   5.5724   5.5925   5.6770   5.8082   5.8190   5.9024
     5.9371   5.9881   6.1031   6.2203   6.2473   6.4259   6.5453   6.5875
     6.6478   6.7072   6.8573   6.8920   6.9957   7.0158   7.1758   7.2698
     7.2820   7.3644   7.3955   7.4072   7.4717   7.5063   7.5813   7.6126
     7.7368   7.8375   7.9077   7.9333   7.9609   7.9731   8.0271   8.0856
     8.2094   8.3182   8.3818   8.4587   8.4940   8.5272   8.5524   8.6255
     8.6292   8.6445   8.6818   8.7354   8.8055   8.8796   8.8928   8.9196
    10.8746  13.4970  14.1261  14.1522  14.1917  14.2237  14.6850  14.6994
    14.8872  15.0168  15.0367  15.1573  15.2756  15.3033

          k =-0.4330-0.4330 0.0000 ( 35256 PWs)   bands (ev):

    -8.6666  -8.6666  -8.3777  -8.3777  -8.2899  -8.2899  -8.1323  -8.1323
    -8.0856  -8.0856  -8.0063  -8.0063  -7.9762  -7.9762  -7.9129  -7.9129
    -7.8427  -7.8427  -7.8183  -7.8183  -7.7453  -7.7453  -7.6233  -7.6233
    -3.5186  -3.5186  -3.4976  -3.4976  -3.4815  -3.4815  -3.4565  -3.4565
    -3.4473  -3.4473  -3.4299  -3.4299  -3.4155  -3.4155  -3.4036  -3.4036
    -3.3844  -3.3844  -3.3575  -3.3575  -3.3466  -3.3466  -3.3408  -3.3408
    -3.3160  -3.3160  -3.3044  -3.3044  -3.2937  -3.2937  -3.2862  -3.2862
    -3.2451  -3.2451  -3.2349  -3.2349  -3.2178  -3.2178  -3.1864  -3.1864
    -3.1679  -3.1679  -3.1568  -3.1568  -3.1462  -3.1462  -3.1189  -3.1189
    -3.0943  -3.0943  -3.0761  -3.0761  -3.0679  -3.0679  -3.0444  -3.0444
    -3.0414  -3.0414  -3.0202  -3.0202  -3.0103  -3.0103  -2.9463  -2.9463
    -2.9324  -2.9324  -2.8418  -2.8418  -2.7404  -2.7404  -2.5515  -2.5515
    -2.3299  -2.3299  -2.3104  -2.3104  -2.0916  -2.0916  -2.0538  -2.0538
     3.6382   3.6382   3.9167   3.9167   3.9920   3.9920   4.0110   4.0110
     4.1179   4.1179   4.6650   4.6650   4.9405   4.9405   5.1390   5.1390
     5.3990   5.3990   5.6709   5.6709   5.8353   5.8353   5.8794   5.8794
     5.9309   5.9309   6.2387   6.2387   6.3603   6.3603   6.4970   6.4970
     6.7440   6.7440   6.7845   6.7845   6.8772   6.8772   7.0721   7.0721
     7.1949   7.1949   7.3656   7.3656   7.5349   7.5349   7.7261   7.7261
     7.8154   7.8154   7.9237   7.9237   7.9822   7.9822   8.0751   8.0751
     8.2780   8.2780   8.4145   8.4145   8.4738   8.4738   8.5719   8.5719
     8.6424   8.6424   8.7050   8.7050   8.7866   8.7866   8.8972   8.8972
    12.1877  12.1877  13.9481  13.9481  14.0371  14.0371  14.8680  14.8680
    14.9445  14.9446  15.2183  15.2183  15.2951  15.2951

          k = 0.4330 0.2165 0.2165 ( 35267 PWs)   bands (ev):

    -8.7259  -8.5201  -8.5120  -8.3957  -8.2382  -8.2249  -8.1592  -8.1448
    -8.1262  -8.0579  -8.0432  -7.9969  -7.9742  -7.9361  -7.9247  -7.8870
    -7.8751  -7.8501  -7.8322  -7.8126  -7.7393  -7.7014  -7.6803  -7.5957
    -3.5234  -3.5171  -3.5068  -3.4959  -3.4864  -3.4841  -3.4790  -3.4592
    -3.4453  -3.4358  -3.4305  -3.4280  -3.4176  -3.3988  -3.3972  -3.3924
    -3.3785  -3.3665  -3.3633  -3.3609  -3.3525  -3.3453  -3.3426  -3.3317
    -3.3272  -3.3159  -3.3139  -3.3033  -3.3019  -3.2890  -3.2741  -3.2687
    -3.2587  -3.2506  -3.2424  -3.2326  -3.2232  -3.2152  -3.2022  -3.1804
    -3.1738  -3.1665  -3.1595  -3.1552  -3.1529  -3.1331  -3.1243  -3.1192
    -3.0960  -3.0859  -3.0835  -3.0716  -3.0698  -3.0656  -3.0483  -3.0430
    -3.0414  -3.0317  -3.0192  -3.0171  -3.0044  -2.9943  -2.9861  -2.9502
    -2.9335  -2.8918  -2.8421  -2.8036  -2.7815  -2.7293  -2.6068  -2.5716
    -2.3658  -2.2944  -2.2607  -2.2471  -2.1781  -2.0896  -2.0533  -2.0338
     3.6292   3.7363   3.7695   3.8222   3.9488   3.9792   4.0351   4.1206
     4.2761   4.2933   4.4121   4.4580   4.9375   5.1158   5.1880   5.2410
     5.4405   5.4524   5.4918   5.6639   5.7318   5.8065   5.8647   5.8717
     5.9364   6.0189   6.1475   6.2877   6.3551   6.4507   6.4997   6.5716
     6.6415   6.6642   6.7794   6.8554   6.9087   6.9421   6.9929   7.0761
     7.1114   7.3289   7.4201   7.4354   7.4737   7.5410   7.6127   7.6858
     7.7998   7.8321   7.8633   7.9112   7.9938   8.0524   8.1133   8.1778
     8.2071   8.2906   8.3450   8.3825   8.4238   8.4811   8.5106   8.5459
     8.6656   8.6858   8.7689   8.7802   8.8076   8.8267   8.8494   8.8653
    11.8229  13.0247  13.0445  13.8439  14.3760  14.4072  14.6994  14.7816
    14.8630  15.0973  15.1768  15.2102  15.4572  15.4648

          k = 0.4330 0.4330 0.4330 ( 35304 PWs)   bands (ev):

    -8.5708  -8.5708  -8.5708  -8.5708  -8.1541  -8.1541  -8.1541  -8.1541
    -8.0392  -8.0392  -8.0392  -8.0392  -7.9461  -7.9461  -7.9461  -7.9461
    -7.8618  -7.8618  -7.8618  -7.8618  -7.6665  -7.6665  -7.6665  -7.6665
    -3.5109  -3.5109  -3.5109  -3.5109  -3.5005  -3.5005  -3.5005  -3.5005
    -3.4145  -3.4145  -3.4145  -3.4145  -3.3911  -3.3911  -3.3911  -3.3911
    -3.3701  -3.3701  -3.3701  -3.3701  -3.3323  -3.3323  -3.3323  -3.3323
    -3.3276  -3.3276  -3.3276  -3.3276  -3.2972  -3.2972  -3.2972  -3.2972
    -3.2500  -3.2500  -3.2500  -3.2500  -3.2133  -3.2133  -3.2133  -3.2133
    -3.1512  -3.1512  -3.1512  -3.1512  -3.1401  -3.1401  -3.1401  -3.1401
    -3.0768  -3.0768  -3.0768  -3.0768  -3.0510  -3.0510  -3.0510  -3.0510
    -3.0223  -3.0223  -3.0223  -3.0223  -2.9424  -2.9424  -2.9424  -2.9424
    -2.8723  -2.8723  -2.8723  -2.8723  -2.7473  -2.7473  -2.7473  -2.7473
    -2.2029  -2.2029  -2.2029  -2.2029  -2.1405  -2.1405  -2.1405  -2.1405
     3.9300   3.9300   3.9300   3.9300   3.9832   3.9832   3.9832   3.9832
     4.0802   4.0802   4.0802   4.0802   5.1920   5.1920   5.1920   5.1920
     5.5439   5.5439   5.5439   5.5439   6.0227   6.0227   6.0227   6.0227
     6.0374   6.0374   6.0374   6.0374   6.4019   6.4019   6.4019   6.4019
     6.7232   6.7232   6.7232   6.7232   6.8887   6.8887   6.8887   6.8887
     7.4101   7.4101   7.4101   7.4101   7.6468   7.6468   7.6468   7.6468
     7.8176   7.8176   7.8176   7.8176   7.9611   7.9611   7.9611   7.9611
     8.3452   8.3452   8.3452   8.3452   8.3842   8.3842   8.3842   8.3842
     8.8209   8.8209   8.8209   8.8209   8.8320   8.8320   8.8320   8.8320
    12.8085  12.8085  12.8085  12.8085  15.0202  15.0202  15.0202  15.0202
    15.1104  15.1104  15.1104  15.1104  15.1862  15.1862

          k = 0.0000 0.0000 0.4330 ( 35346 PWs)   bands (ev):

    -8.7864  -8.4168  -8.3953  -8.3710  -8.3349  -8.2365  -8.2120  -8.2044
    -8.1886  -8.0404  -8.0186  -7.9973  -7.9817  -7.9344  -7.9032  -7.8958
    -7.8464  -7.8384  -7.7954  -7.7847  -7.7541  -7.7391  -7.7108  -7.5671
    -3.5257  -3.5180  -3.5130  -3.5003  -3.4786  -3.4751  -3.4583  -3.4554
    -3.4498  -3.4448  -3.4438  -3.4199  -3.4100  -3.4069  -3.4052  -3.3888
    -3.3817  -3.3798  -3.3662  -3.3558  -3.3511  -3.3480  -3.3414  -3.3351
    -3.3166  -3.3115  -3.3090  -3.3010  -3.2871  -3.2850  -3.2648  -3.2543
    -3.2476  -3.2471  -3.2402  -3.2163  -3.2157  -3.2097  -3.2043  -3.2025
    -3.1799  -3.1744  -3.1727  -3.1581  -3.1495  -3.1402  -3.1363  -3.1242
    -3.1069  -3.1035  -3.0818  -3.0764  -3.0744  -3.0735  -3.0496  -3.0401
    -3.0336  -3.0291  -3.0287  -3.0270  -3.0193  -3.0096  -2.9982  -2.9663
    -2.9460  -2.9200  -2.8347  -2.7894  -2.6689  -2.6395  -2.6275  -2.5771
    -2.3691  -2.3395  -2.2846  -2.2676  -2.2519  -2.0658  -2.0194  -1.9901
     3.4926   3.6914   3.6969   3.7629   3.9316   3.9468   4.0482   4.3211
     4.3833   4.4453   4.5111   5.0056   5.0152   5.0514   5.0765   5.1306
     5.1731   5.1747   5.4348   5.5390   5.5856   5.7974   5.8262   5.8751
     5.8863   5.9070   6.2304   6.3319   6.3398   6.4373   6.4689   6.6853
     6.7243   6.8170   6.8456   6.9001   6.9564   7.0019   7.0738   7.0926
     7.1721   7.2289   7.2376   7.3818   7.4447   7.5110   7.5653   7.5664
     7.6801   7.8922   7.9628   7.9972   8.0657   8.1227   8.1514   8.1959
     8.2146   8.2861   8.4011   8.4478   8.4883   8.5787   8.5829   8.6079
     8.6172   8.6634   8.6755   8.7137   8.7554   8.8154   8.8380   8.8717
    11.3563  13.5914  13.6188  13.6430  13.6603  14.4966  14.6018  14.7035
    14.7155  14.7444  15.2717  15.4251  15.4460  15.5451

          k =-0.8660-0.2165-0.2165 ( 35310 PWs)   bands (ev):

    -8.6042  -8.6040  -8.4431  -8.3784  -8.3014  -8.2972  -8.2080  -8.1826
    -8.1511  -8.1490  -7.9859  -7.9598  -7.9562  -7.9328  -7.9165  -7.8995
    -7.8763  -7.8040  -7.7969  -7.7847  -7.7367  -7.6993  -7.6461  -7.6435
    -3.5225  -3.5157  -3.4990  -3.4908  -3.4792  -3.4738  -3.4694  -3.4638
    -3.4561  -3.4540  -3.4439  -3.4274  -3.4175  -3.4033  -3.3987  -3.3887
    -3.3818  -3.3754  -3.3691  -3.3586  -3.3571  -3.3457  -3.3441  -3.3315
    -3.3284  -3.3219  -3.3210  -3.3113  -3.3102  -3.2886  -3.2791  -3.2590
    -3.2553  -3.2475  -3.2257  -3.2163  -3.2077  -3.2056  -3.1891  -3.1844
    -3.1795  -3.1760  -3.1591  -3.1590  -3.1472  -3.1466  -3.1156  -3.1081
    -3.1060  -3.0960  -3.0895  -3.0877  -3.0832  -3.0725  -3.0616  -3.0531
    -3.0354  -3.0350  -3.0343  -3.0275  -3.0209  -3.0118  -3.0045  -3.0029
    -2.9651  -2.9382  -2.7343  -2.6800  -2.6764  -2.6195  -2.4915  -2.4447
    -2.3933  -2.3687  -2.3051  -2.2820  -2.2016  -2.1693  -2.1142  -2.0974
     3.5214   3.5257   3.5905   3.7914   3.8076   3.8593   4.3141   4.3342
     4.4467   4.4698   4.6130   4.6222   5.0930   5.1018   5.1600   5.2162
     5.3454   5.4001   5.4002   5.4746   5.5033   5.7019   5.8766   5.8951
     5.9836   6.0222   6.1569   6.2856   6.3461   6.4059   6.4253   6.4936
     6.7737   6.8093   6.8521   6.8783   6.9200   7.0060   7.0181   7.0809
     7.1294   7.1732   7.2922   7.4015   7.4366   7.5489   7.5563   7.6556
     7.6751   7.7078   7.8817   7.9264   8.1681   8.1717   8.2060   8.2704
     8.3222   8.4169   8.4442   8.4496   8.4885   8.5046   8.5926   8.6203
     8.6589   8.6816   8.6909   8.6914   8.7328   8.7410   8.7763   8.8055
    12.4281  12.4300  13.3716  13.3920  14.0111  14.0121  14.4856  14.5423
    14.8163  14.8719  15.4421  15.5064  15.6156  15.6486

          k =-0.8660-0.8660-0.8660 ( 35318 PWs)   bands (ev):

    -8.4786  -8.4786  -8.4786  -8.3964  -8.3964  -8.3964  -8.2283  -8.2283
    -8.2283  -8.1907  -7.9345  -7.9345  -7.9075  -7.9075  -7.9061  -7.9061
    -7.9061  -7.7821  -7.7821  -7.7821  -7.7054  -7.6685  -7.6685  -7.6685
    -3.5359  -3.5359  -3.5037  -3.5037  -3.5037  -3.4739  -3.4739  -3.4739
    -3.4313  -3.4209  -3.4209  -3.4209  -3.3913  -3.3913  -3.3913  -3.3835
    -3.3835  -3.3835  -3.3613  -3.3613  -3.3525  -3.3525  -3.3525  -3.3333
    -3.3333  -3.3319  -3.3297  -3.3297  -3.3297  -3.2769  -3.2769  -3.2769
    -3.2554  -3.2554  -3.2554  -3.2175  -3.1816  -3.1816  -3.1816  -3.1689
    -3.1689  -3.1689  -3.1630  -3.1630  -3.1630  -3.1479  -3.1479  -3.1479
    -3.0996  -3.0996  -3.0885  -3.0885  -3.0885  -3.0506  -3.0506  -3.0506
    -3.0333  -3.0333  -3.0333  -3.0268  -3.0205  -3.0205  -3.0205  -3.0003
    -3.0003  -3.0003  -2.5550  -2.5550  -2.5400  -2.5400  -2.4393  -2.4393
    -2.4393  -2.3267  -2.2991  -2.2991  -2.2991  -2.2283  -2.2283  -2.2283
     3.4380   3.4380   3.4380   3.7839   3.7839   3.7839   4.4370   4.4370
     4.4370   4.4651   4.9934   5.2111   5.2111   5.2111   5.2345   5.2345
     5.2345   5.2681   5.2681   5.2681   5.5109   5.5109   5.5109   5.8059
     5.9881   5.9881   5.9881   6.1233   6.3736   6.3736   6.5386   6.5386
     6.7744   6.7744   6.7744   7.0221   7.0221   7.0221   7.1151   7.1151
     7.2432   7.2432   7.2432   7.5078   7.5078   7.5078   7.5961   7.5961
     7.5961   7.6884   7.6884   8.1065   8.1065   8.1065   8.1995   8.1995
     8.2382   8.4653   8.4653   8.4653   8.6631   8.6631   8.6631   8.6843
     8.6843   8.6843   8.6915   8.6915   8.6915   8.6916   8.6916   8.7771
    13.0964  13.0964  13.0964  13.1025  13.1025  13.1025  14.6540  14.7036
    14.7036  14.7036  15.6639  15.6640  15.9392  15.9442

     highest occupied, lowest unoccupied level (ev):     8.9221   10.1119

!    total energy              =   -7573.35701116 Ry
     total all-electron energy =   -191828.749908 Ry
     estimated scf accuracy    <          4.3E-10 Ry

     The total energy is the sum of the following terms:
     one-electron contribution =    -673.87420171 Ry
     hartree contribution      =     667.58236803 Ry
     xc contribution           =    -922.50642999 Ry
     ewald contribution        =   -2052.11213240 Ry
     one-center paw contrib.   =   -4592.44661508 Ry

     convergence has been achieved in  25 iterations

     Forces acting on atoms (cartesian axes, Ry/au):

     atom    1 type  1   force =     0.00000000    0.00000000    0.00000000
     atom    2 type  1   force =     0.00000000    0.00000000    0.00000000
     atom    3 type  1   force =     0.00000000    0.00000000    0.00000000
     atom    4 type  1   force =    -0.00000000    0.00000000   -0.00000000
     atom    5 type  1   force =     0.00235196    0.00000000    0.00000000
     atom    6 type  1   force =    -0.00235196    0.00000000    0.00000000
     atom    7 type  1   force =     0.00000000    0.00235196   -0.00000000
     atom    8 type  1   force =    -0.00000000   -0.00235196   -0.00000000
     atom    9 type  1   force =     0.00000000   -0.00000000    0.00235196
     atom   10 type  1   force =     0.00000000    0.00000000   -0.00235196
     atom   11 type  1   force =    -0.00235196    0.00000000    0.00000000
     atom   12 type  1   force =     0.00235196    0.00000000    0.00000000
     atom   13 type  1   force =     0.00000000   -0.00235196    0.00000000
     atom   14 type  1   force =     0.00000000    0.00235196    0.00000000
     atom   15 type  1   force =     0.00000000    0.00000000   -0.00235196
     atom   16 type  1   force =     0.00000000    0.00000000    0.00235196
     atom   17 type  2   force =    -0.00045552    0.01086706   -0.01011193
     atom   18 type  2   force =     0.00045552   -0.01086706   -0.01011193
     atom   19 type  2   force =     0.00045552    0.01086706    0.01011193
     atom   20 type  2   force =    -0.00045552   -0.01086706    0.01011193
     atom   21 type  2   force =    -0.01011193   -0.00045552    0.01086706
     atom   22 type  2   force =    -0.01011193    0.00045552   -0.01086706
     atom   23 type  2   force =     0.01011193    0.00045552    0.01086706
     atom   24 type  2   force =     0.01011193   -0.00045552   -0.01086706
     atom   25 type  2   force =     0.01086706   -0.01011193   -0.00045552
     atom   26 type  2   force =    -0.01086706   -0.01011193    0.00045552
     atom   27 type  2   force =     0.01086706    0.01011193    0.00045552
     atom   28 type  2   force =    -0.01086706    0.01011193   -0.00045552
     atom   29 type  2   force =     0.00045552   -0.01086706    0.01011193
     atom   30 type  2   force =    -0.00045552    0.01086706    0.01011193
     atom   31 type  2   force =    -0.00045552   -0.01086706   -0.01011193
     atom   32 type  2   force =     0.00045552    0.01086706   -0.01011193
     atom   33 type  2   force =     0.01011193    0.00045552   -0.01086706
     atom   34 type  2   force =     0.01011193   -0.00045552    0.01086706
     atom   35 type  2   force =    -0.01011193   -0.00045552   -0.01086706
     atom   36 type  2   force =    -0.01011193    0.00045552    0.01086706
     atom   37 type  2   force =    -0.01086706    0.01011193    0.00045552
     atom   38 type  2   force =     0.01086706    0.01011193   -0.00045552
     atom   39 type  2   force =    -0.01086706   -0.01011193   -0.00045552
     atom   40 type  2   force =     0.01086706   -0.01011193    0.00045552

     Total force =     0.073209     Total SCF correction =     0.000015


     Computing stress (Cartesian axis) and pressure

          total   stress  (Ry/bohr**3)                   (kbar)     P=       96.61
   0.00065674   0.00000000   0.00000000           96.61        0.00        0.00
   0.00000000   0.00065674   0.00000000            0.00       96.61        0.00
   0.00000000   0.00000000   0.00065674            0.00        0.00       96.61


     Writing all to output data dir ./tmp/k4.save/ :
     XML data file, charge density, pseudopotentials, collected wavefunctions

     init_run     :     16.17s CPU     17.31s WALL (       1 calls)
     electrons    :   1321.74s CPU   1368.51s WALL (       1 calls)
     forces       :      7.59s CPU      8.34s WALL (       1 calls)
     stress       :     27.26s CPU     27.86s WALL (       1 calls)

     Called by init_run:
     wfcinit      :     12.32s CPU     13.05s WALL (       1 calls)
     potinit      :      1.68s CPU      1.79s WALL (       1 calls)
     hinit0       :      0.69s CPU      0.73s WALL (       1 calls)

     Called by electrons:
     c_bands      :   1109.01s CPU   1138.23s WALL (      25 calls)
     sum_band     :    154.98s CPU    165.59s WALL (      25 calls)
     v_of_rho     :     10.71s CPU     10.45s WALL (      26 calls)
     newd         :     14.44s CPU     19.20s WALL (      26 calls)
     PAW_pot      :     31.09s CPU     31.08s WALL (      26 calls)
     mix_rho      :      1.63s CPU      1.73s WALL (      25 calls)

     Called by c_bands:
     init_us_2    :      6.30s CPU      6.55s WALL (     212 calls)
     cegterg      :    925.22s CPU    945.28s WALL (     100 calls)

     Called by *egterg:
     cdiaghg      :     25.46s CPU     26.96s WALL (     548 calls)
     h_psi        :    569.05s CPU    585.56s WALL (     552 calls)
     s_psi        :     69.50s CPU     69.85s WALL (     552 calls)
     g_psi        :      2.09s CPU      2.16s WALL (     448 calls)

     Called by h_psi:
     h_psi:calbec :     73.55s CPU     71.23s WALL (     552 calls)
     vloc_psi     :    424.45s CPU    440.92s WALL (     552 calls)
                                        0.00s GPU  (     552 calls)
     add_vuspsi   :     69.02s CPU     69.16s WALL (     552 calls)

     General routines
     calbec       :    114.21s CPU    112.25s WALL (     720 calls)
     fft          :      8.76s CPU      8.64s WALL (     361 calls)
     ffts         :      0.62s CPU      0.67s WALL (      51 calls)
     fftw         :    436.70s CPU    450.94s WALL (  135892 calls)
     interpolate  :      1.19s CPU      1.27s WALL (      26 calls)

     Parallel routines

     PWSCF        :  22m53.59s CPU  24m 8.64s WALL


   This run was terminated on:   6:35: 1  27Sep2026            

=------------------------------------------------------------------------------=
   JOB DONE.
=------------------------------------------------------------------------------=
Note: The following floating-point exceptions are signalling: IEEE_INVALID_FLAG IEEE_UNDERFLOW_FLAG IEEE_DENORMAL
Note: The following floating-point exceptions are signalling: IEEE_INVALID_FLAG
Note: The following floating-point exceptions are signalling: IEEE_INVALID_FLAG
Note: The following floating-point exceptions are signalling: IEEE_INVALID_FLAG IEEE_UNDERFLOW_FLAG IEEE_DENORMAL
Note: The following floating-point exceptions are signalling: IEEE_INVALID_FLAG IEEE_UNDERFLOW_FLAG IEEE_DENORMAL
Note: The following floating-point exceptions are signalling: IEEE_INVALID_FLAG
Note: The following floating-point exceptions are signalling: IEEE_INVALID_FLAG IEEE_UNDERFLOW_FLAG IEEE_DENORMAL
Note: The following floating-point exceptions are signalling: IEEE_INVALID_FLAG IEEE_UNDERFLOW_FLAG IEEE_DENORMAL
Note: The following floating-point exceptions are signalling: IEEE_INVALID_FLAG
Note: The following floating-point exceptions are signalling: IEEE_INVALID_FLAG IEEE_UNDERFLOW_FLAG IEEE_DENORMAL
