
     Program PWSCF v.7.5 starts on  4Oct2026 at 15:35:13 

     This program is part of the open-source Quantum ESPRESSO suite
     for quantum simulation of materials; please cite
         "P. Giannozzi et al., J. Phys.:Condens. Matter 21 395502 (2009);
         "P. Giannozzi et al., J. Phys.:Condens. Matter 29 465901 (2017);
         "P. Giannozzi et al., J. Chem. Phys. 152 154105 (2020);
          URL http://www.quantum-espresso.org", 
     in publications or presentations arising from this work. More details at
     http://www.quantum-espresso.org/quote

     Parallel version (MPI & OpenMP), running on      24 processor cores
     Number of MPI processes:                24
     Threads/MPI process:                     1

     MPI processes distributed on     1 nodes
     159756 MiB available memory on the printing compute node when the environment starts

     Reading input from scf.in

     Current dimensions of program PWSCF are:
     Max number of different atomic species (ntypx) = 10
     Max number of k-points (npk) =  40000
     Max angular momentum in pseudopotentials (lmaxx) =  4
     file In.pbe-dn-kjpaw_psl.1.0.0.UPF: wavefunction(s)  5S 5P 4D renormalized
     file O.pbe-n-kjpaw_psl.1.0.0.UPF: wavefunction(s)  2S 2P renormalized
     file H.pbe-kjpaw_psl.1.0.0.UPF: wavefunction(s)  1S renormalized
     Message from routine setup:
     using ibrav=0 with symmetry is DISCOURAGED, use correct ibrav instead

     K-points division:     npool     =       2
     R & G space division:  proc/nbgrp/npool/nimage =      12
     Subspace diagonalization in iterative solution of the eigenvalue problem:
     one sub-group per band group will be used
     ELPA distributed-memory algorithm (size of sub-group:  3*  3 procs)


     Parallelization info
     --------------------
     sticks:   dense  smooth     PW     G-vecs:    dense   smooth      PW
     Min        1429     715    185               617751   218407   28819
     Max        1430     716    186               617768   218428   28830
     Sum       17157    8585   2225              7413139  2620949  345857

     Using Slab Decomposition



     bravais-lattice index     =            0
     lattice parameter (alat)  =      19.4980  a.u.
     unit-cell volume          =   32429.1815 (a.u.)^3
     number of atoms/cell      =          176
     number of atomic types    =            3
     number of electrons       =      1328.00
     number of Kohn-Sham states=          680
     kinetic-energy cutoff     =      71.0000  Ry
     charge density cutoff     =     568.0000  Ry
     scf convergence threshold =      1.0E-09
     mixing beta               =       0.2000
     number of iterations used =            8  local-TF  mixing
     Exchange-correlation= SLA  PW   PBX  PBC
                           (   1   4   3   4   0   0   0)

     celldm(1)=  19.498036  celldm(2)=   0.000000  celldm(3)=   0.000000
     celldm(4)=   0.000000  celldm(5)=   0.000000  celldm(6)=   0.000000

     crystal axes: (cart. coord. in units of alat)
               a(1) = (   1.000000   0.000000   0.000000 )  
               a(2) = (   0.000000   0.999087   0.000000 )  
               a(3) = (   0.000000   0.000000   4.378852 )  

     reciprocal axes: (cart. coord. in units 2 pi/alat)
               b(1) = (  1.000000  0.000000  0.000000 )  
               b(2) = (  0.000000  1.000914  0.000000 )  
               b(3) = (  0.000000  0.000000  0.228370 )  


     PseudoPot. # 1 for In read from file:
     ./In.pbe-dn-kjpaw_psl.1.0.0.UPF
     MD5 check sum: 235b15e6a7fdfd96486e0ecdcb5b12c6
     Pseudo is Projector augmented-wave + core cor, Zval = 13.0
     Generated using &quot;atomic&quot; code by A. Dal Corso  v.6.3
     Shape of augmentation charge: PSQ
     Using radial grid of 1241 points,  6 beta functions with: 
                l(1) =   0
                l(2) =   0
                l(3) =   1
                l(4) =   1
                l(5) =   2
                l(6) =   2
     Q(r) pseudized with 0 coefficients 


     PseudoPot. # 2 for O  read from file:
     ./O.pbe-n-kjpaw_psl.1.0.0.UPF
     MD5 check sum: e99d9cef9b487d1ca56f5b95ecd0fd7a
     Pseudo is Projector augmented-wave + core cor, Zval =  6.0
     Generated using &quot;atomic&quot; code by A. Dal Corso  v.6.3
     Shape of augmentation charge: PSQ
     Using radial grid of 1095 points,  4 beta functions with: 
                l(1) =   0
                l(2) =   0
                l(3) =   1
                l(4) =   1
     Q(r) pseudized with 0 coefficients 


     PseudoPot. # 3 for H  read from file:
     ./H.pbe-kjpaw_psl.1.0.0.UPF
     MD5 check sum: d81a744832360e4a8af0b0b5b123bc2a
     Pseudo is Projector augmented-wave, Zval =  1.0
     Generated using &quot;atomic&quot; code by A. Dal Corso  v.6.3MaX
     Shape of augmentation charge: PSQ
     Using radial grid of  929 points,  2 beta functions with: 
                l(1) =   0
                l(2) =   0
     Q(r) pseudized with 0 coefficients 


     atomic species   valence    mass     pseudopotential
     In               13.00   114.81800     In( 1.00)
     O                 6.00    15.99900     O ( 1.00)
     H                 1.00     1.00800     H ( 1.00)

      8 Sym. Ops., with inversion, found ( 6 have fractional translation)


                                    s                        frac. trans.

      isym =  1     identity                                     

 cryst.   s( 1) = (     1          0          0      )
                  (     0          1          0      )
                  (     0          0          1      )

 cart.    s( 1) = (  1.0000000  0.0000000  0.0000000 )
                  (  0.0000000  1.0000000  0.0000000 )
                  (  0.0000000  0.0000000  1.0000000 )


      isym =  2     180 deg rotation - cart. axis [0,0,1]        

 cryst.   s( 2) = (    -1          0          0      )    f =(  0.0000000 )
                  (     0         -1          0      )       (  0.5000000 )
                  (     0          0          1      )       (  0.0000000 )

 cart.    s( 2) = ( -1.0000000  0.0000000  0.0000000 )    f =(  0.0000000 )
                  (  0.0000000 -1.0000000  0.0000000 )       (  0.4995433 )
                  (  0.0000000  0.0000000  1.0000000 )       (  0.0000000 )


      isym =  3     180 deg rotation - cart. axis [0,1,0]        

 cryst.   s( 3) = (    -1          0          0      )    f =(  0.5000000 )
                  (     0          1          0      )       (  0.0000000 )
                  (     0          0         -1      )       (  0.0000000 )

 cart.    s( 3) = ( -1.0000000  0.0000000  0.0000000 )    f =(  0.5000000 )
                  (  0.0000000  1.0000000  0.0000000 )       (  0.0000000 )
                  (  0.0000000  0.0000000 -1.0000000 )       (  0.0000000 )


      isym =  4     180 deg rotation - cart. axis [1,0,0]        

 cryst.   s( 4) = (     1          0          0      )    f =(  0.5000000 )
                  (     0         -1          0      )       (  0.5000000 )
                  (     0          0         -1      )       (  0.0000000 )

 cart.    s( 4) = (  1.0000000  0.0000000  0.0000000 )    f =(  0.5000000 )
                  (  0.0000000 -1.0000000  0.0000000 )       (  0.4995433 )
                  (  0.0000000  0.0000000 -1.0000000 )       (  0.0000000 )


      isym =  5     inversion                                    

 cryst.   s( 5) = (    -1          0          0      )
                  (     0         -1          0      )
                  (     0          0         -1      )

 cart.    s( 5) = ( -1.0000000  0.0000000  0.0000000 )
                  (  0.0000000 -1.0000000  0.0000000 )
                  (  0.0000000  0.0000000 -1.0000000 )


      isym =  6     inv. 180 deg rotation - cart. axis [0,0,1]   

 cryst.   s( 6) = (     1          0          0      )    f =(  0.0000000 )
                  (     0          1          0      )       ( -0.5000000 )
                  (     0          0         -1      )       (  0.0000000 )

 cart.    s( 6) = (  1.0000000  0.0000000  0.0000000 )    f =(  0.0000000 )
                  (  0.0000000  1.0000000  0.0000000 )       ( -0.4995433 )
                  (  0.0000000  0.0000000 -1.0000000 )       (  0.0000000 )


      isym =  7     inv. 180 deg rotation - cart. axis [0,1,0]   

 cryst.   s( 7) = (     1          0          0      )    f =(  0.5000000 )
                  (     0         -1          0      )       ( -0.0000000 )
                  (     0          0          1      )       (  0.0000000 )

 cart.    s( 7) = (  1.0000000  0.0000000  0.0000000 )    f =(  0.5000000 )
                  (  0.0000000 -1.0000000  0.0000000 )       ( -0.0000000 )
                  (  0.0000000  0.0000000  1.0000000 )       (  0.0000000 )


      isym =  8     inv. 180 deg rotation - cart. axis [1,0,0]   

 cryst.   s( 8) = (    -1          0          0      )    f =(  0.5000000 )
                  (     0          1          0      )       ( -0.5000000 )
                  (     0          0          1      )       (  0.0000000 )

 cart.    s( 8) = ( -1.0000000  0.0000000  0.0000000 )    f =(  0.5000000 )
                  (  0.0000000  1.0000000  0.0000000 )       ( -0.4995433 )
                  (  0.0000000  0.0000000  1.0000000 )       (  0.0000000 )


   Cartesian axes

     site n.     atom                  positions (alat units)
         1        In     tau(   1) = (   0.2475443   0.2523154   1.4389793  )
         2        In     tau(   2) = (   0.7524557   0.2472279   1.4389793  )
         3        In     tau(   3) = (   0.2502748   0.2498150   1.9394110  )
         4        In     tau(   4) = (   0.2524557   0.7518587   1.4389793  )
         5        In     tau(   5) = (   0.4664954   0.4994667   1.9392039  )
         6        In     tau(   6) = (   0.0359158   0.5019578   1.4401297  )
         7        In     tau(   7) = (   0.7512482   0.4650386   1.6891257  )
         8        In     tau(   8) = (   0.2487518   0.0345047   1.6891257  )
         9        In     tau(   9) = (   0.5000000   0.7493149   1.6564928  )
        10        In     tau(  10) = (   0.0335046  -0.0000766   1.9392039  )
        11        In     tau(  11) = (   0.4640842   0.0024146   1.4401297  )
        12        In     tau(  12) = (   0.0000000   0.2497716   1.6564928  )
        13        O      tau(  13) = (   0.3890697   0.1563764   1.5691308  )
        14        O      tau(  14) = (   0.6109303   0.3431669   1.5691308  )
        15        O      tau(  15) = (   0.1103649   0.1547804   1.8080425  )
        16        O      tau(  16) = (   0.8896351   0.3447628   1.8080425  )
        17        O      tau(  17) = (   0.3810388   0.3935568   1.3438360  )
        18        O      tau(  18) = (   0.3837086   0.6098315   1.5364709  )
        19        O      tau(  19) = (   0.6189612   0.1059864   1.3438360  )
        20        O      tau(  20) = (   0.6162914   0.8887983   1.5364709  )
        21        O      tau(  21) = (   0.1548955   0.3830323   1.5805003  )
        22        O      tau(  22) = (   0.3460904   0.3819793   1.7995751  )
        23        O      tau(  23) = (   0.1837587   0.6023891   1.3068008  )
        24        O      tau(  24) = (   0.3455844   0.6172116   2.0791801  )
        25        O      tau(  25) = (   0.0990545   0.3423072   1.3161241  )
        26        O      tau(  26) = (   0.9009455   0.1572361   1.3161241  )
        27        O      tau(  27) = (   0.3898594   0.3452283   2.0715524  )
        28        O      tau(  28) = (   0.6101406   0.1543150   2.0715524  )
        29        O      tau(  29) = (   0.1162914   0.1102882   1.5364709  )
        30        O      tau(  30) = (   0.1189612   0.8931001   1.3438360  )
        31        O      tau(  31) = (   0.8837086   0.3892551   1.5364709  )
        32        O      tau(  32) = (   0.8810388   0.6055297   1.3438360  )
        33        O      tau(  33) = (   0.3162413   0.1028458   1.3068008  )
        34        O      tau(  34) = (   0.1544156   0.1176683   2.0791801  )
        35        O      tau(  35) = (   0.3451045   0.8825755   1.5805003  )
        36        O      tau(  36) = (   0.1539096   0.8815226   1.7995751  )
        37        In     tau(  37) = (   0.7502748   0.7492716   1.9394110  )
        38        In     tau(  38) = (   0.2497252   0.7493582   1.9394110  )
        39        In     tau(  39) = (   0.7475443   0.7467711   1.4389793  )
        40        In     tau(  40) = (   0.7497252   0.2497283   1.9394110  )
        41        In     tau(  41) = (   0.9640842  -0.0024146   1.4401297  )
        42        In     tau(  42) = (   0.5335046   0.0000766   1.9392039  )
        43        In     tau(  43) = (   0.0000000   0.2497716   2.1557213  )
        44        In     tau(  44) = (   0.0000000   0.7493149   1.7222710  )
        45        In     tau(  45) = (   0.5359158   0.4971287   1.4401297  )
        46        In     tau(  46) = (   0.9664954   0.4996198   1.9392039  )
        47        In     tau(  47) = (   0.2512482   0.5340479   1.6891257  )
        48        In     tau(  48) = (   0.7487518   0.9645819   1.6891257  )
        49        In     tau(  49) = (   0.5000000   0.2497716   1.7222710  )
        50        In     tau(  50) = (   0.5000000   0.7493149   2.1557213  )
        51        O      tau(  51) = (   0.8898594   0.6538583   2.0715524  )
        52        O      tau(  52) = (   0.1101406   0.8447716   2.0715524  )
        53        O      tau(  53) = (   0.5990545   0.6567794   1.3161241  )
        54        O      tau(  54) = (   0.4009455   0.8418504   1.3161241  )
        55        O      tau(  55) = (   0.8822894   0.8888322   1.8422341  )
        56        O      tau(  56) = (   0.8821677   0.1098284   2.0351332  )
        57        O      tau(  57) = (   0.1177106   0.6097976   1.8422341  )
        58        O      tau(  58) = (   0.1178323   0.3897149   2.0351332  )
        59        O      tau(  59) = (   0.6544156   0.8814183   2.0791801  )
        60        O      tau(  60) = (   0.8162413   0.8962407   1.3068008  )
        61        O      tau(  61) = (   0.6539096   0.1175639   1.7995751  )
        62        O      tau(  62) = (   0.8451045   0.1165110   1.5805003  )
        63        O      tau(  63) = (   0.6103649   0.8443061   1.8080425  )
        64        O      tau(  64) = (   0.3896351   0.6543237   1.8080425  )
        65        O      tau(  65) = (   0.8890697   0.8427101   1.5691308  )
        66        O      tau(  66) = (   0.1109303   0.6559197   1.5691308  )
        67        O      tau(  67) = (   0.6178323   0.6093716   2.0351332  )
        68        O      tau(  68) = (   0.6177106   0.3892890   1.8422341  )
        69        O      tau(  69) = (   0.3821677   0.8892582   2.0351332  )
        70        O      tau(  70) = (   0.3822894   0.1102543   1.8422341  )
        71        O      tau(  71) = (   0.8460904   0.6171072   1.7995751  )
        72        O      tau(  72) = (   0.6548955   0.6160543   1.5805003  )
        73        O      tau(  73) = (   0.8455844   0.3818750   2.0791801  )
        74        O      tau(  74) = (   0.6837587   0.3966974   1.3068008  )
        75        In     tau(  75) = (   0.2497252   0.2498150   2.4394411  )
        76        In     tau(  76) = (   0.7502748   0.2497283   2.4394411  )
        77        In     tau(  77) = (   0.2524557   0.2523154   2.9398727  )
        78        In     tau(  78) = (   0.2502748   0.7493582   2.4394411  )
        79        In     tau(  79) = (   0.4640842   0.5019578   2.9387223  )
        80        In     tau(  80) = (   0.0335046   0.4994667   2.4396481  )
        81        In     tau(  81) = (   0.7487518   0.4650386   2.6897264  )
        82        In     tau(  82) = (   0.2512482   0.0345047   2.6897264  )
        83        In     tau(  83) = (   0.5000000   0.7493149   2.6565810  )
        84        In     tau(  84) = (   0.5000000   0.2497716   2.2231307  )
        85        In     tau(  85) = (   0.0359158   0.0024146   2.9387223  )
        86        In     tau(  86) = (   0.4664954  -0.0000766   2.4396481  )
        87        In     tau(  87) = (   0.7500000   0.0334062   2.1894260  )
        88        In     tau(  88) = (   0.2500000   0.4661371   2.1894260  )
        89        In     tau(  89) = (   0.0000000   0.7493149   2.2231307  )
        90        In     tau(  90) = (   0.0000000   0.2497716   2.6565810  )
        91        O      tau(  91) = (   0.3896351   0.1547804   2.5708096  )
        92        O      tau(  92) = (   0.6103649   0.3447628   2.5708096  )
        93        O      tau(  93) = (   0.1109303   0.1563764   2.8097212  )
        94        O      tau(  94) = (   0.8890697   0.3431669   2.8097212  )
        95        O      tau(  95) = (   0.3821677   0.3897149   2.3437188  )
        96        O      tau(  96) = (   0.3822894   0.6097976   2.5366180  )
        97        O      tau(  97) = (   0.6178323   0.1098284   2.3437188  )
        98        O      tau(  98) = (   0.6177106   0.8888322   2.5366180  )
        99        O      tau(  99) = (   0.1539096   0.3819793   2.5792770  )
       100        O      tau( 100) = (   0.3451045   0.3830323   2.7983517  )
       101        O      tau( 101) = (   0.1544156   0.6172116   2.2996719  )
       102        O      tau( 102) = (   0.3162413   0.6023891   3.0720512  )
       103        O      tau( 103) = (   0.1101406   0.3452283   2.3072996  )
       104        O      tau( 104) = (   0.8898594   0.1543150   2.3072996  )
       105        O      tau( 105) = (   0.4009455   0.3423072   3.0627280  )
       106        O      tau( 106) = (   0.5990545   0.1572361   3.0627280  )
       107        O      tau( 107) = (   0.1177106   0.1102543   2.5366180  )
       108        O      tau( 108) = (   0.1178323   0.8892582   2.3437188  )
       109        O      tau( 109) = (   0.8822894   0.3892890   2.5366180  )
       110        O      tau( 110) = (   0.8821677   0.6093716   2.3437188  )
       111        O      tau( 111) = (   0.3455844   0.1176683   2.2996719  )
       112        O      tau( 112) = (   0.1837587   0.1028458   3.0720512  )
       113        O      tau( 113) = (   0.3460904   0.8815226   2.5792770  )
       114        O      tau( 114) = (   0.1548955   0.8825755   2.7983517  )
       115        In     tau( 115) = (   0.7524557   0.7467711   2.9398727  )
       116        In     tau( 116) = (   0.2475443   0.7518587   2.9398727  )
       117        In     tau( 117) = (   0.7497252   0.7492716   2.4394411  )
       118        In     tau( 118) = (   0.7475443   0.2472279   2.9398727  )
       119        In     tau( 119) = (   0.9664954   0.0000766   2.4396481  )
       120        In     tau( 120) = (   0.5359158  -0.0024146   2.9387223  )
       121        In     tau( 121) = (   0.2500000   0.9656804   2.1894260  )
       122        In     tau( 122) = (   0.7500000   0.5329494   2.1894260  )
       123        In     tau( 123) = (   0.0000000   0.7493149   2.7223593  )
       124        In     tau( 124) = (   0.5335046   0.4996198   2.4396481  )
       125        In     tau( 125) = (   0.9640842   0.4971287   2.9387223  )
       126        In     tau( 126) = (   0.2487518   0.5340479   2.6897264  )
       127        In     tau( 127) = (   0.7512482   0.9645819   2.6897264  )
       128        In     tau( 128) = (   0.5000000   0.2497716   2.7223593  )
       129        O      tau( 129) = (   0.9009455   0.6567794   3.0627280  )
       130        O      tau( 130) = (   0.0990545   0.8418504   3.0627280  )
       131        O      tau( 131) = (   0.6101406   0.6538583   2.3072996  )
       132        O      tau( 132) = (   0.3898594   0.8447716   2.3072996  )
       133        O      tau( 133) = (   0.8837086   0.8887983   2.8423812  )
       134        O      tau( 134) = (   0.8810388   0.1059864   3.0350160  )
       135        O      tau( 135) = (   0.1162914   0.6098315   2.8423812  )
       136        O      tau( 136) = (   0.1189612   0.3935568   3.0350160  )
       137        O      tau( 137) = (   0.6837587   0.8962407   3.0720512  )
       138        O      tau( 138) = (   0.8455844   0.8814183   2.2996719  )
       139        O      tau( 139) = (   0.6548955   0.1165110   2.7983517  )
       140        O      tau( 140) = (   0.8460904   0.1175639   2.5792770  )
       141        O      tau( 141) = (   0.6109303   0.8427101   2.8097212  )
       142        O      tau( 142) = (   0.3890697   0.6559197   2.8097212  )
       143        O      tau( 143) = (   0.8896351   0.8443061   2.5708096  )
       144        O      tau( 144) = (   0.1103649   0.6543237   2.5708096  )
       145        O      tau( 145) = (   0.6189612   0.6055297   3.0350160  )
       146        O      tau( 146) = (   0.6162914   0.3892551   2.8423812  )
       147        O      tau( 147) = (   0.3810388   0.8931001   3.0350160  )
       148        O      tau( 148) = (   0.3837086   0.1102882   2.8423812  )
       149        O      tau( 149) = (   0.8451045   0.6160543   2.7983517  )
       150        O      tau( 150) = (   0.6539096   0.6171072   2.5792770  )
       151        O      tau( 151) = (   0.8162413   0.3966974   3.0720512  )
       152        O      tau( 152) = (   0.6544156   0.3818750   2.2996719  )
       153        H      tau( 153) = (   0.3222976   0.4631522   1.3149352  )
       154        H      tau( 154) = (   0.6777024   0.0363910   1.3149352  )
       155        H      tau( 155) = (   0.1357120   0.6463843   1.2384941  )
       156        H      tau( 156) = (   0.1377726   0.3795544   1.2387193  )
       157        H      tau( 157) = (   0.8622274   0.1199888   1.2387193  )
       158        H      tau( 158) = (   0.1777024   0.9626955   1.3149352  )
       159        H      tau( 159) = (   0.8222976   0.5359343   1.3149352  )
       160        H      tau( 160) = (   0.3642880   0.1468410   1.2384941  )
       161        H      tau( 161) = (   0.6377726   0.6195321   1.2387193  )
       162        H      tau( 162) = (   0.3622274   0.8790977   1.2387193  )
       163        H      tau( 163) = (   0.8642880   0.8522455   1.2384941  )
       164        H      tau( 164) = (   0.6357120   0.3527022   1.2384941  )
       165        H      tau( 165) = (   0.3642880   0.6463843   3.1403579  )
       166        H      tau( 166) = (   0.3622274   0.3795544   3.1401328  )
       167        H      tau( 167) = (   0.6377726   0.1199888   3.1401328  )
       168        H      tau( 168) = (   0.1357120   0.1468410   3.1403579  )
       169        H      tau( 169) = (   0.8622274   0.6195321   3.1401328  )
       170        H      tau( 170) = (   0.1377726   0.8790977   3.1401328  )
       171        H      tau( 171) = (   0.8222976   0.0363910   3.0639169  )
       172        H      tau( 172) = (   0.1777024   0.4631522   3.0639169  )
       173        H      tau( 173) = (   0.6357120   0.8522455   3.1403579  )
       174        H      tau( 174) = (   0.6777024   0.5359343   3.0639169  )
       175        H      tau( 175) = (   0.3222976   0.9626955   3.0639169  )
       176        H      tau( 176) = (   0.8642880   0.3527022   3.1403579  )

   Crystallographic axes

     site n.     atom                  positions (cryst. coord.)
         1        In     tau(   1) = (  0.2475443  0.2525461  0.3286202  )
         2        In     tau(   2) = (  0.7524557  0.2474539  0.3286202  )
         3        In     tau(   3) = (  0.2502748  0.2500434  0.4429040  )
         4        In     tau(   4) = (  0.2524557  0.7525461  0.3286202  )
         5        In     tau(   5) = (  0.4664954  0.4999234  0.4428567  )
         6        In     tau(   6) = (  0.0359158  0.5024168  0.3288829  )
         7        In     tau(   7) = (  0.7512482  0.4654638  0.3857462  )
         8        In     tau(   8) = (  0.2487518  0.0345362  0.3857462  )
         9        In     tau(   9) = (  0.5000000  0.7500000  0.3782939  )
        10        In     tau(  10) = (  0.0335046 -0.0000766  0.4428567  )
        11        In     tau(  11) = (  0.4640842  0.0024168  0.3288829  )
        12        In     tau(  12) = (  0.0000000  0.2500000  0.3782939  )
        13        O      tau(  13) = (  0.3890697  0.1565194  0.3583430  )
        14        O      tau(  14) = (  0.6109303  0.3434806  0.3583430  )
        15        O      tau(  15) = (  0.1103649  0.1549220  0.4129033  )
        16        O      tau(  16) = (  0.8896351  0.3450780  0.4129033  )
        17        O      tau(  17) = (  0.3810388  0.3939167  0.3068923  )
        18        O      tau(  18) = (  0.3837086  0.6103890  0.3508844  )
        19        O      tau(  19) = (  0.6189612  0.1060833  0.3068923  )
        20        O      tau(  20) = (  0.6162914  0.8896110  0.3508844  )
        21        O      tau(  21) = (  0.1548955  0.3833825  0.3609394  )
        22        O      tau(  22) = (  0.3460904  0.3823286  0.4109696  )
        23        O      tau(  23) = (  0.1837587  0.6029399  0.2984346  )
        24        O      tau(  24) = (  0.3455844  0.6177759  0.4748231  )
        25        O      tau(  25) = (  0.0990545  0.3426201  0.3005637  )
        26        O      tau(  26) = (  0.9009455  0.1573799  0.3005637  )
        27        O      tau(  27) = (  0.3898594  0.3455439  0.4730812  )
        28        O      tau(  28) = (  0.6101406  0.1544561  0.4730812  )
        29        O      tau(  29) = (  0.1162914  0.1103890  0.3508844  )
        30        O      tau(  30) = (  0.1189612  0.8939167  0.3068923  )
        31        O      tau(  31) = (  0.8837086  0.3896110  0.3508844  )
        32        O      tau(  32) = (  0.8810388  0.6060833  0.3068923  )
        33        O      tau(  33) = (  0.3162413  0.1029399  0.2984346  )
        34        O      tau(  34) = (  0.1544156  0.1177759  0.4748231  )
        35        O      tau(  35) = (  0.3451045  0.8833825  0.3609394  )
        36        O      tau(  36) = (  0.1539096  0.8823286  0.4109696  )
        37        In     tau(  37) = (  0.7502748  0.7499566  0.4429040  )
        38        In     tau(  38) = (  0.2497252  0.7500434  0.4429040  )
        39        In     tau(  39) = (  0.7475443  0.7474539  0.3286202  )
        40        In     tau(  40) = (  0.7497252  0.2499566  0.4429040  )
        41        In     tau(  41) = (  0.9640842 -0.0024168  0.3288829  )
        42        In     tau(  42) = (  0.5335046  0.0000766  0.4428567  )
        43        In     tau(  43) = (  0.0000000  0.2500000  0.4923028  )
        44        In     tau(  44) = (  0.0000000  0.7500000  0.3933156  )
        45        In     tau(  45) = (  0.5359158  0.4975832  0.3288829  )
        46        In     tau(  46) = (  0.9664954  0.5000766  0.4428567  )
        47        In     tau(  47) = (  0.2512482  0.5345362  0.3857462  )
        48        In     tau(  48) = (  0.7487518  0.9654638  0.3857462  )
        49        In     tau(  49) = (  0.5000000  0.2500000  0.3933156  )
        50        In     tau(  50) = (  0.5000000  0.7500000  0.4923028  )
        51        O      tau(  51) = (  0.8898594  0.6544561  0.4730812  )
        52        O      tau(  52) = (  0.1101406  0.8455439  0.4730812  )
        53        O      tau(  53) = (  0.5990545  0.6573799  0.3005637  )
        54        O      tau(  54) = (  0.4009455  0.8426201  0.3005637  )
        55        O      tau(  55) = (  0.8822894  0.8896449  0.4207116  )
        56        O      tau(  56) = (  0.8821677  0.1099288  0.4647641  )
        57        O      tau(  57) = (  0.1177106  0.6103551  0.4207116  )
        58        O      tau(  58) = (  0.1178323  0.3900712  0.4647641  )
        59        O      tau(  59) = (  0.6544156  0.8822241  0.4748231  )
        60        O      tau(  60) = (  0.8162413  0.8970601  0.2984346  )
        61        O      tau(  61) = (  0.6539096  0.1176714  0.4109696  )
        62        O      tau(  62) = (  0.8451045  0.1166175  0.3609394  )
        63        O      tau(  63) = (  0.6103649  0.8450780  0.4129033  )
        64        O      tau(  64) = (  0.3896351  0.6549220  0.4129033  )
        65        O      tau(  65) = (  0.8890697  0.8434806  0.3583430  )
        66        O      tau(  66) = (  0.1109303  0.6565194  0.3583430  )
        67        O      tau(  67) = (  0.6178323  0.6099288  0.4647641  )
        68        O      tau(  68) = (  0.6177106  0.3896449  0.4207116  )
        69        O      tau(  69) = (  0.3821677  0.8900712  0.4647641  )
        70        O      tau(  70) = (  0.3822894  0.1103551  0.4207116  )
        71        O      tau(  71) = (  0.8460904  0.6176714  0.4109696  )
        72        O      tau(  72) = (  0.6548955  0.6166175  0.3609394  )
        73        O      tau(  73) = (  0.8455844  0.3822241  0.4748231  )
        74        O      tau(  74) = (  0.6837587  0.3970601  0.2984346  )
        75        In     tau(  75) = (  0.2497252  0.2500434  0.5570960  )
        76        In     tau(  76) = (  0.7502748  0.2499566  0.5570960  )
        77        In     tau(  77) = (  0.2524557  0.2525461  0.6713798  )
        78        In     tau(  78) = (  0.2502748  0.7500434  0.5570960  )
        79        In     tau(  79) = (  0.4640842  0.5024168  0.6711171  )
        80        In     tau(  80) = (  0.0335046  0.4999234  0.5571433  )
        81        In     tau(  81) = (  0.7487518  0.4654638  0.6142538  )
        82        In     tau(  82) = (  0.2512482  0.0345362  0.6142538  )
        83        In     tau(  83) = (  0.5000000  0.7500000  0.6066844  )
        84        In     tau(  84) = (  0.5000000  0.2500000  0.5076972  )
        85        In     tau(  85) = (  0.0359158  0.0024168  0.6711171  )
        86        In     tau(  86) = (  0.4664954 -0.0000766  0.5571433  )
        87        In     tau(  87) = (  0.7500000  0.0334367  0.5000000  )
        88        In     tau(  88) = (  0.2500000  0.4665633  0.5000000  )
        89        In     tau(  89) = (  0.0000000  0.7500000  0.5076972  )
        90        In     tau(  90) = (  0.0000000  0.2500000  0.6066844  )
        91        O      tau(  91) = (  0.3896351  0.1549220  0.5870967  )
        92        O      tau(  92) = (  0.6103649  0.3450780  0.5870967  )
        93        O      tau(  93) = (  0.1109303  0.1565194  0.6416570  )
        94        O      tau(  94) = (  0.8890697  0.3434806  0.6416570  )
        95        O      tau(  95) = (  0.3821677  0.3900712  0.5352359  )
        96        O      tau(  96) = (  0.3822894  0.6103551  0.5792884  )
        97        O      tau(  97) = (  0.6178323  0.1099288  0.5352359  )
        98        O      tau(  98) = (  0.6177106  0.8896449  0.5792884  )
        99        O      tau(  99) = (  0.1539096  0.3823286  0.5890304  )
       100        O      tau( 100) = (  0.3451045  0.3833825  0.6390606  )
       101        O      tau( 101) = (  0.1544156  0.6177759  0.5251769  )
       102        O      tau( 102) = (  0.3162413  0.6029399  0.7015654  )
       103        O      tau( 103) = (  0.1101406  0.3455439  0.5269188  )
       104        O      tau( 104) = (  0.8898594  0.1544561  0.5269188  )
       105        O      tau( 105) = (  0.4009455  0.3426201  0.6994363  )
       106        O      tau( 106) = (  0.5990545  0.1573799  0.6994363  )
       107        O      tau( 107) = (  0.1177106  0.1103551  0.5792884  )
       108        O      tau( 108) = (  0.1178323  0.8900712  0.5352359  )
       109        O      tau( 109) = (  0.8822894  0.3896449  0.5792884  )
       110        O      tau( 110) = (  0.8821677  0.6099288  0.5352359  )
       111        O      tau( 111) = (  0.3455844  0.1177759  0.5251769  )
       112        O      tau( 112) = (  0.1837587  0.1029399  0.7015654  )
       113        O      tau( 113) = (  0.3460904  0.8823286  0.5890304  )
       114        O      tau( 114) = (  0.1548955  0.8833825  0.6390606  )
       115        In     tau( 115) = (  0.7524557  0.7474539  0.6713798  )
       116        In     tau( 116) = (  0.2475443  0.7525461  0.6713798  )
       117        In     tau( 117) = (  0.7497252  0.7499566  0.5570960  )
       118        In     tau( 118) = (  0.7475443  0.2474539  0.6713798  )
       119        In     tau( 119) = (  0.9664954  0.0000766  0.5571433  )
       120        In     tau( 120) = (  0.5359158 -0.0024168  0.6711171  )
       121        In     tau( 121) = (  0.2500000  0.9665633  0.5000000  )
       122        In     tau( 122) = (  0.7500000  0.5334367  0.5000000  )
       123        In     tau( 123) = (  0.0000000  0.7500000  0.6217061  )
       124        In     tau( 124) = (  0.5335046  0.5000766  0.5571433  )
       125        In     tau( 125) = (  0.9640842  0.4975832  0.6711171  )
       126        In     tau( 126) = (  0.2487518  0.5345362  0.6142538  )
       127        In     tau( 127) = (  0.7512482  0.9654638  0.6142538  )
       128        In     tau( 128) = (  0.5000000  0.2500000  0.6217061  )
       129        O      tau( 129) = (  0.9009455  0.6573799  0.6994363  )
       130        O      tau( 130) = (  0.0990545  0.8426201  0.6994363  )
       131        O      tau( 131) = (  0.6101406  0.6544561  0.5269188  )
       132        O      tau( 132) = (  0.3898594  0.8455439  0.5269188  )
       133        O      tau( 133) = (  0.8837086  0.8896110  0.6491156  )
       134        O      tau( 134) = (  0.8810388  0.1060833  0.6931077  )
       135        O      tau( 135) = (  0.1162914  0.6103890  0.6491156  )
       136        O      tau( 136) = (  0.1189612  0.3939167  0.6931077  )
       137        O      tau( 137) = (  0.6837587  0.8970601  0.7015654  )
       138        O      tau( 138) = (  0.8455844  0.8822241  0.5251769  )
       139        O      tau( 139) = (  0.6548955  0.1166175  0.6390606  )
       140        O      tau( 140) = (  0.8460904  0.1176714  0.5890304  )
       141        O      tau( 141) = (  0.6109303  0.8434806  0.6416570  )
       142        O      tau( 142) = (  0.3890697  0.6565194  0.6416570  )
       143        O      tau( 143) = (  0.8896351  0.8450780  0.5870967  )
       144        O      tau( 144) = (  0.1103649  0.6549220  0.5870967  )
       145        O      tau( 145) = (  0.6189612  0.6060833  0.6931077  )
       146        O      tau( 146) = (  0.6162914  0.3896110  0.6491156  )
       147        O      tau( 147) = (  0.3810388  0.8939167  0.6931077  )
       148        O      tau( 148) = (  0.3837086  0.1103890  0.6491156  )
       149        O      tau( 149) = (  0.8451045  0.6166175  0.6390606  )
       150        O      tau( 150) = (  0.6539096  0.6176714  0.5890304  )
       151        O      tau( 151) = (  0.8162413  0.3970601  0.7015654  )
       152        O      tau( 152) = (  0.6544156  0.3822241  0.5251769  )
       153        H      tau( 153) = (  0.3222976  0.4635757  0.3002922  )
       154        H      tau( 154) = (  0.6777024  0.0364243  0.3002922  )
       155        H      tau( 155) = (  0.1357120  0.6469753  0.2828353  )
       156        H      tau( 156) = (  0.1377726  0.3799015  0.2828868  )
       157        H      tau( 157) = (  0.8622274  0.1200985  0.2828868  )
       158        H      tau( 158) = (  0.1777024  0.9635757  0.3002922  )
       159        H      tau( 159) = (  0.8222976  0.5364243  0.3002922  )
       160        H      tau( 160) = (  0.3642880  0.1469753  0.2828353  )
       161        H      tau( 161) = (  0.6377726  0.6200985  0.2828868  )
       162        H      tau( 162) = (  0.3622274  0.8799015  0.2828868  )
       163        H      tau( 163) = (  0.8642880  0.8530247  0.2828353  )
       164        H      tau( 164) = (  0.6357120  0.3530247  0.2828353  )
       165        H      tau( 165) = (  0.3642880  0.6469753  0.7171647  )
       166        H      tau( 166) = (  0.3622274  0.3799015  0.7171132  )
       167        H      tau( 167) = (  0.6377726  0.1200985  0.7171132  )
       168        H      tau( 168) = (  0.1357120  0.1469753  0.7171647  )
       169        H      tau( 169) = (  0.8622274  0.6200985  0.7171132  )
       170        H      tau( 170) = (  0.1377726  0.8799015  0.7171132  )
       171        H      tau( 171) = (  0.8222976  0.0364243  0.6997078  )
       172        H      tau( 172) = (  0.1777024  0.4635757  0.6997078  )
       173        H      tau( 173) = (  0.6357120  0.8530247  0.7171647  )
       174        H      tau( 174) = (  0.6777024  0.5364243  0.6997078  )
       175        H      tau( 175) = (  0.3222976  0.9635757  0.6997078  )
       176        H      tau( 176) = (  0.8642880  0.3530247  0.7171647  )

     number of k points=     4
                       cart. coord. in units 2pi/alat
        k(    1) = (   0.0000000   0.0000000   0.0000000), wk =   0.2222222
        k(    2) = (   0.0000000   0.3336381   0.0000000), wk =   0.4444444
        k(    3) = (   0.3333333   0.0000000   0.0000000), wk =   0.4444444
        k(    4) = (   0.3333333   0.3336381   0.0000000), wk =   0.8888889

                       cryst. coord.
        k(    1) = (   0.0000000   0.0000000   0.0000000), wk =   0.2222222
        k(    2) = (   0.0000000   0.3333333   0.0000000), wk =   0.4444444
        k(    3) = (   0.3333333   0.0000000   0.0000000), wk =   0.4444444
        k(    4) = (   0.3333333   0.3333333   0.0000000), wk =   0.8888889

     Dense  grid:  7413139 G-vectors     FFT dimensions: ( 150, 150, 648)

     Smooth grid:  2620949 G-vectors     FFT dimensions: ( 108, 108, 480)

     Dynamical RAM for                 wfc:     283.27 MB

     Dynamical RAM for     wfc (w. buffer):     849.82 MB

     Dynamical RAM for           str. fact:      28.28 MB

     Dynamical RAM for           local pot:       0.00 MB

     Dynamical RAM for          nlocal pot:     759.84 MB

     Dynamical RAM for                qrad:       5.74 MB

     Dynamical RAM for          rho,v,vnew:      56.09 MB

     Dynamical RAM for               rhoin:      18.70 MB

     Dynamical RAM for            rho*nmix:     150.82 MB

     Dynamical RAM for           G-vectors:      37.01 MB

     Dynamical RAM for          h,s,v(r/c):       9.39 MB

     Dynamical RAM for          <psi|beta>:      18.93 MB

     Dynamical RAM for                 psi:     566.55 MB

     Dynamical RAM for                hpsi:     566.55 MB

     Dynamical RAM for                spsi:     566.55 MB

     Dynamical RAM for      wfcinit/wfcrot:     577.14 MB

     Dynamical RAM for           addusdens:    1333.80 MB

     Dynamical RAM for          addusforce:    2229.66 MB

     Dynamical RAM for         addusstress:     949.68 MB

     Estimated static dynamical RAM per process >       1.80 GB

     Estimated max dynamical RAM per process >       4.12 GB

     Estimated total dynamical RAM >      97.14 GB

     Initial potential from superposition of free atoms

     starting charge    1327.7914, renormalised to    1328.0000

     negative rho (up, down):  1.715E-03 0.000E+00
     Starting wfcs are  912 randomized atomic wfcs
     Checking if some PAW data can be deallocated... 
       PAW data deallocated on   13 nodes for type:  1
       PAW data deallocated on    7 nodes for type:  2
       PAW data deallocated on   20 nodes for type:  3

     total cpu time spent up to now is      160.9 secs

     per-process dynamical memory:  1964.4 Mb

     Self-consistent Calculation

     iteration #  1     ecut=    71.00 Ry     beta= 0.20
     Davidson diagonalization with overlap

---- Real-time Memory Report at c_bands before calling an iterative solver
          2391 MiB given to the printing process from OS
          1918 MiB allocation reported by mallinfo(arena+hblkhd)
        123960 MiB available memory on the node where the printing process lives
------------------
     ethr =  1.00E-02,  avg # of iterations =  2.0

     negative rho (up, down):  4.914E-04 0.000E+00

     total cpu time spent up to now is      505.6 secs

     total energy              =  -27038.81531335 Ry
     estimated scf accuracy    <      46.75818142 Ry

     iteration #  2     ecut=    71.00 Ry     beta= 0.20
     Davidson diagonalization with overlap

---- Real-time Memory Report at c_bands before calling an iterative solver
          3652 MiB given to the printing process from OS
          1975 MiB allocation reported by mallinfo(arena+hblkhd)
        111887 MiB available memory on the node where the printing process lives
------------------
     ethr =  3.52E-03,  avg # of iterations =  1.2

     negative rho (up, down):  8.598E-04 0.000E+00

     total cpu time spent up to now is      816.4 secs

     total energy              =  -27024.53563875 Ry
     estimated scf accuracy    <      30.19344791 Ry

     iteration #  3     ecut=    71.00 Ry     beta= 0.20
     Davidson diagonalization with overlap

---- Real-time Memory Report at c_bands before calling an iterative solver
          3664 MiB given to the printing process from OS
          1982 MiB allocation reported by mallinfo(arena+hblkhd)
        108482 MiB available memory on the node where the printing process lives
------------------
     ethr =  2.27E-03,  avg # of iterations =  4.2

     negative rho (up, down):  1.631E-04 0.000E+00

     total cpu time spent up to now is     1388.2 secs

     total energy              =  -27034.40744528 Ry
     estimated scf accuracy    <       1.48743849 Ry

     iteration #  4     ecut=    71.00 Ry     beta= 0.20
     Davidson diagonalization with overlap

---- Real-time Memory Report at c_bands before calling an iterative solver
          3758 MiB given to the printing process from OS
          1989 MiB allocation reported by mallinfo(arena+hblkhd)
        108653 MiB available memory on the node where the printing process lives
------------------
     ethr =  1.12E-04,  avg # of iterations =  7.8

     negative rho (up, down):  3.106E-07 0.000E+00

     total cpu time spent up to now is     2047.0 secs

     total energy              =  -27035.04072669 Ry
     estimated scf accuracy    <       2.45610763 Ry

     iteration #  5     ecut=    71.00 Ry     beta= 0.20
     Davidson diagonalization with overlap

---- Real-time Memory Report at c_bands before calling an iterative solver
          3804 MiB given to the printing process from OS
          1996 MiB allocation reported by mallinfo(arena+hblkhd)
        124708 MiB available memory on the node where the printing process lives
------------------
     ethr =  1.12E-04,  avg # of iterations =  6.0

     negative rho (up, down):  2.921E-07 0.000E+00

     total cpu time spent up to now is     2807.9 secs

     total energy              =  -27034.83790162 Ry
     estimated scf accuracy    <       9.38526268 Ry

     iteration #  6     ecut=    71.00 Ry     beta= 0.20
     Davidson diagonalization with overlap

---- Real-time Memory Report at c_bands before calling an iterative solver
          3804 MiB given to the printing process from OS
          2003 MiB allocation reported by mallinfo(arena+hblkhd)
         94835 MiB available memory on the node where the printing process lives
------------------
     ethr =  1.12E-04,  avg # of iterations =  6.0

     negative rho (up, down):  5.084E-08 0.000E+00

     total cpu time spent up to now is     3509.0 secs

     total energy              =  -27035.52799646 Ry
     estimated scf accuracy    <       0.83461378 Ry

     iteration #  7     ecut=    71.00 Ry     beta= 0.20
     Davidson diagonalization with overlap

---- Real-time Memory Report at c_bands before calling an iterative solver
          3804 MiB given to the printing process from OS
          2010 MiB allocation reported by mallinfo(arena+hblkhd)
        114034 MiB available memory on the node where the printing process lives
------------------
     ethr =  6.28E-05,  avg # of iterations =  5.0

     total cpu time spent up to now is     3933.0 secs

     total energy              =  -27035.62443210 Ry
     estimated scf accuracy    <       0.27197106 Ry

     iteration #  8     ecut=    71.00 Ry     beta= 0.20
     Davidson diagonalization with overlap

---- Real-time Memory Report at c_bands before calling an iterative solver
          3804 MiB given to the printing process from OS
          2017 MiB allocation reported by mallinfo(arena+hblkhd)
        110860 MiB available memory on the node where the printing process lives
------------------
     ethr =  2.05E-05,  avg # of iterations =  5.8

     total cpu time spent up to now is     4363.7 secs

     total energy              =  -27035.70040371 Ry
     estimated scf accuracy    <       0.15715916 Ry

     iteration #  9     ecut=    71.00 Ry     beta= 0.20
     Davidson diagonalization with overlap

---- Real-time Memory Report at c_bands before calling an iterative solver
          3804 MiB given to the printing process from OS
          2025 MiB allocation reported by mallinfo(arena+hblkhd)
        113620 MiB available memory on the node where the printing process lives
------------------
     ethr =  1.18E-05,  avg # of iterations =  2.0

     negative rho (up, down):  1.089E-07 0.000E+00

     total cpu time spent up to now is     4734.7 secs

     total energy              =  -27035.71354960 Ry
     estimated scf accuracy    <       0.21344033 Ry

     iteration # 10     ecut=    71.00 Ry     beta= 0.20
     Davidson diagonalization with overlap

---- Real-time Memory Report at c_bands before calling an iterative solver
          3804 MiB given to the printing process from OS
          2032 MiB allocation reported by mallinfo(arena+hblkhd)
        120664 MiB available memory on the node where the printing process lives
------------------
     ethr =  1.18E-05,  avg # of iterations =  1.5

     negative rho (up, down):  4.195E-02 0.000E+00

     total cpu time spent up to now is     5053.5 secs

     total energy              =  -27035.68374494 Ry
     estimated scf accuracy    <       0.22426173 Ry

     iteration # 11     ecut=    71.00 Ry     beta= 0.20
     Davidson diagonalization with overlap

---- Real-time Memory Report at c_bands before calling an iterative solver
          3804 MiB given to the printing process from OS
          2032 MiB allocation reported by mallinfo(arena+hblkhd)
        106886 MiB available memory on the node where the printing process lives
------------------
     c_bands:  1 eigenvalues not converged
     ethr =  1.18E-05,  avg # of iterations = 12.5

     negative rho (up, down):  6.874E-02 0.000E+00

     total cpu time spent up to now is     5443.3 secs

     total energy              =  -27035.68135862 Ry
     estimated scf accuracy    <       0.14413164 Ry

     iteration # 12     ecut=    71.00 Ry     beta= 0.20
     Davidson diagonalization with overlap

---- Real-time Memory Report at c_bands before calling an iterative solver
          3804 MiB given to the printing process from OS
          2032 MiB allocation reported by mallinfo(arena+hblkhd)
         99203 MiB available memory on the node where the printing process lives
------------------
     ethr =  1.09E-05,  avg # of iterations =  2.0

     negative rho (up, down):  1.172E-02 0.000E+00

     total cpu time spent up to now is     5804.0 secs

     total energy              =  -27035.65895576 Ry
     estimated scf accuracy    <       0.11295754 Ry

     iteration # 13     ecut=    71.00 Ry     beta= 0.20
     Davidson diagonalization with overlap

---- Real-time Memory Report at c_bands before calling an iterative solver
          3804 MiB given to the printing process from OS
          2032 MiB allocation reported by mallinfo(arena+hblkhd)
        104845 MiB available memory on the node where the printing process lives
------------------
     ethr =  8.51E-06,  avg # of iterations =  2.0

     negative rho (up, down):  1.556E-01 0.000E+00

     total cpu time spent up to now is     6207.8 secs

     total energy              =  -27035.65702227 Ry
     estimated scf accuracy    <       0.05555406 Ry

     iteration # 14     ecut=    71.00 Ry     beta= 0.20
     Davidson diagonalization with overlap

---- Real-time Memory Report at c_bands before calling an iterative solver
          3804 MiB given to the printing process from OS
          2032 MiB allocation reported by mallinfo(arena+hblkhd)
         88709 MiB available memory on the node where the printing process lives
------------------
     ethr =  4.18E-06,  avg # of iterations = 16.8

     negative rho (up, down):  1.352E-01 0.000E+00

     total cpu time spent up to now is     6903.0 secs

     total energy              =  -27035.67242419 Ry
     estimated scf accuracy    <       0.07211102 Ry

     iteration # 15     ecut=    71.00 Ry     beta= 0.20
     Davidson diagonalization with overlap

---- Real-time Memory Report at c_bands before calling an iterative solver
          3837 MiB given to the printing process from OS
          2032 MiB allocation reported by mallinfo(arena+hblkhd)
        107546 MiB available memory on the node where the printing process lives
------------------
     ethr =  4.18E-06,  avg # of iterations =  2.0

     negative rho (up, down):  9.456E-02 0.000E+00

     total cpu time spent up to now is     7265.5 secs

     total energy              =  -27035.66905579 Ry
     estimated scf accuracy    <       0.04132338 Ry

     iteration # 16     ecut=    71.00 Ry     beta= 0.20
     Davidson diagonalization with overlap

---- Real-time Memory Report at c_bands before calling an iterative solver
          3837 MiB given to the printing process from OS
          2032 MiB allocation reported by mallinfo(arena+hblkhd)
        109115 MiB available memory on the node where the printing process lives
------------------
     ethr =  3.11E-06,  avg # of iterations = 12.5

     negative rho (up, down):  1.136E-01 0.000E+00

     total cpu time spent up to now is     8047.4 secs

     total energy              =  -27035.70302252 Ry
     estimated scf accuracy    <       0.15448697 Ry

     iteration # 17     ecut=    71.00 Ry     beta= 0.20
     Davidson diagonalization with overlap

---- Real-time Memory Report at c_bands before calling an iterative solver
          3837 MiB given to the printing process from OS
          2032 MiB allocation reported by mallinfo(arena+hblkhd)
        103218 MiB available memory on the node where the printing process lives
------------------
     ethr =  3.11E-06,  avg # of iterations =  1.0

     negative rho (up, down):  4.556E-02 0.000E+00

     total cpu time spent up to now is     8344.4 secs

     total energy              =  -27035.73614387 Ry
     estimated scf accuracy    <       0.12970020 Ry

     iteration # 18     ecut=    71.00 Ry     beta= 0.20
     Davidson diagonalization with overlap

---- Real-time Memory Report at c_bands before calling an iterative solver
          3837 MiB given to the printing process from OS
          2032 MiB allocation reported by mallinfo(arena+hblkhd)
        116288 MiB available memory on the node where the printing process lives
------------------
     ethr =  3.11E-06,  avg # of iterations =  6.2

     negative rho (up, down):  7.551E-02 0.000E+00

     total cpu time spent up to now is     8775.3 secs

     total energy              =  -27035.73298633 Ry
     estimated scf accuracy    <       0.21630216 Ry

     iteration # 19     ecut=    71.00 Ry     beta= 0.20
     Davidson diagonalization with overlap

---- Real-time Memory Report at c_bands before calling an iterative solver
          3837 MiB given to the printing process from OS
          2032 MiB allocation reported by mallinfo(arena+hblkhd)
        107998 MiB available memory on the node where the printing process lives
------------------
     ethr =  3.11E-06,  avg # of iterations =  2.0

     negative rho (up, down):  1.010E-01 0.000E+00

     total cpu time spent up to now is     9165.3 secs

     total energy              =  -27035.71102013 Ry
     estimated scf accuracy    <       0.22893411 Ry

     iteration # 20     ecut=    71.00 Ry     beta= 0.20
     Davidson diagonalization with overlap

---- Real-time Memory Report at c_bands before calling an iterative solver
          3837 MiB given to the printing process from OS
          2032 MiB allocation reported by mallinfo(arena+hblkhd)
        101941 MiB available memory on the node where the printing process lives
------------------
     ethr =  3.11E-06,  avg # of iterations =  2.0

     negative rho (up, down):  1.014E-01 0.000E+00

     total cpu time spent up to now is     9542.7 secs

     total energy              =  -27035.69862377 Ry
     estimated scf accuracy    <       0.18577483 Ry

     iteration # 21     ecut=    71.00 Ry     beta= 0.20
     Davidson diagonalization with overlap

---- Real-time Memory Report at c_bands before calling an iterative solver
          3837 MiB given to the printing process from OS
          2032 MiB allocation reported by mallinfo(arena+hblkhd)
        107030 MiB available memory on the node where the printing process lives
------------------
     ethr =  3.11E-06,  avg # of iterations =  1.5

     negative rho (up, down):  1.014E-01 0.000E+00

     total cpu time spent up to now is     9866.1 secs

     total energy              =  -27035.65423837 Ry
     estimated scf accuracy    <       0.15425467 Ry

     iteration # 22     ecut=    71.00 Ry     beta= 0.20
     Davidson diagonalization with overlap

---- Real-time Memory Report at c_bands before calling an iterative solver
          3837 MiB given to the printing process from OS
          2032 MiB allocation reported by mallinfo(arena+hblkhd)
        108035 MiB available memory on the node where the printing process lives
------------------
     ethr =  3.11E-06,  avg # of iterations =  6.8

     negative rho (up, down):  1.304E-01 0.000E+00

     total cpu time spent up to now is    10433.6 secs

     total energy              =  -27035.65524691 Ry
     estimated scf accuracy    <       0.03118963 Ry

     iteration # 23     ecut=    71.00 Ry     beta= 0.20
     Davidson diagonalization with overlap

---- Real-time Memory Report at c_bands before calling an iterative solver
          3837 MiB given to the printing process from OS
          2032 MiB allocation reported by mallinfo(arena+hblkhd)
         91090 MiB available memory on the node where the printing process lives
------------------
     c_bands:  1 eigenvalues not converged
     ethr =  2.35E-06,  avg # of iterations = 17.8

     negative rho (up, down):  1.166E-01 0.000E+00

     total cpu time spent up to now is    11212.9 secs

     total energy              =  -27035.65702273 Ry
     estimated scf accuracy    <       0.06467541 Ry

     iteration # 24     ecut=    71.00 Ry     beta= 0.20
     Davidson diagonalization with overlap

---- Real-time Memory Report at c_bands before calling an iterative solver
          3837 MiB given to the printing process from OS
          2032 MiB allocation reported by mallinfo(arena+hblkhd)
        100500 MiB available memory on the node where the printing process lives
------------------
     ethr =  2.35E-06,  avg # of iterations =  9.2

     negative rho (up, down):  9.950E-02 0.000E+00

     total cpu time spent up to now is    11668.6 secs

     total energy              =  -27035.65495033 Ry
     estimated scf accuracy    <       0.01689487 Ry

     iteration # 25     ecut=    71.00 Ry     beta= 0.20
     Davidson diagonalization with overlap

---- Real-time Memory Report at c_bands before calling an iterative solver
          3837 MiB given to the printing process from OS
          2032 MiB allocation reported by mallinfo(arena+hblkhd)
        109697 MiB available memory on the node where the printing process lives
------------------
     ethr =  1.27E-06,  avg # of iterations =  8.5

     negative rho (up, down):  9.568E-02 0.000E+00

     total cpu time spent up to now is    12400.5 secs

     total energy              =  -27035.66141742 Ry
     estimated scf accuracy    <       0.05234472 Ry

     iteration # 26     ecut=    71.00 Ry     beta= 0.20
     Davidson diagonalization with overlap

---- Real-time Memory Report at c_bands before calling an iterative solver
          3846 MiB given to the printing process from OS
          2032 MiB allocation reported by mallinfo(arena+hblkhd)
        121233 MiB available memory on the node where the printing process lives
------------------
     ethr =  1.27E-06,  avg # of iterations =  8.2

     negative rho (up, down):  1.120E-01 0.000E+00

     total cpu time spent up to now is    12833.3 secs

     total energy              =  -27035.65749610 Ry
     estimated scf accuracy    <       0.01440188 Ry

     iteration # 27     ecut=    71.00 Ry     beta= 0.20
     Davidson diagonalization with overlap

---- Real-time Memory Report at c_bands before calling an iterative solver
          3846 MiB given to the printing process from OS
          2032 MiB allocation reported by mallinfo(arena+hblkhd)
        103708 MiB available memory on the node where the printing process lives
------------------
     ethr =  1.08E-06,  avg # of iterations = 17.8

     negative rho (up, down):  7.638E-02 0.000E+00

     total cpu time spent up to now is    13612.3 secs

     total energy              =  -27035.66055636 Ry
     estimated scf accuracy    <       0.02717252 Ry

     iteration # 28     ecut=    71.00 Ry     beta= 0.20
     Davidson diagonalization with overlap

---- Real-time Memory Report at c_bands before calling an iterative solver
          3846 MiB given to the printing process from OS
          2032 MiB allocation reported by mallinfo(arena+hblkhd)
        111721 MiB available memory on the node where the printing process lives
------------------
     ethr =  1.08E-06,  avg # of iterations = 18.0

     negative rho (up, down):  5.023E-02 0.000E+00

     total cpu time spent up to now is    14204.1 secs

     total energy              =  -27035.66446147 Ry
     estimated scf accuracy    <       0.00239099 Ry

     iteration # 29     ecut=    71.00 Ry     beta= 0.20
     Davidson diagonalization with overlap

---- Real-time Memory Report at c_bands before calling an iterative solver
          3846 MiB given to the printing process from OS
          2032 MiB allocation reported by mallinfo(arena+hblkhd)
        105944 MiB available memory on the node where the printing process lives
------------------
     ethr =  1.80E-07,  avg # of iterations = 10.5

     negative rho (up, down):  5.371E-02 0.000E+00

     total cpu time spent up to now is    14986.6 secs

     total energy              =  -27035.66351498 Ry
     estimated scf accuracy    <       0.01236155 Ry

     iteration # 30     ecut=    71.00 Ry     beta= 0.20
     Davidson diagonalization with overlap

---- Real-time Memory Report at c_bands before calling an iterative solver
          3846 MiB given to the printing process from OS
          2032 MiB allocation reported by mallinfo(arena+hblkhd)
        118580 MiB available memory on the node where the printing process lives
------------------
     ethr =  1.80E-07,  avg # of iterations =  8.0

     negative rho (up, down):  3.924E-02 0.000E+00

     total cpu time spent up to now is    15755.1 secs

     total energy              =  -27035.66618669 Ry
     estimated scf accuracy    <       0.00122282 Ry

     iteration # 31     ecut=    71.00 Ry     beta= 0.20
     Davidson diagonalization with overlap

---- Real-time Memory Report at c_bands before calling an iterative solver
          3846 MiB given to the printing process from OS
          2032 MiB allocation reported by mallinfo(arena+hblkhd)
        103556 MiB available memory on the node where the printing process lives
------------------
     ethr =  9.21E-08,  avg # of iterations =  5.0

     negative rho (up, down):  3.166E-02 0.000E+00

     total cpu time spent up to now is    16376.6 secs

     total energy              =  -27035.66552435 Ry
     estimated scf accuracy    <       0.00514837 Ry

     iteration # 32     ecut=    71.00 Ry     beta= 0.20
     Davidson diagonalization with overlap

---- Real-time Memory Report at c_bands before calling an iterative solver
          3846 MiB given to the printing process from OS
          2032 MiB allocation reported by mallinfo(arena+hblkhd)
        104293 MiB available memory on the node where the printing process lives
------------------
     ethr =  9.21E-08,  avg # of iterations =  2.0

     negative rho (up, down):  2.393E-02 0.000E+00

     total cpu time spent up to now is    16737.8 secs

     total energy              =  -27035.66387574 Ry
     estimated scf accuracy    <       0.00289712 Ry

     iteration # 33     ecut=    71.00 Ry     beta= 0.20
     Davidson diagonalization with overlap

---- Real-time Memory Report at c_bands before calling an iterative solver
          3846 MiB given to the printing process from OS
          2032 MiB allocation reported by mallinfo(arena+hblkhd)
        106156 MiB available memory on the node where the printing process lives
------------------
     ethr =  9.21E-08,  avg # of iterations =  6.8

     negative rho (up, down):  2.202E-02 0.000E+00

     total cpu time spent up to now is    17503.4 secs

     total energy              =  -27035.66507742 Ry
     estimated scf accuracy    <       0.00131357 Ry

     iteration # 34     ecut=    71.00 Ry     beta= 0.20
     Davidson diagonalization with overlap

---- Real-time Memory Report at c_bands before calling an iterative solver
          3846 MiB given to the printing process from OS
          2032 MiB allocation reported by mallinfo(arena+hblkhd)
        119610 MiB available memory on the node where the printing process lives
------------------
     ethr =  9.21E-08,  avg # of iterations =  1.8

     negative rho (up, down):  2.049E-02 0.000E+00

     total cpu time spent up to now is    17832.0 secs

     total energy              =  -27035.66486410 Ry
     estimated scf accuracy    <       0.00045435 Ry

     iteration # 35     ecut=    71.00 Ry     beta= 0.20
     Davidson diagonalization with overlap

---- Real-time Memory Report at c_bands before calling an iterative solver
          3846 MiB given to the printing process from OS
          2032 MiB allocation reported by mallinfo(arena+hblkhd)
        111426 MiB available memory on the node where the printing process lives
------------------
