[b9g34p0623][[31224,1],1][btl_tcp_proc.c:266:mca_btl_tcp_proc_create_interface_graph] Unable to find reachable pairing between local and remote interfaces
[b9g34p0623][[31224,1],0][btl_tcp_proc.c:266:mca_btl_tcp_proc_create_interface_graph] Unable to find reachable pairing between local and remote interfaces

     Program PWSCF v.7.5 starts on 30Sep2026 at 10: 6:31 

     This program is part of the open-source Quantum ESPRESSO suite
     for quantum simulation of materials; please cite
         "P. Giannozzi et al., J. Phys.:Condens. Matter 21 395502 (2009);
         "P. Giannozzi et al., J. Phys.:Condens. Matter 29 465901 (2017);
         "P. Giannozzi et al., J. Chem. Phys. 152 154105 (2020);
          URL http://www.quantum-espresso.org", 
     in publications or presentations arising from this work. More details at
     http://www.quantum-espresso.org/quote

     Parallel version (MPI & OpenMP), running on       2 processor cores
     Number of MPI processes:                 2
     Threads/MPI process:                     1

     MPI processes distributed on     1 nodes
     640 MiB available memory on the printing compute node when the environment starts

     Reading input from relax.in

     Current dimensions of program PWSCF are:
     Max number of different atomic species (ntypx) = 10
     Max number of k-points (npk) =  40000
     Max angular momentum in pseudopotentials (lmaxx) =  4
     file W.pbe-spn-kjpaw_psl.1.0.0.UPF: wavefunction(s)  6S 5P 5D renormalized
     Message from routine setup:
     using ibrav=0 with symmetry is DISCOURAGED, use correct ibrav instead

     R & G space division:  proc/nbgrp/npool/nimage =       2
     Subspace diagonalization in iterative solution of the eigenvalue problem:
     a serial algorithm will be used


     Parallelization info
     --------------------
     sticks:   dense  smooth     PW     G-vecs:    dense   smooth      PW
     Min         458     228     72                10359     3624     678
     Max         459     229     73                10360     3625     679
     Sum         917     457    145                20719     7249    1357

     Using Slab Decomposition



     bravais-lattice index     =            0
     lattice parameter (alat)  =       5.9904  a.u.
     unit-cell volume          =     214.9683 (a.u.)^3
     number of atoms/cell      =            2
     number of atomic types    =            1
     number of electrons       =        28.00
     number of Kohn-Sham states=           18
     kinetic-energy cutoff     =      40.0000  Ry
     charge density cutoff     =     320.0000  Ry
     scf convergence threshold =      1.0E-06
     mixing beta               =       0.3000
     number of iterations used =            8  plain     mixing
     energy convergence thresh.=      1.0E-04
     force convergence thresh. =      1.0E-03
     Exchange-correlation= SLA  PW   PBX  PBC
                           (   1   4   3   4   0   0   0)
     nstep                     =          300


     celldm(1)=   5.990432  celldm(2)=   0.000000  celldm(3)=   0.000000
     celldm(4)=   0.000000  celldm(5)=   0.000000  celldm(6)=   0.000000

     crystal axes: (cart. coord. in units of alat)
               a(1) = (   1.000000   0.000000   0.000000 )  
               a(2) = (   0.000000   1.000000   0.000000 )  
               a(3) = (   0.000000   0.000000   1.000000 )  

     reciprocal axes: (cart. coord. in units 2 pi/alat)
               b(1) = (  1.000000  0.000000  0.000000 )  
               b(2) = (  0.000000  1.000000  0.000000 )  
               b(3) = (  0.000000  0.000000  1.000000 )  


     PseudoPot. # 1 for W  read from file:
     ./W.pbe-spn-kjpaw_psl.1.0.0.UPF
     MD5 check sum: 03c3df5b60893f488392c7401945500a
     Pseudo is Projector augmented-wave + core cor, Zval = 14.0
     Generated using &quot;atomic&quot; code by A. Dal Corso  v.6.2.2
     Shape of augmentation charge: PSQ
     Using radial grid of 1273 points,  6 beta functions with: 
                l(1) =   0
                l(2) =   0
                l(3) =   1
                l(4) =   1
                l(5) =   2
                l(6) =   2
     Q(r) pseudized with 0 coefficients 


     atomic species   valence    mass     pseudopotential
     W                14.00   183.84000     W ( 1.00)

      8 Sym. Ops. (no inversion) found



   Cartesian axes

     site n.     atom                  positions (alat units)
         1        W      tau(   1) = (   0.0000000   0.0000000   0.0000000  )
         2        W      tau(   2) = (   0.5157729   0.5000000   0.5000000  )

     number of k points=    18  Marzari-Vanderbilt smearing, width (Ry)=  0.0200
                       cart. coord. in units 2pi/alat
        k(    1) = (   0.0000000   0.0000000   0.0000000), wk =   0.0312500
        k(    2) = (   0.0000000   0.0000000   0.2500000), wk =   0.1250000
        k(    3) = (   0.0000000   0.0000000  -0.5000000), wk =   0.0625000
        k(    4) = (   0.0000000   0.2500000   0.2500000), wk =   0.1250000
        k(    5) = (   0.0000000   0.2500000  -0.5000000), wk =   0.1250000
        k(    6) = (   0.0000000  -0.5000000  -0.5000000), wk =   0.0312500
        k(    7) = (   0.2500000   0.2500000   0.2500000), wk =   0.2500000
        k(    8) = (   0.2500000   0.2500000  -0.5000000), wk =   0.2500000
        k(    9) = (   0.2500000  -0.5000000  -0.5000000), wk =   0.0625000
        k(   10) = (  -0.5000000  -0.5000000  -0.5000000), wk =   0.0312500
        k(   11) = (   0.2500000   0.0000000   0.0000000), wk =   0.0625000
        k(   12) = (  -0.5000000   0.0000000   0.0000000), wk =   0.0312500
        k(   13) = (   0.2500000  -0.2500000   0.0000000), wk =   0.2500000
        k(   14) = (  -0.5000000  -0.2500000   0.0000000), wk =   0.1250000
        k(   15) = (   0.2500000  -0.5000000   0.0000000), wk =   0.1250000
        k(   16) = (  -0.5000000   0.5000000   0.0000000), wk =   0.0625000
        k(   17) = (  -0.5000000  -0.2500000   0.2500000), wk =   0.1250000
        k(   18) = (  -0.5000000   0.5000000   0.2500000), wk =   0.1250000

     Dense  grid:    20719 G-vectors     FFT dimensions: (  36,  36,  36)

     Smooth grid:     7249 G-vectors     FFT dimensions: (  25,  25,  25)

     Estimated max dynamical RAM per process >      41.72 MB

     Estimated total dynamical RAM >      83.43 MB

     Initial potential from superposition of free atoms

     starting charge      27.9989, renormalised to      28.0000
     Starting wfcs are   26 randomized atomic wfcs
     Checking if some PAW data can be deallocated... 

     total cpu time spent up to now is        2.1 secs

     per-process dynamical memory:    18.7 Mb

     Self-consistent Calculation

     iteration #  1     ecut=    40.00 Ry     beta= 0.30
     Davidson diagonalization with overlap
     ethr =  1.00E-02,  avg # of iterations =  1.9
     Minimization algorithm failed to find Fermi energy: reverting to bisection
     Possible cause: smearing is larger than the electronic band-gap.

     Threshold (ethr) on eigenvalues was too large:
     Diagonalizing with lowered threshold

     Davidson diagonalization with overlap
     ethr =  2.16E-04,  avg # of iterations =  1.8

     total cpu time spent up to now is        3.6 secs

     total energy              =   -1520.51922236 Ry
     estimated scf accuracy    <       0.06708429 Ry

     iteration #  2     ecut=    40.00 Ry     beta= 0.30
     Davidson diagonalization with overlap
     ethr =  2.40E-04,  avg # of iterations =  1.0

     total cpu time spent up to now is        4.6 secs

     total energy              =   -1520.51233735 Ry
     estimated scf accuracy    <       0.02250511 Ry

     iteration #  3     ecut=    40.00 Ry     beta= 0.30
     Davidson diagonalization with overlap
     ethr =  8.04E-05,  avg # of iterations =  2.0

     total cpu time spent up to now is        5.7 secs

     total energy              =   -1520.51601394 Ry
     estimated scf accuracy    <       0.00119086 Ry

     iteration #  4     ecut=    40.00 Ry     beta= 0.30
     Davidson diagonalization with overlap
     ethr =  4.25E-06,  avg # of iterations =  2.0

     total cpu time spent up to now is        6.8 secs

     total energy              =   -1520.51615449 Ry
     estimated scf accuracy    <       0.00046682 Ry

     iteration #  5     ecut=    40.00 Ry     beta= 0.30
     Davidson diagonalization with overlap
     ethr =  1.67E-06,  avg # of iterations =  1.1

     total cpu time spent up to now is        7.9 secs

     total energy              =   -1520.51614649 Ry
     estimated scf accuracy    <       0.00008390 Ry

     iteration #  6     ecut=    40.00 Ry     beta= 0.30
     Davidson diagonalization with overlap
     ethr =  3.00E-07,  avg # of iterations =  2.0

     total cpu time spent up to now is        9.0 secs

     total energy              =   -1520.51615960 Ry
     estimated scf accuracy    <       0.00004715 Ry

     iteration #  7     ecut=    40.00 Ry     beta= 0.30
     Davidson diagonalization with overlap
     ethr =  1.68E-07,  avg # of iterations =  2.0

     total cpu time spent up to now is       10.2 secs

     total energy              =   -1520.51616902 Ry
     estimated scf accuracy    <       0.00000508 Ry

     iteration #  8     ecut=    40.00 Ry     beta= 0.30
     Davidson diagonalization with overlap
     ethr =  1.81E-08,  avg # of iterations =  2.0

     total cpu time spent up to now is       11.2 secs

     End of self-consistent calculation

          k = 0.0000 0.0000 0.0000 (   925 PWs)   bands (ev):

   -51.6014 -51.3703 -16.0635 -16.0635 -16.0623 -15.1749 -15.1675 -15.1675
    12.9073  16.7328  16.7467  21.3292  21.3498  21.3498  24.7638  24.8141
    27.6825  27.6931

          k = 0.0000 0.0000 0.2500 (   908 PWs)   bands (ev):

   -51.5635 -51.3999 -16.0508 -15.9319 -15.9290 -15.4206 -15.2986 -15.2947
    14.3316  17.5099  17.7083  21.2666  21.2979  22.0146  22.7901  24.4948
    24.5392  25.5146

          k = 0.0000 0.0000-0.5000 (   916 PWs)   bands (ev):

   -51.4786 -51.4769 -15.8667 -15.8654 -15.6091 -15.6075 -15.5999 -15.5986
    17.3225  17.3227  19.6958  19.6965  21.9834  21.9841  22.0567  22.0574
    23.9402  23.9412

          k = 0.0000 0.2500 0.2500 (   909 PWs)   bands (ev):

   -51.5354 -51.4196 -16.2575 -15.8691 -15.7917 -15.6381 -15.3784 -15.1706
    15.3200  17.7255  18.8632  20.0410  20.6535  21.8991  22.5934  24.1384
    24.1700  24.9833

          k = 0.0000 0.2500-0.5000 (   928 PWs)   bands (ev):

   -51.4742 -51.4725 -16.2282 -16.2280 -15.6011 -15.5996 -15.3128 -15.3126
    16.9334  16.9334  19.9944  19.9944  20.4927  20.4931  23.5502  23.5502
    26.3058  26.3065

          k = 0.0000-0.5000-0.5000 (   888 PWs)   bands (ev):

   -51.4695 -51.4678 -16.4454 -16.4454 -15.5881 -15.5866 -15.1740 -15.1740
    16.2981  16.2981  19.0231  19.0231  23.1721  23.1721  24.6853  24.6858
    25.6804  25.6814

          k = 0.2500 0.2500 0.2500 (   925 PWs)   bands (ev):

   -51.5146 -51.4318 -16.1002 -16.0998 -16.0131 -15.4215 -15.3286 -15.3251
    16.4794  19.0732  19.0771  19.1971  19.6377  19.6402  24.8273  24.8365
    25.3862  25.3998

          k = 0.2500 0.2500-0.5000 (   920 PWs)   bands (ev):

   -51.4697 -51.4680 -16.2188 -16.2186 -15.7131 -15.7116 -15.3024 -15.3022
    17.7083  17.7084  19.3045  19.3045  20.3324  20.3327  24.3646  24.3648
    25.6501  25.6510

          k = 0.2500-0.5000-0.5000 (   920 PWs)   bands (ev):

   -51.4653 -51.4636 -16.2639 -16.2639 -15.7032 -15.7017 -15.3579 -15.3579
    17.6990  17.6991  18.9758  18.9758  21.4627  21.4627  25.2062  25.2069
    25.7626  25.7637

          k =-0.5000-0.5000-0.5000 (   912 PWs)   bands (ev):

   -51.4609 -51.4592 -15.8874 -15.8874 -15.8159 -15.8144 -15.7367 -15.7367
    19.5193  19.5193  19.5929  19.5933  19.6689  19.6689  25.8454  25.8465
    25.8474  25.8485

          k = 0.2500 0.0000 0.0000 (   908 PWs)   bands (ev):

   -51.5642 -51.3992 -16.0490 -15.9313 -15.9313 -15.4294 -15.2922 -15.2922
    14.3306  17.5030  17.7164  21.2877  21.2877  21.9999  22.8719  24.4680
    24.4680  25.4373

          k =-0.5000 0.0000 0.0000 (   916 PWs)   bands (ev):

   -51.4929 -51.4625 -15.8712 -15.8432 -15.6635 -15.6635 -15.5528 -15.5528
    17.2508  17.3934  19.4692  19.9928  21.9879  21.9879  22.0418  22.0418
    23.6055  24.2031

          k = 0.2500-0.2500 0.0000 (   909 PWs)   bands (ev):

   -51.5359 -51.4191 -16.2570 -15.8419 -15.8304 -15.6243 -15.3778 -15.1741
    15.3205  17.7161  18.8673  20.0241  20.6871  21.8470  22.6332  24.0937
    24.2066  24.9853

          k =-0.5000-0.2500 0.0000 (   928 PWs)   bands (ev):

   -51.4841 -51.4625 -16.2378 -16.2168 -15.6355 -15.5571 -15.3358 -15.2990
    16.9284  16.9348  19.9340  20.0753  20.3694  20.5550  23.5466  23.6398
    26.1311  26.4894

          k = 0.2500-0.5000 0.0000 (   928 PWs)   bands (ev):

   -51.4742 -51.4725 -16.2280 -16.2278 -15.5972 -15.5956 -15.3169 -15.3167
    16.9313  16.9314  20.0017  20.0018  20.4570  20.4574  23.6004  23.6004
    26.3109  26.3118

          k =-0.5000 0.5000 0.0000 (   888 PWs)   bands (ev):

   -51.4695 -51.4678 -16.4443 -16.4443 -15.5851 -15.5836 -15.1779 -15.1779
    16.2930  16.2930  19.0098  19.0098  23.1580  23.1580  24.7204  24.7209
    25.6784  25.6794

          k =-0.5000-0.2500 0.2500 (   920 PWs)   bands (ev):

   -51.4765 -51.4612 -16.2248 -16.2082 -15.7763 -15.6452 -15.3155 -15.2966
    17.6775  17.7369  19.2800  19.3284  20.2254  20.4338  24.2435  24.5071
    25.5537  25.7486

          k =-0.5000 0.5000 0.2500 (   920 PWs)   bands (ev):

   -51.4653 -51.4636 -16.2629 -16.2629 -15.7021 -15.7006 -15.3598 -15.3598
    17.6937  17.6938  18.9695  18.9695  21.4656  21.4656  25.2230  25.2237
    25.7607  25.7618

     the Fermi energy is    22.2319 ev

!    total energy              =   -1520.51617112 Ry
     total all-electron energy =    -64571.748846 Ry
     estimated scf accuracy    <       0.00000038 Ry
     smearing contrib. (-TS)   =       0.00163820 Ry
     internal energy E=F+TS    =   -1520.51780932 Ry

     The total energy is F=E-TS. E is the sum of the following terms:
     one-electron contribution =     -22.72821100 Ry
     hartree contribution      =      31.58503304 Ry
     xc contribution           =     -80.14748257 Ry
     ewald contribution        =    -238.10894691 Ry
     one-center paw contrib.   =   -1211.11820188 Ry

     convergence has been achieved in   8 iterations

     Forces acting on atoms (cartesian axes, Ry/au):

     atom    1 type  1   force =     0.02758603    0.00000000    0.00000000
     atom    2 type  1   force =    -0.02758603    0.00000000    0.00000000

     Total force =     0.039013     Total SCF correction =     0.000377


     Computing stress (Cartesian axis) and pressure

          total   stress  (Ry/bohr**3)                   (kbar)     P=       -1.59
  -0.00004469   0.00000000   0.00000000           -6.57        0.00        0.00
   0.00000000   0.00000616   0.00000000            0.00        0.91        0.00
   0.00000000   0.00000000   0.00000616            0.00        0.00        0.91


     BFGS Geometry Optimization
     Energy error            =      1.5E-03 Ry
     Gradient error          =      2.8E-02 Ry/Bohr

     number of scf cycles    =   1
     number of bfgs steps    =   0

     energy             new  =   -1520.5161711209 Ry

     new trust radius        =       0.0275860261 bohr
     new conv_thr            =       0.0000010000 Ry


ATOMIC_POSITIONS (crystal)
W                0.0046050146        0.0000000000        0.0000000000
W                0.5111678561        0.5000000000        0.5000000000



     Writing config-only to output data dir ./tmp/rel.save/ :
     XML data file
     NEW-OLD atomic charge density approx. for the potential

     total cpu time spent up to now is       13.4 secs

     per-process dynamical memory:    50.5 Mb

     Self-consistent Calculation

     iteration #  1     ecut=    40.00 Ry     beta= 0.30
     Davidson diagonalization with overlap
     ethr =  1.00E-06,  avg # of iterations =  7.3

     negative rho (up, down):  8.245E-02 0.000E+00

     total cpu time spent up to now is       15.1 secs

     total energy              =   -1520.50122740 Ry
     estimated scf accuracy    <       0.91853998 Ry

     iteration #  2     ecut=    40.00 Ry     beta= 0.30
     Davidson diagonalization with overlap
     ethr =  3.28E-03,  avg # of iterations =  1.0

     negative rho (up, down):  1.903E-01 0.000E+00

     total cpu time spent up to now is       16.1 secs

     total energy              =   -1520.48975662 Ry
     estimated scf accuracy    <       0.11025529 Ry

     iteration #  3     ecut=    40.00 Ry     beta= 0.30
     Davidson diagonalization with overlap
     ethr =  3.94E-04,  avg # of iterations =  2.0
     Minimization algorithm failed to find Fermi energy: reverting to bisection
     Possible cause: smearing is larger than the electronic band-gap.

     negative rho (up, down):  1.542E-01 0.000E+00

     total cpu time spent up to now is       17.2 secs

     total energy              =   -1520.50308901 Ry
     estimated scf accuracy    <       0.01467310 Ry

     iteration #  4     ecut=    40.00 Ry     beta= 0.30
     Davidson diagonalization with overlap
     ethr =  5.24E-05,  avg # of iterations =  1.0

     negative rho (up, down):  1.209E-01 0.000E+00

     total cpu time spent up to now is       18.3 secs

     total energy              =   -1520.50653456 Ry
     estimated scf accuracy    <       0.01285850 Ry

     iteration #  5     ecut=    40.00 Ry     beta= 0.30
     Davidson diagonalization with overlap
     ethr =  4.59E-05,  avg # of iterations =  1.1

     negative rho (up, down):  9.138E-02 0.000E+00

     total cpu time spent up to now is       19.3 secs

     total energy              =   -1520.50912885 Ry
     estimated scf accuracy    <       0.01045583 Ry

     iteration #  6     ecut=    40.00 Ry     beta= 0.30
     Davidson diagonalization with overlap
     ethr =  3.73E-05,  avg # of iterations =  1.0

     negative rho (up, down):  7.044E-02 0.000E+00

     total cpu time spent up to now is       20.3 secs

     total energy              =   -1520.51086183 Ry
     estimated scf accuracy    <       0.00744028 Ry

     iteration #  7     ecut=    40.00 Ry     beta= 0.30
     Davidson diagonalization with overlap
     ethr =  2.66E-05,  avg # of iterations =  1.0

     negative rho (up, down):  3.484E-02 0.000E+00

     total cpu time spent up to now is       21.4 secs

     total energy              =   -1520.51346932 Ry
     estimated scf accuracy    <       0.00619705 Ry

     iteration #  8     ecut=    40.00 Ry     beta= 0.30
     Davidson diagonalization with overlap
     ethr =  2.21E-05,  avg # of iterations =  1.6

     negative rho (up, down):  1.511E-02 0.000E+00

     total cpu time spent up to now is       22.4 secs

     total energy              =   -1520.51504992 Ry
     estimated scf accuracy    <       0.00308704 Ry

     iteration #  9     ecut=    40.00 Ry     beta= 0.30
     Davidson diagonalization with overlap
     ethr =  1.10E-05,  avg # of iterations =  2.0
     Minimization algorithm failed to find Fermi energy: reverting to bisection
     Possible cause: smearing is larger than the electronic band-gap.

     total cpu time spent up to now is       23.5 secs

     total energy              =   -1520.51622593 Ry
     estimated scf accuracy    <       0.00178552 Ry

     iteration # 10     ecut=    40.00 Ry     beta= 0.30
     Davidson diagonalization with overlap
     ethr =  6.38E-06,  avg # of iterations =  2.0

     total cpu time spent up to now is       24.6 secs

     total energy              =   -1520.51676013 Ry
     estimated scf accuracy    <       0.00024135 Ry

     iteration # 11     ecut=    40.00 Ry     beta= 0.30
     Davidson diagonalization with overlap
     ethr =  8.62E-07,  avg # of iterations =  2.8

     total cpu time spent up to now is       25.8 secs

     total energy              =   -1520.51710042 Ry
     estimated scf accuracy    <       0.00002344 Ry

     iteration # 12     ecut=    40.00 Ry     beta= 0.30
     Davidson diagonalization with overlap
     ethr =  8.37E-08,  avg # of iterations =  2.0

     total cpu time spent up to now is       26.9 secs

     total energy              =   -1520.51717783 Ry
     estimated scf accuracy    <       0.00003715 Ry

     iteration # 13     ecut=    40.00 Ry     beta= 0.30
     Davidson diagonalization with overlap
     ethr =  8.37E-08,  avg # of iterations =  2.1

     total cpu time spent up to now is       28.0 secs

     total energy              =   -1520.51723614 Ry
     estimated scf accuracy    <       0.00000779 Ry

     iteration # 14     ecut=    40.00 Ry     beta= 0.30
     Davidson diagonalization with overlap
     ethr =  2.78E-08,  avg # of iterations =  2.1

     total cpu time spent up to now is       29.1 secs

     total energy              =   -1520.51725379 Ry
     estimated scf accuracy    <       0.00004235 Ry

     iteration # 15     ecut=    40.00 Ry     beta= 0.30
     Davidson diagonalization with overlap
     ethr =  2.78E-08,  avg # of iterations =  2.6

     total cpu time spent up to now is       30.2 secs

     total energy              =   -1520.51724176 Ry
     estimated scf accuracy    <       0.00008560 Ry

     iteration # 16     ecut=    40.00 Ry     beta= 0.30
     Davidson diagonalization with overlap
     ethr =  2.78E-08,  avg # of iterations =  2.0

     total cpu time spent up to now is       31.3 secs

     total energy              =   -1520.51720536 Ry
     estimated scf accuracy    <       0.00010637 Ry

     iteration # 17     ecut=    40.00 Ry     beta= 0.30
     Davidson diagonalization with overlap
     ethr =  2.78E-08,  avg # of iterations =  2.0

     total cpu time spent up to now is       32.4 secs

     total energy              =   -1520.51717645 Ry
     estimated scf accuracy    <       0.00015153 Ry

     iteration # 18     ecut=    40.00 Ry     beta= 0.30
     Davidson diagonalization with overlap
     ethr =  2.78E-08,  avg # of iterations =  1.9

     total cpu time spent up to now is       33.5 secs

     total energy              =   -1520.51712416 Ry
     estimated scf accuracy    <       0.00009109 Ry

     iteration # 19     ecut=    40.00 Ry     beta= 0.30
     Davidson diagonalization with overlap
     ethr =  2.78E-08,  avg # of iterations =  2.0

     total cpu time spent up to now is       34.6 secs

     total energy              =   -1520.51712968 Ry
     estimated scf accuracy    <       0.00008988 Ry

     iteration # 20     ecut=    40.00 Ry     beta= 0.30
     Davidson diagonalization with overlap
     ethr =  2.78E-08,  avg # of iterations =  1.0

     total cpu time spent up to now is       35.5 secs

     total energy              =   -1520.51717550 Ry
     estimated scf accuracy    <       0.00005806 Ry

     iteration # 21     ecut=    40.00 Ry     beta= 0.30
     Davidson diagonalization with overlap
     ethr =  2.78E-08,  avg # of iterations =  2.0

     total cpu time spent up to now is       36.6 secs

     total energy              =   -1520.51718019 Ry
     estimated scf accuracy    <       0.00001892 Ry

     iteration # 22     ecut=    40.00 Ry     beta= 0.30
     Davidson diagonalization with overlap
     ethr =  2.78E-08,  avg # of iterations =  1.0

     total cpu time spent up to now is       37.6 secs

     total energy              =   -1520.51724928 Ry
     estimated scf accuracy    <       0.00001505 Ry

     iteration # 23     ecut=    40.00 Ry     beta= 0.30
     Davidson diagonalization with overlap
     ethr =  2.78E-08,  avg # of iterations =  2.0

     total cpu time spent up to now is       38.7 secs

     End of self-consistent calculation

          k = 0.0000 0.0000 0.0000 (   925 PWs)   bands (ev):

   -51.6031 -51.3734 -16.0633 -16.0633 -16.0631 -15.1736 -15.1723 -15.1723
    12.9062  16.7388  16.7412  21.3393  21.3428  21.3428  24.7962  24.8051
    27.7023  27.7041

          k = 0.0000 0.0000 0.2500 (   908 PWs)   bands (ev):

   -51.5654 -51.4029 -16.0496 -15.9300 -15.9294 -15.4270 -15.2994 -15.2987
    14.3303  17.5134  17.7103  21.2792  21.2846  22.0177  22.8446  24.4782
    24.4864  25.5076

          k = 0.0000 0.0000-0.5000 (   916 PWs)   bands (ev):

   -51.4802 -51.4801 -15.8586 -15.8586 -15.6105 -15.6105 -15.6089 -15.6088
    17.3214  17.3214  19.7230  19.7231  22.0088  22.0088  22.0217  22.0218
    23.9092  23.9093

          k = 0.0000 0.2500 0.2500 (   909 PWs)   bands (ev):

   -51.5375 -51.4224 -16.2569 -15.8477 -15.8153 -15.6357 -15.3828 -15.1757
    15.3192  17.7226  18.8678  20.0306  20.6843  21.8658  22.6335  24.0898
    24.1775  24.9859

          k = 0.0000 0.2500-0.5000 (   928 PWs)   bands (ev):

   -51.4758 -51.4757 -16.2270 -16.2269 -15.5993 -15.5993 -15.3191 -15.3191
    16.9328  16.9328  20.0043  20.0043  20.4720  20.4720  23.5757  23.5757
    26.3094  26.3094

          k = 0.0000-0.5000-0.5000 (   888 PWs)   bands (ev):

   -51.4711 -51.4710 -16.4444 -16.4444 -15.5871 -15.5870 -15.1794 -15.1794
    16.2942  16.2942  19.0135  19.0135  23.1706  23.1706  24.6982  24.6982
    25.6809  25.6810

          k = 0.2500 0.2500 0.2500 (   925 PWs)   bands (ev):

   -51.5165 -51.4348 -16.0978 -16.0977 -16.0150 -15.4223 -15.3323 -15.3316
    16.4791  19.0784  19.0791  19.2062  19.6308  19.6313  24.8562  24.8578
    25.3757  25.3781

          k = 0.2500 0.2500-0.5000 (   920 PWs)   bands (ev):

   -51.4714 -51.4713 -16.2169 -16.2169 -15.7133 -15.7133 -15.3074 -15.3074
    17.7080  17.7080  19.3052  19.3052  20.3293  20.3293  24.3704  24.3704
    25.6497  25.6497

          k = 0.2500-0.5000-0.5000 (   920 PWs)   bands (ev):

   -51.4669 -51.4669 -16.2613 -16.2613 -15.7022 -15.7021 -15.3650 -15.3650
    17.6957  17.6957  18.9698  18.9698  21.4634  21.4634  25.2185  25.2186
    25.7632  25.7633

          k =-0.5000-0.5000-0.5000 (   912 PWs)   bands (ev):

   -51.4625 -51.4625 -15.8456 -15.8456 -15.8149 -15.8149 -15.7830 -15.7830
    19.5619  19.5619  19.5919  19.5919  19.6222  19.6222  25.8477  25.8478
    25.8481  25.8481

          k = 0.2500 0.0000 0.0000 (   908 PWs)   bands (ev):

   -51.5656 -51.4027 -16.0493 -15.9299 -15.9299 -15.4286 -15.2983 -15.2983
    14.3301  17.5122  17.7118  21.2828  21.2828  22.0152  22.8592  24.4735
    24.4735  25.4936

          k =-0.5000 0.0000 0.0000 (   916 PWs)   bands (ev):

   -51.4865 -51.4739 -15.8629 -15.8512 -15.6334 -15.6334 -15.5875 -15.5875
    17.2903  17.3524  19.6201  19.8383  22.0038  22.0038  22.0248  22.0248
    23.7784  24.0272

          k = 0.2500-0.2500 0.0000 (   909 PWs)   bands (ev):

   -51.5375 -51.4223 -16.2568 -15.8351 -15.8300 -15.6332 -15.3826 -15.1764
    15.3193  17.7209  18.8686  20.0277  20.6904  21.8565  22.6407  24.0817
    24.1840  24.9862

          k =-0.5000-0.2500 0.0000 (   928 PWs)   bands (ev):

   -51.4803 -51.4713 -16.2312 -16.2225 -15.6148 -15.5823 -15.3276 -15.3124
    16.9317  16.9331  19.9772  20.0354  20.4281  20.5049  23.5638  23.6027
    26.2346  26.3857

          k = 0.2500-0.5000 0.0000 (   928 PWs)   bands (ev):

   -51.4758 -51.4757 -16.2269 -16.2269 -15.5986 -15.5986 -15.3199 -15.3199
    16.9323  16.9324  20.0058  20.0058  20.4656  20.4656  23.5845  23.5845
    26.3103  26.3104

          k =-0.5000 0.5000 0.0000 (   888 PWs)   bands (ev):

   -51.4711 -51.4710 -16.4442 -16.4442 -15.5865 -15.5865 -15.1801 -15.1801
    16.2933  16.2933  19.0112  19.0112  23.1681  23.1681  24.7043  24.7043
    25.6806  25.6806

          k =-0.5000-0.2500 0.2500 (   920 PWs)   bands (ev):

   -51.4745 -51.4682 -16.2200 -16.2131 -15.7402 -15.6858 -15.3120 -15.3041
    17.6960  17.7194  19.2944  19.3159  20.2850  20.3726  24.3171  24.4273
    25.6089  25.6906

          k =-0.5000 0.5000 0.2500 (   920 PWs)   bands (ev):

   -51.4669 -51.4669 -16.2611 -16.2611 -15.7020 -15.7019 -15.3654 -15.3654
    17.6947  17.6947  18.9687  18.9687  21.4639  21.4639  25.2215  25.2215
    25.7629  25.7629

     the Fermi energy is    22.2291 ev

!    total energy              =   -1520.51726584 Ry
     total all-electron energy =    -64571.749941 Ry
     estimated scf accuracy    <       0.00000029 Ry
     smearing contrib. (-TS)   =       0.00165139 Ry
     internal energy E=F+TS    =   -1520.51891723 Ry

     The total energy is F=E-TS. E is the sum of the following terms:
     one-electron contribution =     -22.67532642 Ry
     hartree contribution      =      31.55743648 Ry
     xc contribution           =     -80.14589361 Ry
     ewald contribution        =    -238.13711589 Ry
     one-center paw contrib.   =   -1211.11801778 Ry

     convergence has been achieved in  23 iterations

     Forces acting on atoms (cartesian axes, Ry/au):

     atom    1 type  1   force =     0.01047294    0.00000000    0.00000000
     atom    2 type  1   force =    -0.01047294    0.00000000    0.00000000

     Total force =     0.014811     Total SCF correction =     0.001289


     Computing stress (Cartesian axis) and pressure

          total   stress  (Ry/bohr**3)                   (kbar)     P=       -3.22
  -0.00002728   0.00000000   0.00000000           -4.01        0.00        0.00
   0.00000000  -0.00001922   0.00000000            0.00       -2.83        0.00
   0.00000000   0.00000000  -0.00001922            0.00        0.00       -2.83

     Energy error            =      1.1E-03 Ry
     Gradient error          =      1.0E-02 Ry/Bohr

     number of scf cycles    =   2
     number of bfgs steps    =   1

     energy             old  =   -1520.5161711209 Ry
     energy             new  =   -1520.5172658396 Ry

     CASE: energy            _new < energy            _old

     new trust radius        =       0.0168822065 bohr
     new conv_thr            =       0.0000001047 Ry


ATOMIC_POSITIONS (crystal)
W                0.0074232099        0.0000000000        0.0000000000
W                0.5083496608        0.5000000000        0.5000000000



     Writing config-only to output data dir ./tmp/rel.save/ :
     XML data file
     NEW-OLD atomic charge density approx. for the potential

     total cpu time spent up to now is       40.7 secs

     per-process dynamical memory:    51.4 Mb

     Self-consistent Calculation

     iteration #  1     ecut=    40.00 Ry     beta= 0.30
     Davidson diagonalization with overlap
     ethr =  1.00E-06,  avg # of iterations =  5.8

     negative rho (up, down):  2.214E-02 0.000E+00

     total cpu time spent up to now is       42.2 secs

     total energy              =   -1520.51332392 Ry
     estimated scf accuracy    <       0.29218495 Ry

     iteration #  2     ecut=    40.00 Ry     beta= 0.30
     Davidson diagonalization with overlap
     ethr =  1.04E-03,  avg # of iterations =  1.0

     negative rho (up, down):  7.542E-02 0.000E+00

     total cpu time spent up to now is       43.2 secs

     total energy              =   -1520.50748284 Ry
     estimated scf accuracy    <       0.04323044 Ry

     iteration #  3     ecut=    40.00 Ry     beta= 0.30
     Davidson diagonalization with overlap
     ethr =  1.54E-04,  avg # of iterations =  2.0

     negative rho (up, down):  5.484E-02 0.000E+00

     total cpu time spent up to now is       44.2 secs

     total energy              =   -1520.51257062 Ry
     estimated scf accuracy    <       0.00550144 Ry

     iteration #  4     ecut=    40.00 Ry     beta= 0.30
     Davidson diagonalization with overlap
     ethr =  1.96E-05,  avg # of iterations =  1.0

     negative rho (up, down):  3.936E-02 0.000E+00

     total cpu time spent up to now is       45.1 secs

     total energy              =   -1520.51376724 Ry
     estimated scf accuracy    <       0.00392224 Ry

     iteration #  5     ecut=    40.00 Ry     beta= 0.30
     Davidson diagonalization with overlap
     ethr =  1.40E-05,  avg # of iterations =  1.0

     negative rho (up, down):  1.916E-02 0.000E+00

     total cpu time spent up to now is       46.1 secs

     total energy              =   -1520.51524003 Ry
     estimated scf accuracy    <       0.00322142 Ry

     iteration #  6     ecut=    40.00 Ry     beta= 0.30
     Davidson diagonalization with overlap
     ethr =  1.15E-05,  avg # of iterations =  1.6

     negative rho (up, down):  1.945E-02 0.000E+00

     total cpu time spent up to now is       47.1 secs

     total energy              =   -1520.51537143 Ry
     estimated scf accuracy    <       0.00149897 Ry

     iteration #  7     ecut=    40.00 Ry     beta= 0.30
     Davidson diagonalization with overlap
     ethr =  5.35E-06,  avg # of iterations =  1.0

     negative rho (up, down):  1.327E-02 0.000E+00

     total cpu time spent up to now is       48.1 secs

     total energy              =   -1520.51578571 Ry
     estimated scf accuracy    <       0.00164695 Ry

     iteration #  8     ecut=    40.00 Ry     beta= 0.30
     Davidson diagonalization with overlap
     ethr =  5.35E-06,  avg # of iterations =  1.0

     negative rho (up, down):  9.009E-03 0.000E+00

     total cpu time spent up to now is       49.0 secs

     total energy              =   -1520.51604843 Ry
     estimated scf accuracy    <       0.00119485 Ry

     iteration #  9     ecut=    40.00 Ry     beta= 0.30
     Davidson diagonalization with overlap
     ethr =  4.27E-06,  avg # of iterations =  1.0

     negative rho (up, down):  7.553E-04 0.000E+00

     total cpu time spent up to now is       50.0 secs

     total energy              =   -1520.51661480 Ry
     estimated scf accuracy    <       0.00075805 Ry

     iteration # 10     ecut=    40.00 Ry     beta= 0.30
     Davidson diagonalization with overlap
     ethr =  2.71E-06,  avg # of iterations =  2.0

     negative rho (up, down):  6.119E-04 0.000E+00

     total cpu time spent up to now is       51.1 secs

     total energy              =   -1520.51670742 Ry
     estimated scf accuracy    <       0.00014374 Ry

     iteration # 11     ecut=    40.00 Ry     beta= 0.30
     Davidson diagonalization with overlap
     ethr =  5.13E-07,  avg # of iterations =  1.0

     total cpu time spent up to now is       52.1 secs

     total energy              =   -1520.51692019 Ry
     estimated scf accuracy    <       0.00015614 Ry

     iteration # 12     ecut=    40.00 Ry     beta= 0.30
     Davidson diagonalization with overlap
     ethr =  5.13E-07,  avg # of iterations =  2.9

     total cpu time spent up to now is       53.2 secs

     total energy              =   -1520.51706143 Ry
     estimated scf accuracy    <       0.00023732 Ry

     iteration # 13     ecut=    40.00 Ry     beta= 0.30
     Davidson diagonalization with overlap
     ethr =  5.13E-07,  avg # of iterations =  1.0

     total cpu time spent up to now is       54.3 secs

     total energy              =   -1520.51720939 Ry
     estimated scf accuracy    <       0.00022021 Ry

     iteration # 14     ecut=    40.00 Ry     beta= 0.30
     Davidson diagonalization with overlap
     ethr =  5.13E-07,  avg # of iterations =  2.0

     total cpu time spent up to now is       55.3 secs

     total energy              =   -1520.51729631 Ry
     estimated scf accuracy    <       0.00004722 Ry

     iteration # 15     ecut=    40.00 Ry     beta= 0.30
     Davidson diagonalization with overlap
     ethr =  1.69E-07,  avg # of iterations =  2.1

     total cpu time spent up to now is       56.4 secs

     total energy              =   -1520.51741498 Ry
     estimated scf accuracy    <       0.00004204 Ry

     iteration # 16     ecut=    40.00 Ry     beta= 0.30
     Davidson diagonalization with overlap
     ethr =  1.50E-07,  avg # of iterations =  2.1

     total cpu time spent up to now is       57.4 secs

     total energy              =   -1520.51743677 Ry
     estimated scf accuracy    <       0.00011752 Ry

     iteration # 17     ecut=    40.00 Ry     beta= 0.30
     Davidson diagonalization with overlap
     ethr =  1.50E-07,  avg # of iterations =  1.5

     total cpu time spent up to now is       58.5 secs

     total energy              =   -1520.51740454 Ry
     estimated scf accuracy    <       0.00025709 Ry

     iteration # 18     ecut=    40.00 Ry     beta= 0.30
     Davidson diagonalization with overlap
     ethr =  1.50E-07,  avg # of iterations =  3.0

     total cpu time spent up to now is       59.6 secs

     total energy              =   -1520.51741609 Ry
     estimated scf accuracy    <       0.00000931 Ry

     iteration # 19     ecut=    40.00 Ry     beta= 0.30
     Davidson diagonalization with overlap
     ethr =  3.33E-08,  avg # of iterations =  2.0

     total cpu time spent up to now is       60.7 secs

     total energy              =   -1520.51740675 Ry
     estimated scf accuracy    <       0.00022538 Ry

     iteration # 20     ecut=    40.00 Ry     beta= 0.30
     Davidson diagonalization with overlap
     ethr =  3.33E-08,  avg # of iterations =  3.6

     total cpu time spent up to now is       61.8 secs

     total energy              =   -1520.51747327 Ry
     estimated scf accuracy    <       0.00007155 Ry

     iteration # 21     ecut=    40.00 Ry     beta= 0.30
     Davidson diagonalization with overlap
     ethr =  3.33E-08,  avg # of iterations =  2.8

     total cpu time spent up to now is       63.0 secs

     total energy              =   -1520.51746878 Ry
     estimated scf accuracy    <       0.00000087 Ry

     iteration # 22     ecut=    40.00 Ry     beta= 0.30
     Davidson diagonalization with overlap
     ethr =  3.12E-09,  avg # of iterations =  3.9

     total cpu time spent up to now is       64.3 secs

     total energy              =   -1520.51748895 Ry
     estimated scf accuracy    <       0.00000313 Ry

     iteration # 23     ecut=    40.00 Ry     beta= 0.30
     Davidson diagonalization with overlap
     ethr =  3.12E-09,  avg # of iterations =  3.3

     total cpu time spent up to now is       65.4 secs

     total energy              =   -1520.51749417 Ry
     estimated scf accuracy    <       0.00000037 Ry

     iteration # 24     ecut=    40.00 Ry     beta= 0.30
     Davidson diagonalization with overlap
     ethr =  1.33E-09,  avg # of iterations =  2.2

     total cpu time spent up to now is       66.5 secs

     End of self-consistent calculation

          k = 0.0000 0.0000 0.0000 (   925 PWs)   bands (ev):

   -51.6032 -51.3738 -16.0631 -16.0631 -16.0631 -15.1731 -15.1731 -15.1731
    12.9059  16.7400  16.7401  21.3414  21.3415  21.3415  24.8032  24.8034
    27.7064  27.7065

          k = 0.0000 0.0000 0.2500 (   908 PWs)   bands (ev):

   -51.5656 -51.4032 -16.0492 -15.9294 -15.9294 -15.4282 -15.2994 -15.2993
    14.3299  17.5141  17.7108  21.2818  21.2820  22.0185  22.8564  24.4749
    24.4750  25.5062

          k = 0.0000 0.0000-0.5000 (   916 PWs)   bands (ev):

   -51.4804 -51.4804 -15.8568 -15.8568 -15.6108 -15.6107 -15.6107 -15.6107
    17.3212  17.3212  19.7288  19.7288  22.0141  22.0141  22.0144  22.0144
    23.9027  23.9027

          k = 0.0000 0.2500 0.2500 (   909 PWs)   bands (ev):

   -51.5376 -51.4227 -16.2566 -15.8345 -15.8286 -15.6349 -15.3835 -15.1766
    15.3190  17.7220  18.8688  20.0285  20.6910  21.8587  22.6423  24.0795
    24.1792  24.9865

          k = 0.0000 0.2500-0.5000 (   928 PWs)   bands (ev):

   -51.4760 -51.4760 -16.2265 -16.2265 -15.5989 -15.5989 -15.3203 -15.3203
    16.9326  16.9326  20.0067  20.0067  20.4675  20.4675  23.5811  23.5811
    26.3102  26.3102

          k = 0.0000-0.5000-0.5000 (   888 PWs)   bands (ev):

   -51.4713 -51.4713 -16.4440 -16.4440 -15.5868 -15.5868 -15.1803 -15.1803
    16.2934  16.2934  19.0116  19.0116  23.1702  23.1702  24.7009  24.7009
    25.6811  25.6811

          k = 0.2500 0.2500 0.2500 (   925 PWs)   bands (ev):

   -51.5167 -51.4352 -16.0971 -16.0971 -16.0152 -15.4222 -15.3328 -15.3328
    16.4790  19.0795  19.0795  19.2081  19.6294  19.6294  24.8625  24.8625
    25.3735  25.3735

          k = 0.2500 0.2500-0.5000 (   920 PWs)   bands (ev):

   -51.4716 -51.4716 -16.2164 -16.2164 -15.7133 -15.7133 -15.3082 -15.3082
    17.7079  17.7079  19.3054  19.3054  20.3287  20.3287  24.3717  24.3717
    25.6496  25.6496

          k = 0.2500-0.5000-0.5000 (   920 PWs)   bands (ev):

   -51.4672 -51.4671 -16.2605 -16.2605 -15.7019 -15.7019 -15.3663 -15.3663
    17.6950  17.6950  18.9686  18.9686  21.4636  21.4636  25.2211  25.2211
    25.7634  25.7634

          k =-0.5000-0.5000-0.5000 (   912 PWs)   bands (ev):

   -51.4628 -51.4628 -15.8190 -15.8190 -15.8146 -15.8146 -15.8102 -15.8102
    19.5873  19.5873  19.5917  19.5917  19.5961  19.5961  25.8482  25.8482
    25.8482  25.8483

          k = 0.2500 0.0000 0.0000 (   908 PWs)   bands (ev):

   -51.5656 -51.4032 -16.0492 -15.9294 -15.9294 -15.4282 -15.2993 -15.2993
    14.3299  17.5141  17.7108  21.2819  21.2819  22.0184  22.8567  24.4748
    24.4748  25.5059

          k =-0.5000 0.0000 0.0000 (   916 PWs)   bands (ev):

   -51.4813 -51.4795 -15.8576 -15.8559 -15.6140 -15.6140 -15.6075 -15.6075
    17.3171  17.3253  19.7134  19.7443  22.0127  22.0127  22.0158  22.0158
    23.8850  23.9202

          k = 0.2500-0.2500 0.0000 (   909 PWs)   bands (ev):

   -51.5376 -51.4227 -16.2566 -15.8334 -15.8297 -15.6349 -15.3835 -15.1766
    15.3190  17.7220  18.8688  20.0284  20.6911  21.8585  22.6424  24.0793
    24.1793  24.9865

          k =-0.5000-0.2500 0.0000 (   928 PWs)   bands (ev):

   -51.4767 -51.4754 -16.2272 -16.2259 -15.6011 -15.5965 -15.3214 -15.3192
    16.9324  16.9328  20.0026  20.0109  20.4618  20.4729  23.5784  23.5841
    26.2998  26.3206

          k = 0.2500-0.5000 0.0000 (   928 PWs)   bands (ev):

   -51.4760 -51.4760 -16.2265 -16.2265 -15.5988 -15.5988 -15.3203 -15.3203
    16.9326  16.9326  20.0067  20.0067  20.4673  20.4673  23.5813  23.5813
    26.3102  26.3102

          k =-0.5000 0.5000 0.0000 (   888 PWs)   bands (ev):

   -51.4713 -51.4713 -16.4440 -16.4440 -15.5868 -15.5868 -15.1804 -15.1804
    16.2934  16.2934  19.0116  19.0116  23.1702  23.1702  24.7010  24.7010
    25.6811  25.6811

          k =-0.5000-0.2500 0.2500 (   920 PWs)   bands (ev):

   -51.4720 -51.4711 -16.2169 -16.2159 -15.7171 -15.7094 -15.3088 -15.3077
    17.7061  17.7096  19.3040  19.3069  20.3226  20.3347  24.3639  24.3795
    25.6439  25.6553

          k =-0.5000 0.5000 0.2500 (   920 PWs)   bands (ev):

   -51.4672 -51.4671 -16.2605 -16.2605 -15.7019 -15.7019 -15.3663 -15.3663
    17.6950  17.6950  18.9686  18.9686  21.4636  21.4636  25.2212  25.2212
    25.7633  25.7634

     the Fermi energy is    22.2291 ev

!    total energy              =   -1520.51749484 Ry
     total all-electron energy =    -64571.750170 Ry
     estimated scf accuracy    <       0.00000009 Ry
     smearing contrib. (-TS)   =       0.00165509 Ry
     internal energy E=F+TS    =   -1520.51914994 Ry

     The total energy is F=E-TS. E is the sum of the following terms:
     one-electron contribution =     -22.66429271 Ry
     hartree contribution      =      31.55147304 Ry
     xc contribution           =     -80.14547773 Ry
     ewald contribution        =    -238.14290047 Ry
     one-center paw contrib.   =   -1211.11795207 Ry

     convergence has been achieved in  24 iterations

     Forces acting on atoms (cartesian axes, Ry/au):

     atom    1 type  1   force =     0.00178312    0.00000000    0.00000000
     atom    2 type  1   force =    -0.00178312    0.00000000    0.00000000

     Total force =     0.002522     Total SCF correction =     0.000387
     SCF correction compared to forces is large: reduce conv_thr to get better values


     Computing stress (Cartesian axis) and pressure

          total   stress  (Ry/bohr**3)                   (kbar)     P=       -3.72
  -0.00002548   0.00000000   0.00000000           -3.75        0.00        0.00
   0.00000000  -0.00002521   0.00000000            0.00       -3.71        0.00
   0.00000000   0.00000000  -0.00002521            0.00        0.00       -3.71

     Energy error            =      2.3E-04 Ry
     Gradient error          =      1.8E-03 Ry/Bohr

     number of scf cycles    =   3
     number of bfgs steps    =   2

     energy             old  =   -1520.5172658396 Ry
     energy             new  =   -1520.5174948404 Ry

     CASE: energy            _new < energy            _old

     new trust radius        =       0.0034641587 bohr
     new conv_thr            =       0.0000000178 Ry


ATOMIC_POSITIONS (crystal)
W                0.0080014918        0.0000000000        0.0000000000
W                0.5077713789        0.5000000000        0.5000000000



     Writing config-only to output data dir ./tmp/rel.save/ :
     XML data file
     NEW-OLD atomic charge density approx. for the potential

     total cpu time spent up to now is       68.6 secs

     per-process dynamical memory:    51.4 Mb

     Self-consistent Calculation

     iteration #  1     ecut=    40.00 Ry     beta= 0.30
     Davidson diagonalization with overlap
     ethr =  1.00E-06,  avg # of iterations =  3.1
     Minimization algorithm failed to find Fermi energy: reverting to bisection
     Possible cause: smearing is larger than the electronic band-gap.

     total cpu time spent up to now is       69.7 secs

     total energy              =   -1520.51736780 Ry
     estimated scf accuracy    <       0.01115964 Ry

     iteration #  2     ecut=    40.00 Ry     beta= 0.30
     Davidson diagonalization with overlap
     ethr =  3.99E-05,  avg # of iterations =  1.0

     total cpu time spent up to now is       70.7 secs

     total energy              =   -1520.51707935 Ry
     estimated scf accuracy    <       0.00189467 Ry

     iteration #  3     ecut=    40.00 Ry     beta= 0.30
     Davidson diagonalization with overlap
     ethr =  6.77E-06,  avg # of iterations =  2.0

     total cpu time spent up to now is       71.7 secs

     total energy              =   -1520.51729732 Ry
     estimated scf accuracy    <       0.00025521 Ry

     iteration #  4     ecut=    40.00 Ry     beta= 0.30
     Davidson diagonalization with overlap
     ethr =  9.11E-07,  avg # of iterations =  1.0

     total cpu time spent up to now is       72.7 secs

     total energy              =   -1520.51734388 Ry
     estimated scf accuracy    <       0.00014775 Ry

     iteration #  5     ecut=    40.00 Ry     beta= 0.30
     Davidson diagonalization with overlap
     ethr =  5.28E-07,  avg # of iterations =  1.0
     Minimization algorithm failed to find Fermi energy: reverting to bisection
     Possible cause: smearing is larger than the electronic band-gap.

     total cpu time spent up to now is       73.7 secs

     total energy              =   -1520.51739351 Ry
     estimated scf accuracy    <       0.00012651 Ry

     iteration #  6     ecut=    40.00 Ry     beta= 0.30
     Davidson diagonalization with overlap
     ethr =  4.52E-07,  avg # of iterations =  1.1

     total cpu time spent up to now is       74.7 secs

     total energy              =   -1520.51739929 Ry
     estimated scf accuracy    <       0.00006970 Ry

     iteration #  7     ecut=    40.00 Ry     beta= 0.30
     Davidson diagonalization with overlap
     ethr =  2.49E-07,  avg # of iterations =  1.0

     total cpu time spent up to now is       75.6 secs

     total energy              =   -1520.51743762 Ry
     estimated scf accuracy    <       0.00007314 Ry

     iteration #  8     ecut=    40.00 Ry     beta= 0.30
     Davidson diagonalization with overlap
     ethr =  2.49E-07,  avg # of iterations =  2.0

     total cpu time spent up to now is       76.7 secs

     total energy              =   -1520.51746345 Ry
     estimated scf accuracy    <       0.00003954 Ry

     iteration #  9     ecut=    40.00 Ry     beta= 0.30
     Davidson diagonalization with overlap
     ethr =  1.41E-07,  avg # of iterations =  2.0

     total cpu time spent up to now is       77.7 secs

     total energy              =   -1520.51747773 Ry
     estimated scf accuracy    <       0.00002194 Ry

     iteration # 10     ecut=    40.00 Ry     beta= 0.30
     Davidson diagonalization with overlap
     ethr =  7.84E-08,  avg # of iterations =  2.3

     total cpu time spent up to now is       78.8 secs

     total energy              =   -1520.51749125 Ry
     estimated scf accuracy    <       0.00000033 Ry

     iteration # 11     ecut=    40.00 Ry     beta= 0.30
     Davidson diagonalization with overlap
     ethr =  1.18E-09,  avg # of iterations =  4.0

     total cpu time spent up to now is       80.0 secs

     total energy              =   -1520.51749577 Ry
     estimated scf accuracy    <       0.00000019 Ry

     iteration # 12     ecut=    40.00 Ry     beta= 0.30
     Davidson diagonalization with overlap
     ethr =  6.67E-10,  avg # of iterations =  2.0

     total cpu time spent up to now is       81.1 secs

     total energy              =   -1520.51749756 Ry
     estimated scf accuracy    <       0.00000010 Ry

     iteration # 13     ecut=    40.00 Ry     beta= 0.30
     Davidson diagonalization with overlap
     ethr =  3.51E-10,  avg # of iterations =  2.0

     total cpu time spent up to now is       82.2 secs

     total energy              =   -1520.51749854 Ry
     estimated scf accuracy    <       0.00000008 Ry

     iteration # 14     ecut=    40.00 Ry     beta= 0.30
     Davidson diagonalization with overlap
     ethr =  2.77E-10,  avg # of iterations =  2.0

     total cpu time spent up to now is       83.2 secs

     total energy              =   -1520.51749778 Ry
     estimated scf accuracy    <       0.00000009 Ry

     iteration # 15     ecut=    40.00 Ry     beta= 0.30
     Davidson diagonalization with overlap
     ethr =  2.77E-10,  avg # of iterations =  3.6

     total cpu time spent up to now is       84.4 secs

     total energy              =   -1520.51749636 Ry
     estimated scf accuracy    <       0.00000094 Ry

     iteration # 16     ecut=    40.00 Ry     beta= 0.30
     Davidson diagonalization with overlap
     ethr =  2.77E-10,  avg # of iterations =  4.4

     total cpu time spent up to now is       85.6 secs

     total energy              =   -1520.51749825 Ry
     estimated scf accuracy    <       0.00000086 Ry

     iteration # 17     ecut=    40.00 Ry     beta= 0.30
     Davidson diagonalization with overlap
     ethr =  2.77E-10,  avg # of iterations =  2.7

     total cpu time spent up to now is       86.8 secs

     total energy              =   -1520.51749720 Ry
     estimated scf accuracy    <       0.00000050 Ry

     iteration # 18     ecut=    40.00 Ry     beta= 0.30
     Davidson diagonalization with overlap
     ethr =  2.77E-10,  avg # of iterations =  2.2
     Minimization algorithm failed to find Fermi energy: reverting to bisection
     Possible cause: smearing is larger than the electronic band-gap.

     total cpu time spent up to now is       87.9 secs

     total energy              =   -1520.51749630 Ry
     estimated scf accuracy    <       0.00000092 Ry

     iteration # 19     ecut=    40.00 Ry     beta= 0.30
     Davidson diagonalization with overlap
     ethr =  2.77E-10,  avg # of iterations =  2.0

     total cpu time spent up to now is       88.9 secs

     total energy              =   -1520.51749546 Ry
     estimated scf accuracy    <       0.00000090 Ry

     iteration # 20     ecut=    40.00 Ry     beta= 0.30
     Davidson diagonalization with overlap
     ethr =  2.77E-10,  avg # of iterations =  2.1

     total cpu time spent up to now is       90.0 secs

     total energy              =   -1520.51749437 Ry
     estimated scf accuracy    <       0.00000092 Ry

     iteration # 21     ecut=    40.00 Ry     beta= 0.30
     Davidson diagonalization with overlap
     ethr =  2.77E-10,  avg # of iterations =  2.0

     total cpu time spent up to now is       91.1 secs

     total energy              =   -1520.51749338 Ry
     estimated scf accuracy    <       0.00000104 Ry

     iteration # 22     ecut=    40.00 Ry     beta= 0.30
     Davidson diagonalization with overlap
     ethr =  2.77E-10,  avg # of iterations =  2.0
     Minimization algorithm failed to find Fermi energy: reverting to bisection
     Possible cause: smearing is larger than the electronic band-gap.

     total cpu time spent up to now is       92.1 secs

     total energy              =   -1520.51749318 Ry
     estimated scf accuracy    <       0.00000116 Ry

     iteration # 23     ecut=    40.00 Ry     beta= 0.30
     Davidson diagonalization with overlap
     ethr =  2.77E-10,  avg # of iterations =  2.7

     total cpu time spent up to now is       93.3 secs

     total energy              =   -1520.51748906 Ry
     estimated scf accuracy    <       0.00000129 Ry

     iteration # 24     ecut=    40.00 Ry     beta= 0.30
     Davidson diagonalization with overlap
     ethr =  2.77E-10,  avg # of iterations =  4.1

     total cpu time spent up to now is       94.6 secs

     total energy              =   -1520.51749520 Ry
     estimated scf accuracy    <       0.00000282 Ry

     iteration # 25     ecut=    40.00 Ry     beta= 0.30
     Davidson diagonalization with overlap
     ethr =  2.77E-10,  avg # of iterations =  3.8

     total cpu time spent up to now is       95.8 secs

     total energy              =   -1520.51749718 Ry
     estimated scf accuracy    <       0.00000030 Ry

     iteration # 26     ecut=    40.00 Ry     beta= 0.30
     Davidson diagonalization with overlap
     ethr =  2.77E-10,  avg # of iterations =  2.1

     total cpu time spent up to now is       96.9 secs

     total energy              =   -1520.51749773 Ry
     estimated scf accuracy    <       0.00000028 Ry

     iteration # 27     ecut=    40.00 Ry     beta= 0.30
     Davidson diagonalization with overlap
     ethr =  2.77E-10,  avg # of iterations =  3.3

     total cpu time spent up to now is       98.0 secs

     total energy              =   -1520.51749884 Ry
     estimated scf accuracy    <       0.00000026 Ry

     iteration # 28     ecut=    40.00 Ry     beta= 0.30
     Davidson diagonalization with overlap
     ethr =  2.77E-10,  avg # of iterations =  2.3

     total cpu time spent up to now is       99.2 secs

     End of self-consistent calculation

          k = 0.0000 0.0000 0.0000 (   925 PWs)   bands (ev):

   -51.6031 -51.3738 -16.0630 -16.0630 -16.0630 -15.1730 -15.1730 -15.1730
    12.9059  16.7400  16.7401  21.3415  21.3415  21.3415  24.8033  24.8033
    27.7066  27.7066

          k = 0.0000 0.0000 0.2500 (   908 PWs)   bands (ev):

   -51.5655 -51.4032 -16.0491 -15.9293 -15.9293 -15.4281 -15.2993 -15.2993
    14.3299  17.5142  17.7108  21.2819  21.2819  22.0185  22.8567  24.4748
    24.4748  25.5062

          k = 0.0000 0.0000-0.5000 (   916 PWs)   bands (ev):

   -51.4804 -51.4804 -15.8567 -15.8567 -15.6107 -15.6107 -15.6107 -15.6107
    17.3212  17.3212  19.7289  19.7289  22.0143  22.0143  22.0143  22.0143
    23.9026  23.9026

          k = 0.0000 0.2500 0.2500 (   909 PWs)   bands (ev):

   -51.5376 -51.4226 -16.2565 -15.8334 -15.8296 -15.6349 -15.3834 -15.1766
    15.3190  17.7220  18.8688  20.0285  20.6911  21.8586  22.6425  24.0793
    24.1793  24.9865

          k = 0.0000 0.2500-0.5000 (   928 PWs)   bands (ev):

   -51.4760 -51.4760 -16.2265 -16.2265 -15.5988 -15.5988 -15.3203 -15.3202
    16.9326  16.9326  20.0067  20.0067  20.4674  20.4674  23.5812  23.5812
    26.3102  26.3103

          k = 0.0000-0.5000-0.5000 (   888 PWs)   bands (ev):

   -51.4713 -51.4713 -16.4439 -16.4439 -15.5867 -15.5867 -15.1803 -15.1803
    16.2934  16.2934  19.0116  19.0116  23.1702  23.1702  24.7010  24.7010
    25.6811  25.6811

          k = 0.2500 0.2500 0.2500 (   925 PWs)   bands (ev):

   -51.5166 -51.4351 -16.0971 -16.0971 -16.0152 -15.4222 -15.3328 -15.3328
    16.4790  19.0795  19.0795  19.2082  19.6294  19.6294  24.8626  24.8626
    25.3734  25.3734

          k = 0.2500 0.2500-0.5000 (   920 PWs)   bands (ev):

   -51.4715 -51.4715 -16.2163 -16.2163 -15.7133 -15.7132 -15.3082 -15.3082
    17.7079  17.7079  19.3054  19.3054  20.3287  20.3287  24.3717  24.3717
    25.6496  25.6496

          k = 0.2500-0.5000-0.5000 (   920 PWs)   bands (ev):

   -51.4671 -51.4671 -16.2605 -16.2605 -15.7018 -15.7018 -15.3663 -15.3663
    17.6950  17.6950  18.9686  18.9686  21.4636  21.4636  25.2212  25.2212
    25.7634  25.7634

          k =-0.5000-0.5000-0.5000 (   912 PWs)   bands (ev):

   -51.4627 -51.4627 -15.8157 -15.8157 -15.8146 -15.8146 -15.8135 -15.8135
    19.5905  19.5905  19.5917  19.5917  19.5929  19.5929  25.8483  25.8483
    25.8483  25.8483

          k = 0.2500 0.0000 0.0000 (   908 PWs)   bands (ev):

   -51.5655 -51.4032 -16.0491 -15.9293 -15.9293 -15.4281 -15.2993 -15.2993
    14.3299  17.5142  17.7108  21.2819  21.2819  22.0185  22.8567  24.4748
    24.4748  25.5062

          k =-0.5000 0.0000 0.0000 (   916 PWs)   bands (ev):

   -51.4806 -51.4802 -15.8569 -15.8565 -15.6115 -15.6115 -15.6099 -15.6099
    17.3202  17.3221  19.7251  19.7327  22.0138  22.0138  22.0147  22.0147
    23.8982  23.9070

          k = 0.2500-0.2500 0.0000 (   909 PWs)   bands (ev):

   -51.5376 -51.4226 -16.2565 -15.8333 -15.8296 -15.6349 -15.3834 -15.1766
    15.3190  17.7220  18.8688  20.0285  20.6911  21.8586  22.6425  24.0793
    24.1793  24.9865

          k =-0.5000-0.2500 0.0000 (   928 PWs)   bands (ev):

   -51.4761 -51.4758 -16.2266 -16.2263 -15.5994 -15.5982 -15.3205 -15.3200
    16.9325  16.9327  20.0057  20.0078  20.4660  20.4688  23.5805  23.5819
    26.3077  26.3128

          k = 0.2500-0.5000 0.0000 (   928 PWs)   bands (ev):

   -51.4760 -51.4760 -16.2265 -16.2265 -15.5988 -15.5988 -15.3203 -15.3202
    16.9326  16.9326  20.0067  20.0067  20.4674  20.4674  23.5812  23.5812
    26.3102  26.3102

          k =-0.5000 0.5000 0.0000 (   888 PWs)   bands (ev):

   -51.4713 -51.4713 -16.4439 -16.4439 -15.5867 -15.5867 -15.1803 -15.1803
    16.2934  16.2934  19.0116  19.0116  23.1702  23.1702  24.7010  24.7010
    25.6811  25.6811

          k =-0.5000-0.2500 0.2500 (   920 PWs)   bands (ev):

   -51.4716 -51.4714 -16.2165 -16.2162 -15.7142 -15.7123 -15.3084 -15.3081
    17.7074  17.7084  19.3051  19.3057  20.3272  20.3302  24.3698  24.3736
    25.6482  25.6510

          k =-0.5000 0.5000 0.2500 (   920 PWs)   bands (ev):

   -51.4671 -51.4671 -16.2605 -16.2605 -15.7018 -15.7018 -15.3663 -15.3663
    17.6950  17.6950  18.9686  18.9686  21.4636  21.4636  25.2212  25.2212
    25.7634  25.7634

     the Fermi energy is    22.2292 ev

!    total energy              =   -1520.51749922 Ry
     total all-electron energy =    -64571.750175 Ry
     estimated scf accuracy    <          4.6E-09 Ry
     smearing contrib. (-TS)   =       0.00165515 Ry
     internal energy E=F+TS    =   -1520.51915437 Ry

     The total energy is F=E-TS. E is the sum of the following terms:
     one-electron contribution =     -22.66405224 Ry
     hartree contribution      =      31.55131352 Ry
     xc contribution           =     -80.14545805 Ry
     ewald contribution        =    -238.14301085 Ry
     one-center paw contrib.   =   -1211.11794674 Ry

     convergence has been achieved in  28 iterations

     Forces acting on atoms (cartesian axes, Ry/au):

     atom    1 type  1   force =    -0.00043645    0.00000000    0.00000000
     atom    2 type  1   force =     0.00043645    0.00000000    0.00000000

     Total force =     0.000617     Total SCF correction =     0.000014


     Computing stress (Cartesian axis) and pressure

          total   stress  (Ry/bohr**3)                   (kbar)     P=       -3.74
  -0.00002544   0.00000000   0.00000000           -3.74        0.00        0.00
   0.00000000  -0.00002544   0.00000000            0.00       -3.74        0.00
   0.00000000   0.00000000  -0.00002544            0.00        0.00       -3.74

     Energy error            =      4.4E-06 Ry
     Gradient error          =      4.4E-04 Ry/Bohr

     bfgs converged in   4 scf cycles and   3 bfgs steps
     (criteria: energy <  1.0E-04 Ry, force <  1.0E-03 Ry/Bohr)

     End of BFGS Geometry Optimization

     Final energy             =   -1520.5174992166 Ry

     File ./tmp/rel.bfgs deleted, as requested
Begin final coordinates

ATOMIC_POSITIONS (crystal)
W                0.0080014918        0.0000000000        0.0000000000
W                0.5077713789        0.5000000000        0.5000000000
End final coordinates



     Writing all to output data dir ./tmp/rel.save/ :
     XML data file, charge density, pseudopotentials, collected wavefunctions

     init_run     :      1.62s CPU      1.75s WALL (       1 calls)
     electrons    :     87.30s CPU     90.80s WALL (       4 calls)
     update_pot   :      1.61s CPU      1.66s WALL (       3 calls)
     forces       :      0.49s CPU      0.50s WALL (       4 calls)
     stress       :      3.24s CPU      3.29s WALL (       4 calls)

     Called by init_run:
     wfcinit      :      0.19s CPU      0.21s WALL (       1 calls)
     potinit      :      0.65s CPU      0.72s WALL (       1 calls)
     hinit0       :      0.66s CPU      0.68s WALL (       1 calls)

     Called by electrons:
     c_bands      :     27.99s CPU     30.25s WALL (      84 calls)
     sum_band     :     10.05s CPU     10.63s WALL (      84 calls)
     v_of_rho     :      1.48s CPU      1.52s WALL (      87 calls)
     newd         :      4.85s CPU      4.97s WALL (      87 calls)
     PAW_pot      :     46.52s CPU     47.14s WALL (      90 calls)
     mix_rho      :      0.19s CPU      0.20s WALL (      84 calls)

     Called by c_bands:
     init_us_2    :      0.87s CPU      0.93s WALL (    3240 calls)
     cegterg      :     26.13s CPU     28.30s WALL (    1512 calls)

     Called by *egterg:
     cdiaghg      :      2.51s CPU      2.62s WALL (    4638 calls)
     h_psi        :     19.69s CPU     21.57s WALL (    4728 calls)
     s_psi        :      0.64s CPU      0.69s WALL (    4728 calls)
     g_psi        :      0.26s CPU      0.27s WALL (    3198 calls)

     Called by h_psi:
     h_psi:calbec :      0.80s CPU      0.88s WALL (    4728 calls)
     vloc_psi     :     18.12s CPU     19.85s WALL (    4728 calls)
                                        0.00s GPU  (    4728 calls)
     add_vuspsi   :      0.63s CPU      0.69s WALL (    4728 calls)

     General routines
     calbec       :      1.38s CPU      1.50s WALL (    7518 calls)
     fft          :      1.04s CPU      1.08s WALL (    1227 calls)
     ffts         :      0.07s CPU      0.08s WALL (     171 calls)
     fftw         :     18.97s CPU     20.80s WALL (  163538 calls)
     interpolate  :      0.12s CPU      0.13s WALL (      87 calls)

     Parallel routines

     PWSCF        :   1m36.35s CPU   1m40.18s WALL


   This run was terminated on:  10: 8:11  30Sep2026            

=------------------------------------------------------------------------------=
   JOB DONE.
=------------------------------------------------------------------------------=
