
     Program PWSCF v.7.5 starts on  6Oct2026 at  3:47: 1 

     This program is part of the open-source Quantum ESPRESSO suite
     for quantum simulation of materials; please cite
         "P. Giannozzi et al., J. Phys.:Condens. Matter 21 395502 (2009);
         "P. Giannozzi et al., J. Phys.:Condens. Matter 29 465901 (2017);
         "P. Giannozzi et al., J. Chem. Phys. 152 154105 (2020);
          URL http://www.quantum-espresso.org", 
     in publications or presentations arising from this work. More details at
     http://www.quantum-espresso.org/quote

     Parallel version (MPI & OpenMP), running on      11 processor cores
     Number of MPI processes:                11
     Threads/MPI process:                     1

     MPI processes distributed on     1 nodes
     81890 MiB available memory on the printing compute node when the environment starts

     Reading input from bands.in

     Current dimensions of program PWSCF are:
     Max number of different atomic species (ntypx) = 10
     Max number of k-points (npk) =  40000
     Max angular momentum in pseudopotentials (lmaxx) =  4
     file In.pbe-dn-kjpaw_psl.1.0.0.UPF: wavefunction(s)  5S 5P 4D renormalized
     file O.pbe-n-kjpaw_psl.1.0.0.UPF: wavefunction(s)  2S 2P renormalized
     file H.pbe-kjpaw_psl.1.0.0.UPF: wavefunction(s)  1S renormalized

     Atomic positions and unit cell read from directory:
     ./tmp/slab.save/

     Message from routine setup:
     using ibrav=0 with symmetry is DISCOURAGED, use correct ibrav instead

     R & G space division:  proc/nbgrp/npool/nimage =      11
     Subspace diagonalization in iterative solution of the eigenvalue problem:
     one sub-group per band group will be used
     ELPA distributed-memory algorithm (size of sub-group:  2*  2 procs)


     Parallelization info
     --------------------
     sticks:   dense  smooth     PW     G-vecs:    dense   smooth      PW
     Min        1571     786    200               452195   159880   20545
     Max        1572     787    202               452204   159891   20548
     Sum       17287    8649   2209              4974197  1758717  226013

     Using Slab Decomposition



     bravais-lattice index     =            0
     lattice parameter (alat)  =      20.2115  a.u.
     unit-cell volume          =   21760.2371 (a.u.)^3
     number of atoms/cell      =           56
     number of atomic types    =            3
     number of electrons       =       272.00
     number of Kohn-Sham states=          152
     kinetic-energy cutoff     =      71.0000  Ry
     charge density cutoff     =     568.0000  Ry
     Exchange-correlation= SLA  PW   PBX  PBC
                           (   1   4   3   4   0   0   0)

     celldm(1)=  20.211479  celldm(2)=   0.000000  celldm(3)=   0.000000
     celldm(4)=   0.000000  celldm(5)=   0.000000  celldm(6)=   0.000000

     crystal axes: (cart. coord. in units of alat)
               a(1) = (   1.000000   0.000000   0.000000 )  
               a(2) = (   0.000000   0.936733   0.000000 )  
               a(3) = (   0.000000   0.000000   2.813542 )  

     reciprocal axes: (cart. coord. in units 2 pi/alat)
               b(1) = (  1.000000  0.000000  0.000000 )  
               b(2) = (  0.000000  1.067540  0.000000 )  
               b(3) = (  0.000000  0.000000  0.355424 )  


     PseudoPot. # 1 for In read from file:
     ./In.pbe-dn-kjpaw_psl.1.0.0.UPF
     MD5 check sum: 235b15e6a7fdfd96486e0ecdcb5b12c6
     Pseudo is Projector augmented-wave + core cor, Zval = 13.0
     Generated using &quot;atomic&quot; code by A. Dal Corso  v.6.3
     Shape of augmentation charge: PSQ
     Using radial grid of 1241 points,  6 beta functions with: 
                l(1) =   0
                l(2) =   0
                l(3) =   1
                l(4) =   1
                l(5) =   2
                l(6) =   2
     Q(r) pseudized with 0 coefficients 


     PseudoPot. # 2 for O  read from file:
     ./O.pbe-n-kjpaw_psl.1.0.0.UPF
     MD5 check sum: e99d9cef9b487d1ca56f5b95ecd0fd7a
     Pseudo is Projector augmented-wave + core cor, Zval =  6.0
     Generated using &quot;atomic&quot; code by A. Dal Corso  v.6.3
     Shape of augmentation charge: PSQ
     Using radial grid of 1095 points,  4 beta functions with: 
                l(1) =   0
                l(2) =   0
                l(3) =   1
                l(4) =   1
     Q(r) pseudized with 0 coefficients 


     PseudoPot. # 3 for H  read from file:
     ./H.pbe-kjpaw_psl.1.0.0.UPF
     MD5 check sum: d81a744832360e4a8af0b0b5b123bc2a
     Pseudo is Projector augmented-wave, Zval =  1.0
     Generated using &quot;atomic&quot; code by A. Dal Corso  v.6.3MaX
     Shape of augmentation charge: PSQ
     Using radial grid of  929 points,  2 beta functions with: 
                l(1) =   0
                l(2) =   0
     Q(r) pseudized with 0 coefficients 


     atomic species   valence    mass     pseudopotential
     In               13.00   114.81800     In( 1.00)
     O                 6.00    15.99900     O ( 1.00)
     H                 1.00     1.00800     H ( 1.00)

      8 Sym. Ops., with inversion, found ( 6 have fractional translation)


                                    s                        frac. trans.

      isym =  1     identity                                     

 cryst.   s( 1) = (     1          0          0      )
                  (     0          1          0      )
                  (     0          0          1      )

 cart.    s( 1) = (  1.0000000  0.0000000  0.0000000 )
                  (  0.0000000  1.0000000  0.0000000 )
                  (  0.0000000  0.0000000  1.0000000 )


      isym =  2     180 deg rotation - cart. axis [0,0,1]        

 cryst.   s( 2) = (    -1          0          0      )    f =(  0.0000000 )
                  (     0         -1          0      )       (  0.5000000 )
                  (     0          0          1      )       (  0.0000000 )

 cart.    s( 2) = ( -1.0000000  0.0000000  0.0000000 )    f =(  0.0000000 )
                  (  0.0000000 -1.0000000  0.0000000 )       (  0.4683666 )
                  (  0.0000000  0.0000000  1.0000000 )       (  0.0000000 )


      isym =  3     180 deg rotation - cart. axis [0,1,0]        

 cryst.   s( 3) = (    -1          0          0      )    f =(  0.5000000 )
                  (     0          1          0      )       (  0.0000000 )
                  (     0          0         -1      )       ( -0.0000000 )

 cart.    s( 3) = ( -1.0000000  0.0000000  0.0000000 )    f =(  0.5000000 )
                  (  0.0000000  1.0000000  0.0000000 )       (  0.0000000 )
                  (  0.0000000  0.0000000 -1.0000000 )       ( -0.0000000 )


      isym =  4     180 deg rotation - cart. axis [1,0,0]        

 cryst.   s( 4) = (     1          0          0      )    f =(  0.5000000 )
                  (     0         -1          0      )       (  0.5000000 )
                  (     0          0         -1      )       ( -0.0000000 )

 cart.    s( 4) = (  1.0000000  0.0000000  0.0000000 )    f =(  0.5000000 )
                  (  0.0000000 -1.0000000  0.0000000 )       (  0.4683666 )
                  (  0.0000000  0.0000000 -1.0000000 )       ( -0.0000000 )


      isym =  5     inversion                                    

 cryst.   s( 5) = (    -1          0          0      )
                  (     0         -1          0      )
                  (     0          0         -1      )

 cart.    s( 5) = ( -1.0000000  0.0000000  0.0000000 )
                  (  0.0000000 -1.0000000  0.0000000 )
                  (  0.0000000  0.0000000 -1.0000000 )


      isym =  6     inv. 180 deg rotation - cart. axis [0,0,1]   

 cryst.   s( 6) = (     1          0          0      )    f =(  0.0000000 )
                  (     0          1          0      )       (  0.5000000 )
                  (     0          0         -1      )       ( -0.0000000 )

 cart.    s( 6) = (  1.0000000  0.0000000  0.0000000 )    f =(  0.0000000 )
                  (  0.0000000  1.0000000  0.0000000 )       (  0.4683666 )
                  (  0.0000000  0.0000000 -1.0000000 )       ( -0.0000000 )


      isym =  7     inv. 180 deg rotation - cart. axis [0,1,0]   

 cryst.   s( 7) = (     1          0          0      )    f =(  0.5000000 )
                  (     0         -1          0      )       (  0.0000000 )
                  (     0          0          1      )       (  0.0000000 )

 cart.    s( 7) = (  1.0000000  0.0000000  0.0000000 )    f =(  0.5000000 )
                  (  0.0000000 -1.0000000  0.0000000 )       (  0.0000000 )
                  (  0.0000000  0.0000000  1.0000000 )       (  0.0000000 )


      isym =  8     inv. 180 deg rotation - cart. axis [1,0,0]   

 cryst.   s( 8) = (    -1          0          0      )    f =(  0.5000000 )
                  (     0          1          0      )       (  0.5000000 )
                  (     0          0          1      )       (  0.0000000 )

 cart.    s( 8) = ( -1.0000000  0.0000000  0.0000000 )    f =(  0.5000000 )
                  (  0.0000000  1.0000000  0.0000000 )       (  0.4683666 )
                  (  0.0000000  0.0000000  1.0000000 )       (  0.0000000 )


   Cartesian axes

     site n.     atom                  positions (alat units)
         1        In     tau(   1) = (   0.7500000   0.4249464   1.4067712  )
         2        In     tau(   2) = (   0.2500000   0.0434202   1.4067712  )
         3        In     tau(   3) = (   0.5000000   0.7025498   1.3673680  )
         4        In     tau(   4) = (   0.0000000   0.2341833   1.3673680  )
         5        In     tau(   5) = (   0.0000000   0.7025498   1.4461744  )
         6        In     tau(   6) = (   0.2500000   0.5117867   1.4067712  )
         7        In     tau(   7) = (   0.7500000   0.8933129   1.4067712  )
         8        In     tau(   8) = (   0.5000000   0.2341833   1.4461744  )
         9        O      tau(   9) = (   0.3702231   0.1736122   1.3016556  )
        10        O      tau(  10) = (   0.6297769   0.2947543   1.3016556  )
        11        O      tau(  11) = (   0.1297769   0.1736122   1.5118868  )
        12        O      tau(  12) = (   0.8702231   0.2947543   1.5118868  )
        13        O      tau(  13) = (   0.3967267   0.5524142   1.2643720  )
        14        O      tau(  14) = (   0.6032733   0.8526855   1.2643720  )
        15        O      tau(  15) = (   0.1498221   0.3665303   1.3055953  )
        16        O      tau(  16) = (   0.3501779   0.3665303   1.5079471  )
        17        O      tau(  17) = (   0.1032733   0.0840477   1.2643720  )
        18        O      tau(  18) = (   0.8967267   0.3843189   1.2643720  )
        19        O      tau(  19) = (   0.3501779   0.8348969   1.3055953  )
        20        O      tau(  20) = (   0.1498221   0.8348969   1.5079471  )
        21        O      tau(  21) = (   0.8967267   0.8526855   1.5491704  )
        22        O      tau(  22) = (   0.1032733   0.5524142   1.5491704  )
        23        O      tau(  23) = (   0.6498221   0.1018362   1.5079471  )
        24        O      tau(  24) = (   0.8501779   0.1018362   1.3055953  )
        25        O      tau(  25) = (   0.6297769   0.7631209   1.5118868  )
        26        O      tau(  26) = (   0.3702231   0.6419788   1.5118868  )
        27        O      tau(  27) = (   0.8702231   0.7631209   1.3016556  )
        28        O      tau(  28) = (   0.1297769   0.6419788   1.3016556  )
        29        O      tau(  29) = (   0.6032733   0.3843189   1.5491704  )
        30        O      tau(  30) = (   0.3967267   0.0840477   1.5491704  )
        31        O      tau(  31) = (   0.8501779   0.5702028   1.5079471  )
        32        O      tau(  32) = (   0.6498221   0.5702028   1.3055953  )
        33        H      tau(  33) = (   0.3200876   0.2457149   1.2757568  )
        34        H      tau(  34) = (   0.6799124   0.2226516   1.2757568  )
        35        H      tau(  35) = (   0.1799124   0.2457149   1.5377856  )
        36        H      tau(  36) = (   0.8200876   0.2226516   1.5377856  )
        37        H      tau(  37) = (   0.3536491   0.5849710   1.1911746  )
        38        H      tau(  38) = (   0.6463509   0.8201287   1.1911746  )
        39        H      tau(  39) = (   0.0993820   0.4167668   1.2479365  )
        40        H      tau(  40) = (   0.4006180   0.4167668   1.5656059  )
        41        H      tau(  41) = (   0.1463509   0.1166044   1.1911746  )
        42        H      tau(  42) = (   0.8536491   0.3517621   1.1911746  )
        43        H      tau(  43) = (   0.4006180   0.8851333   1.2479365  )
        44        H      tau(  44) = (   0.0993820   0.8851333   1.5656059  )
        45        H      tau(  45) = (   0.8536491   0.8201287   1.6223677  )
        46        H      tau(  46) = (   0.1463509   0.5849710   1.6223677  )
        47        H      tau(  47) = (   0.5993820   0.0515998   1.5656059  )
        48        H      tau(  48) = (   0.9006180   0.0515998   1.2479365  )
        49        H      tau(  49) = (   0.6799124   0.6910182   1.5377856  )
        50        H      tau(  50) = (   0.3200876   0.7140815   1.5377856  )
        51        H      tau(  51) = (   0.8200876   0.6910182   1.2757568  )
        52        H      tau(  52) = (   0.1799124   0.7140815   1.2757568  )
        53        H      tau(  53) = (   0.6463509   0.3517621   1.6223677  )
        54        H      tau(  54) = (   0.3536491   0.1166044   1.6223677  )
        55        H      tau(  55) = (   0.9006180   0.5199663   1.5656059  )
        56        H      tau(  56) = (   0.5993820   0.5199663   1.2479365  )

   Crystallographic axes

     site n.     atom                  positions (cryst. coord.)
         1        In     tau(   1) = (  0.7500000  0.4536472  0.5000000  )
         2        In     tau(   2) = (  0.2500000  0.0463528  0.5000000  )
         3        In     tau(   3) = (  0.5000000  0.7500000  0.4859952  )
         4        In     tau(   4) = (  0.0000000  0.2500000  0.4859952  )
         5        In     tau(   5) = (  0.0000000  0.7500000  0.5140048  )
         6        In     tau(   6) = (  0.2500000  0.5463528  0.5000000  )
         7        In     tau(   7) = (  0.7500000  0.9536472  0.5000000  )
         8        In     tau(   8) = (  0.5000000  0.2500000  0.5140048  )
         9        O      tau(   9) = (  0.3702231  0.1853380  0.4626394  )
        10        O      tau(  10) = (  0.6297769  0.3146620  0.4626394  )
        11        O      tau(  11) = (  0.1297769  0.1853380  0.5373606  )
        12        O      tau(  12) = (  0.8702231  0.3146620  0.5373606  )
        13        O      tau(  13) = (  0.3967267  0.5897242  0.4493879  )
        14        O      tau(  14) = (  0.6032733  0.9102758  0.4493879  )
        15        O      tau(  15) = (  0.1498221  0.3912858  0.4640397  )
        16        O      tau(  16) = (  0.3501779  0.3912858  0.5359603  )
        17        O      tau(  17) = (  0.1032733  0.0897242  0.4493879  )
        18        O      tau(  18) = (  0.8967267  0.4102758  0.4493879  )
        19        O      tau(  19) = (  0.3501779  0.8912858  0.4640397  )
        20        O      tau(  20) = (  0.1498221  0.8912858  0.5359603  )
        21        O      tau(  21) = (  0.8967267  0.9102758  0.5506121  )
        22        O      tau(  22) = (  0.1032733  0.5897242  0.5506121  )
        23        O      tau(  23) = (  0.6498221  0.1087142  0.5359603  )
        24        O      tau(  24) = (  0.8501779  0.1087142  0.4640397  )
        25        O      tau(  25) = (  0.6297769  0.8146620  0.5373606  )
        26        O      tau(  26) = (  0.3702231  0.6853380  0.5373606  )
        27        O      tau(  27) = (  0.8702231  0.8146620  0.4626394  )
        28        O      tau(  28) = (  0.1297769  0.6853380  0.4626394  )
        29        O      tau(  29) = (  0.6032733  0.4102758  0.5506121  )
        30        O      tau(  30) = (  0.3967267  0.0897242  0.5506121  )
        31        O      tau(  31) = (  0.8501779  0.6087142  0.5359603  )
        32        O      tau(  32) = (  0.6498221  0.6087142  0.4640397  )
        33        H      tau(  33) = (  0.3200876  0.2623105  0.4534344  )
        34        H      tau(  34) = (  0.6799124  0.2376895  0.4534344  )
        35        H      tau(  35) = (  0.1799124  0.2623105  0.5465656  )
        36        H      tau(  36) = (  0.8200876  0.2376895  0.5465656  )
        37        H      tau(  37) = (  0.3536491  0.6244799  0.4233719  )
        38        H      tau(  38) = (  0.6463509  0.8755201  0.4233719  )
        39        H      tau(  39) = (  0.0993820  0.4449152  0.4435464  )
        40        H      tau(  40) = (  0.4006180  0.4449152  0.5564536  )
        41        H      tau(  41) = (  0.1463509  0.1244799  0.4233719  )
        42        H      tau(  42) = (  0.8536491  0.3755201  0.4233719  )
        43        H      tau(  43) = (  0.4006180  0.9449152  0.4435464  )
        44        H      tau(  44) = (  0.0993820  0.9449152  0.5564536  )
        45        H      tau(  45) = (  0.8536491  0.8755201  0.5766281  )
        46        H      tau(  46) = (  0.1463509  0.6244799  0.5766281  )
        47        H      tau(  47) = (  0.5993820  0.0550848  0.5564536  )
        48        H      tau(  48) = (  0.9006180  0.0550848  0.4435464  )
        49        H      tau(  49) = (  0.6799124  0.7376895  0.5465656  )
        50        H      tau(  50) = (  0.3200876  0.7623105  0.5465656  )
        51        H      tau(  51) = (  0.8200876  0.7376895  0.4534344  )
        52        H      tau(  52) = (  0.1799124  0.7623105  0.4534344  )
        53        H      tau(  53) = (  0.6463509  0.3755201  0.5766281  )
        54        H      tau(  54) = (  0.3536491  0.1244799  0.5766281  )
        55        H      tau(  55) = (  0.9006180  0.5550848  0.5564536  )
        56        H      tau(  56) = (  0.5993820  0.5550848  0.4435464  )

     number of k points=    21
                       cart. coord. in units 2pi/alat
        k(    1) = (   0.0000000   0.0000000   0.0000000), wk =   0.0952381
        k(    2) = (   0.0246040   0.0000000   0.0000000), wk =   0.0952381
        k(    3) = (   0.0492080   0.0000000   0.0000000), wk =   0.0952381
        k(    4) = (   0.0738119   0.0000000   0.0000000), wk =   0.0952381
        k(    5) = (   0.0984159   0.0000000   0.0000000), wk =   0.0952381
        k(    6) = (   0.1230199   0.0000000   0.0000000), wk =   0.0952381
        k(    7) = (   0.1476239   0.0000000   0.0000000), wk =   0.0952381
        k(    8) = (   0.1722278   0.0000000   0.0000000), wk =   0.0952381
        k(    9) = (   0.1968318   0.0000000   0.0000000), wk =   0.0952381
        k(   10) = (   0.2214358   0.0000000   0.0000000), wk =   0.0952381
        k(   11) = (   0.2460398   0.0000000   0.0000000), wk =   0.0952381
        k(   12) = (   0.0173976   0.0173976   0.0000000), wk =   0.0952381
        k(   13) = (   0.0347953   0.0347953   0.0000000), wk =   0.0952381
        k(   14) = (   0.0521929   0.0521929   0.0000000), wk =   0.0952381
        k(   15) = (   0.0695906   0.0695906   0.0000000), wk =   0.0952381
        k(   16) = (   0.0869882   0.0869882   0.0000000), wk =   0.0952381
        k(   17) = (   0.1043858   0.1043858   0.0000000), wk =   0.0952381
        k(   18) = (   0.1217835   0.1217835   0.0000000), wk =   0.0952381
        k(   19) = (   0.1391811   0.1391811   0.0000000), wk =   0.0952381
        k(   20) = (   0.1565788   0.1565788   0.0000000), wk =   0.0952381
        k(   21) = (   0.1739764   0.1739764   0.0000000), wk =   0.0952381

                       cryst. coord.
        k(    1) = (   0.0000000   0.0000000   0.0000000), wk =   0.0952381
        k(    2) = (   0.0246040   0.0000000   0.0000000), wk =   0.0952381
        k(    3) = (   0.0492080   0.0000000   0.0000000), wk =   0.0952381
        k(    4) = (   0.0738119   0.0000000   0.0000000), wk =   0.0952381
        k(    5) = (   0.0984159   0.0000000   0.0000000), wk =   0.0952381
        k(    6) = (   0.1230199   0.0000000   0.0000000), wk =   0.0952381
        k(    7) = (   0.1476239   0.0000000   0.0000000), wk =   0.0952381
        k(    8) = (   0.1722278   0.0000000   0.0000000), wk =   0.0952381
        k(    9) = (   0.1968318   0.0000000   0.0000000), wk =   0.0952381
        k(   10) = (   0.2214358   0.0000000   0.0000000), wk =   0.0952381
        k(   11) = (   0.2460398   0.0000000   0.0000000), wk =   0.0952381
        k(   12) = (   0.0173976   0.0162969   0.0000000), wk =   0.0952381
        k(   13) = (   0.0347953   0.0325939   0.0000000), wk =   0.0952381
        k(   14) = (   0.0521929   0.0488908   0.0000000), wk =   0.0952381
        k(   15) = (   0.0695906   0.0651878   0.0000000), wk =   0.0952381
        k(   16) = (   0.0869882   0.0814847   0.0000000), wk =   0.0952381
        k(   17) = (   0.1043858   0.0977817   0.0000000), wk =   0.0952381
        k(   18) = (   0.1217835   0.1140786   0.0000000), wk =   0.0952381
        k(   19) = (   0.1391811   0.1303756   0.0000000), wk =   0.0952381
        k(   20) = (   0.1565788   0.1466725   0.0000000), wk =   0.0952381
        k(   21) = (   0.1739764   0.1629695   0.0000000), wk =   0.0952381

     Dense  grid:  4974197 G-vectors     FFT dimensions: ( 160, 144, 432)

     Smooth grid:  1758717 G-vectors     FFT dimensions: ( 120, 108, 320)

     Dynamical RAM for                 wfc:      46.35 MB

     Dynamical RAM for     wfc (w. buffer):      46.35 MB

     Dynamical RAM for           str. fact:      20.70 MB

     Dynamical RAM for           local pot:       0.00 MB

     Dynamical RAM for          nlocal pot:     117.10 MB

     Dynamical RAM for                qrad:       5.74 MB

     Dynamical RAM for          rho,v,vnew:      41.79 MB

     Dynamical RAM for           G-vectors:      27.10 MB

     Dynamical RAM for          h,s,v(r/c):       1.06 MB

     Dynamical RAM for          <psi|beta>:       0.89 MB

     Dynamical RAM for                 psi:      92.70 MB

     Dynamical RAM for                hpsi:      92.70 MB

     Dynamical RAM for                spsi:      92.70 MB

     Dynamical RAM for      wfcinit/wfcrot:      93.23 MB

     Dynamical RAM for           addusdens:    1449.02 MB

     Estimated static dynamical RAM per process >     321.53 MB

     Estimated max dynamical RAM per process >       1.73 GB

     Estimated total dynamical RAM >      19.02 GB

     The potential is recalculated from file :
     ./tmp/slab.save/charge-density


     negative rho (up, down):  1.244E-03 0.000E+00
     Starting wfcs are  192 randomized atomic wfcs
     Checking if some PAW data can be deallocated... 
       PAW data deallocated on    9 nodes for type:  1
       PAW data deallocated on    5 nodes for type:  2
       PAW data deallocated on    6 nodes for type:  3

     Band Structure Calculation
     Davidson diagonalization with overlap

     Computing kpt #:     1  of    21
     c_bands:  2 eigenvalues not converged
     total cpu time spent up to now is      125.6 secs

     Computing kpt #:     2  of    21
     c_bands:  3 eigenvalues not converged
     total cpu time spent up to now is      247.2 secs

     Computing kpt #:     3  of    21
     c_bands:  2 eigenvalues not converged
     total cpu time spent up to now is      367.3 secs

     Computing kpt #:     4  of    21
     c_bands:  2 eigenvalues not converged
     total cpu time spent up to now is      489.4 secs

     Computing kpt #:     5  of    21
     c_bands:  2 eigenvalues not converged
     total cpu time spent up to now is      611.7 secs

     Computing kpt #:     6  of    21
     c_bands:  5 eigenvalues not converged
     total cpu time spent up to now is      733.5 secs

     Computing kpt #:     7  of    21
     c_bands:  2 eigenvalues not converged
     total cpu time spent up to now is      853.0 secs

     Computing kpt #:     8  of    21
     c_bands:  3 eigenvalues not converged
     total cpu time spent up to now is      973.5 secs

     Computing kpt #:     9  of    21
     c_bands:  5 eigenvalues not converged
     total cpu time spent up to now is     1093.0 secs

     Computing kpt #:    10  of    21
     c_bands:  4 eigenvalues not converged
     total cpu time spent up to now is     1213.1 secs

     Computing kpt #:    11  of    21
     c_bands:  2 eigenvalues not converged
     total cpu time spent up to now is     1333.6 secs

     Computing kpt #:    12  of    21
     c_bands:  2 eigenvalues not converged
     total cpu time spent up to now is     1453.0 secs

     Computing kpt #:    13  of    21
     c_bands:  2 eigenvalues not converged
     total cpu time spent up to now is     1572.0 secs

     Computing kpt #:    14  of    21
     c_bands:  4 eigenvalues not converged
     total cpu time spent up to now is     1690.9 secs

     Computing kpt #:    15  of    21
     c_bands:  4 eigenvalues not converged
     total cpu time spent up to now is     1811.5 secs

     Computing kpt #:    16  of    21
     c_bands:  3 eigenvalues not converged
     total cpu time spent up to now is     1933.7 secs

     Computing kpt #:    17  of    21
     c_bands:  4 eigenvalues not converged
     total cpu time spent up to now is     2052.6 secs

     Computing kpt #:    18  of    21
     c_bands:  4 eigenvalues not converged
     total cpu time spent up to now is     2175.6 secs

     Computing kpt #:    19  of    21
     c_bands:  3 eigenvalues not converged
     total cpu time spent up to now is     2295.7 secs

     Computing kpt #:    20  of    21
     c_bands:  4 eigenvalues not converged
     total cpu time spent up to now is     2418.8 secs

     Computing kpt #:    21  of    21
     c_bands:  5 eigenvalues not converged
     total cpu time spent up to now is     2539.4 secs

     ethr =  3.68E-13,  avg # of iterations =120.0

     total cpu time spent up to now is     2539.4 secs

     End of band structure calculation

          k = 0.0000 0.0000 0.0000 (219793 PWs)   bands (ev):

   -22.7604 -22.5402 -22.4858 -22.4727 -22.4658 -22.4622 -22.3319 -22.3309
   -22.3206 -22.3138 -22.2090 -22.1691 -22.1680 -22.1638 -22.1574 -22.1148
   -22.0653 -22.0552 -22.0539 -22.0489 -22.0464 -22.0182 -21.9880 -21.9096
   -16.7668 -16.7618 -16.7548 -16.7546 -16.7541 -16.7325 -16.7292 -16.7146
   -16.6941 -16.6904 -16.6894 -16.6840 -16.6582 -16.6577 -16.6517 -16.6410
   -16.6287 -16.6222 -16.5852 -16.5730 -16.5108 -16.5076 -16.4968 -16.4957
   -16.4936 -16.4832 -16.4671 -16.4641 -16.4638 -16.4433 -16.4249 -16.4222
   -16.3797 -16.3267 -16.3161 -16.3011 -16.2847 -16.2741 -16.2410 -16.2092
   -10.5081 -10.3224 -10.2471 -10.2285 -10.2145 -10.1223 -10.0555  -9.8940
    -9.8582  -9.8244  -9.6977  -9.6462  -9.3733  -9.3624  -9.2604  -9.0943
    -9.0550  -8.8753  -8.8672  -8.8168  -8.7582  -8.6311  -8.6123  -8.5377
    -8.4444  -8.4237  -8.1718  -8.0702  -8.0242  -7.9177  -7.5285  -7.3437
    -7.2419  -7.1322  -6.9877  -6.8373  -6.7665  -6.4399  -6.3403  -6.3289
    -6.2850  -6.1935  -6.0010  -5.9819  -5.9246  -5.9243  -5.8205  -5.8203
    -5.8183  -5.6497  -5.5890  -5.5817  -5.4741  -5.4486  -5.4062  -5.3452
    -5.3237  -5.2174  -5.1684  -5.0511  -5.0492  -5.0212  -4.9590  -4.9523
    -4.9170  -4.9023  -4.8989  -4.8759  -4.8637  -4.8466  -4.7959  -4.7232
    -1.5819   0.3053   0.3059   0.4119   0.5088   0.6750   1.0760   1.2619
     1.2759   1.5306   1.6542   1.6671   1.7611   1.9166   2.0078   2.2085

          k = 0.0246 0.0000 0.0000 (219839 PWs)   bands (ev):

   -22.7602 -22.5402 -22.4913 -22.4674 -22.4663 -22.4617 -22.3323 -22.3320
   -22.3203 -22.3124 -22.2092 -22.1690 -22.1679 -22.1634 -22.1577 -22.1147
   -22.0663 -22.0543 -22.0539 -22.0490 -22.0466 -22.0182 -21.9878 -21.9097
   -16.7668 -16.7619 -16.7548 -16.7545 -16.7542 -16.7332 -16.7285 -16.7145
   -16.6941 -16.6904 -16.6894 -16.6840 -16.6581 -16.6578 -16.6523 -16.6409
   -16.6287 -16.6216 -16.5851 -16.5732 -16.5107 -16.5076 -16.4968 -16.4957
   -16.4936 -16.4832 -16.4677 -16.4642 -16.4632 -16.4433 -16.4249 -16.4219
   -16.3799 -16.3264 -16.3163 -16.3018 -16.2848 -16.2734 -16.2412 -16.2092
   -10.5080 -10.3233 -10.2471 -10.2277 -10.2146 -10.1222 -10.0556  -9.8962
    -9.8580  -9.8224  -9.6977  -9.6464  -9.3729  -9.3619  -9.2601  -9.0939
    -9.0556  -8.8765  -8.8675  -8.8167  -8.7574  -8.6299  -8.6128  -8.5378
    -8.4461  -8.4234  -8.1725  -8.0818  -8.0230  -7.9045  -7.5293  -7.3465
    -7.2382  -7.1319  -6.9939  -6.8305  -6.7663  -6.4404  -6.3402  -6.3321
    -6.2850  -6.1937  -6.0020  -5.9812  -5.9254  -5.9215  -5.8209  -5.8201
    -5.8172  -5.6501  -5.5896  -5.5820  -5.4754  -5.4480  -5.4054  -5.3447
    -5.3238  -5.2178  -5.1686  -5.0511  -5.0493  -5.0209  -4.9590  -4.9526
    -4.9171  -4.9143  -4.8877  -4.8750  -4.8638  -4.8469  -4.7954  -4.7239
    -1.5801   0.2846   0.3060   0.4122   0.5300   0.6757   1.0758   1.2606
     1.2766   1.5313   1.6545   1.6678   1.7522   1.9169   2.0167   2.2045

          k = 0.0492 0.0000 0.0000 (219815 PWs)   bands (ev):

   -22.7595 -22.5399 -22.5007 -22.4674 -22.4607 -22.4586 -22.3357 -22.3322
   -22.3195 -22.3090 -22.2099 -22.1687 -22.1678 -22.1623 -22.1583 -22.1144
   -22.0686 -22.0541 -22.0524 -22.0494 -22.0474 -22.0181 -21.9871 -21.9099
   -16.7666 -16.7619 -16.7548 -16.7543 -16.7542 -16.7346 -16.7271 -16.7144
   -16.6941 -16.6905 -16.6894 -16.6842 -16.6581 -16.6578 -16.6539 -16.6408
   -16.6288 -16.6197 -16.5850 -16.5738 -16.5103 -16.5076 -16.4967 -16.4957
   -16.4937 -16.4831 -16.4690 -16.4646 -16.4621 -16.4434 -16.4249 -16.4211
   -16.3804 -16.3255 -16.3167 -16.3038 -16.2849 -16.2715 -16.2416 -16.2092
   -10.5075 -10.3257 -10.2469 -10.2252 -10.2148 -10.1217 -10.0559  -9.9020
    -9.8573  -9.8171  -9.6978  -9.6469  -9.3716  -9.3604  -9.2591  -9.0927
    -9.0576  -8.8798  -8.8684  -8.8166  -8.7552  -8.6266  -8.6144  -8.5380
    -8.4512  -8.4224  -8.1745  -8.1087  -8.0197  -7.8726  -7.5314  -7.3538
    -7.2280  -7.1308  -7.0101  -6.8128  -6.7659  -6.4422  -6.3413  -6.3400
    -6.2850  -6.1939  -6.0051  -5.9797  -5.9283  -5.9120  -5.8222  -5.8197
    -5.8141  -5.6514  -5.5915  -5.5829  -5.4790  -5.4462  -5.4031  -5.3431
    -5.3239  -5.2192  -5.1692  -5.0509  -5.0495  -5.0201  -4.9592  -4.9534
    -4.9283  -4.9172  -4.8763  -4.8724  -4.8642  -4.8478  -4.7936  -4.7260
    -1.5745   0.2359   0.3079   0.4133   0.5786   0.6777   1.0754   1.2566
     1.2786   1.5334   1.6552   1.6702   1.7289   1.9179   2.0403   2.2028

          k = 0.0738 0.0000 0.0000 (219781 PWs)   bands (ev):

   -22.7585 -22.5394 -22.5108 -22.4687 -22.4594 -22.4496 -22.3400 -22.3326
   -22.3182 -22.3049 -22.2110 -22.1682 -22.1675 -22.1605 -22.1595 -22.1138
   -22.0715 -22.0544 -22.0500 -22.0500 -22.0486 -22.0181 -21.9860 -21.9103
   -16.7664 -16.7620 -16.7549 -16.7545 -16.7537 -16.7361 -16.7256 -16.7142
   -16.6941 -16.6906 -16.6894 -16.6847 -16.6585 -16.6573 -16.6561 -16.6406
   -16.6290 -16.6171 -16.5848 -16.5747 -16.5097 -16.5075 -16.4965 -16.4957
   -16.4938 -16.4830 -16.4704 -16.4651 -16.4608 -16.4435 -16.4249 -16.4200
   -16.3812 -16.3241 -16.3174 -16.3066 -16.2852 -16.2688 -16.2423 -16.2091
   -10.5067 -10.3295 -10.2466 -10.2214 -10.2152 -10.1209 -10.0564  -9.9102
    -9.8561  -9.8098  -9.6979  -9.6479  -9.3694  -9.3580  -9.2575  -9.0907
    -9.0608  -8.8851  -8.8699  -8.8162  -8.7516  -8.6211  -8.6171  -8.5386
    -8.4600  -8.4207  -8.1777  -8.1406  -8.0143  -7.8323  -7.5350  -7.3636
    -7.2134  -7.1289  -7.0317  -6.7887  -6.7654  -6.4451  -6.3555  -6.3398
    -6.2849  -6.1940  -6.0102  -5.9787  -5.9328  -5.8961  -5.8244  -5.8189
    -5.8094  -5.6532  -5.5947  -5.5842  -5.4846  -5.4434  -5.3994  -5.3407
    -5.3241  -5.2215  -5.1703  -5.0507  -5.0499  -5.0189  -4.9599  -4.9543
    -4.9424  -4.9172  -4.8682  -4.8664  -4.8647  -4.8494  -4.7906  -4.7295
    -1.5652   0.1766   0.3111   0.4150   0.6376   0.6810   1.0747   1.2499
     1.2820   1.5370   1.6564   1.6740   1.6968   1.9195   2.0726   2.1710

          k = 0.0984 0.0000 0.0000 (219793 PWs)   bands (ev):

   -22.7570 -22.5388 -22.5211 -22.4702 -22.4581 -22.4408 -22.3447 -22.3332
   -22.3164 -22.3004 -22.2124 -22.1674 -22.1672 -22.1610 -22.1582 -22.1131
   -22.0748 -22.0548 -22.0508 -22.0503 -22.0475 -22.0180 -21.9846 -21.9109
   -16.7661 -16.7621 -16.7549 -16.7547 -16.7531 -16.7377 -16.7240 -16.7139
   -16.6940 -16.6908 -16.6894 -16.6854 -16.6591 -16.6585 -16.6566 -16.6403
   -16.6293 -16.6140 -16.5845 -16.5760 -16.5089 -16.5075 -16.4963 -16.4957
   -16.4938 -16.4829 -16.4719 -16.4657 -16.4596 -16.4437 -16.4250 -16.4187
   -16.3820 -16.3222 -16.3184 -16.3099 -16.2856 -16.2656 -16.2433 -16.2090
   -10.5055 -10.3344 -10.2462 -10.2165 -10.2156 -10.1197 -10.0572  -9.9197
    -9.8545  -9.8016  -9.6980  -9.6491  -9.3665  -9.3543  -9.2551  -9.0880
    -9.0653  -8.8920  -8.8719  -8.8155  -8.7468  -8.6207  -8.6139  -8.5394
    -8.4727  -8.4184  -8.1820  -8.1726  -8.0071  -7.7880  -7.5400  -7.3744
    -7.1961  -7.1263  -7.0558  -6.7648  -6.7612  -6.4492  -6.3735  -6.3401
    -6.2842  -6.1938  -6.0172  -5.9788  -5.9385  -5.8749  -5.8275  -5.8180
    -5.8033  -5.6554  -5.5993  -5.5861  -5.4918  -5.4397  -5.3941  -5.3376
    -5.3245  -5.2244  -5.1720  -5.0504  -5.0504  -5.0176  -4.9616  -4.9565
    -4.9547  -4.9168  -4.8656  -4.8627  -4.8585  -4.8515  -4.7860  -4.7344
    -1.5522   0.1132   0.3155   0.4174   0.6855   0.7006   1.0738   1.2407
     1.2867   1.5420   1.6580   1.6602   1.6794   1.9217   2.1092   2.1523

          k = 0.1230 0.0000 0.0000 (219808 PWs)   bands (ev):

   -22.7551 -22.5380 -22.5315 -22.4718 -22.4566 -22.4324 -22.3495 -22.3339
   -22.3139 -22.2958 -22.2140 -22.1667 -22.1664 -22.1629 -22.1554 -22.1123
   -22.0782 -22.0553 -22.0523 -22.0519 -22.0451 -22.0180 -21.9829 -21.9117
   -16.7657 -16.7623 -16.7550 -16.7550 -16.7523 -16.7392 -16.7225 -16.7135
   -16.6939 -16.6911 -16.6895 -16.6864 -16.6608 -16.6598 -16.6558 -16.6399
   -16.6297 -16.6107 -16.5842 -16.5776 -16.5079 -16.5074 -16.4959 -16.4957
   -16.4939 -16.4827 -16.4734 -16.4665 -16.4583 -16.4439 -16.4251 -16.4176
   -16.3825 -16.3200 -16.3196 -16.3135 -16.2860 -16.2621 -16.2445 -16.2089
   -10.5041 -10.3400 -10.2457 -10.2162 -10.2108 -10.1183 -10.0582  -9.9299
    -9.8524  -9.7933  -9.6981  -9.6507  -9.3627  -9.3495  -9.2522  -9.0847
    -9.0708  -8.9004  -8.8746  -8.8145  -8.7411  -8.6251  -8.6053  -8.5405
    -8.4898  -8.4154  -8.2025  -8.1872  -7.9983  -7.7419  -7.5464  -7.3851
    -7.1770  -7.1228  -7.0807  -6.7644  -6.7319  -6.4543  -6.3936  -6.3412
    -6.2827  -6.1930  -6.0259  -5.9800  -5.9451  -5.8495  -5.8316  -5.8171
    -5.7962  -5.6577  -5.6054  -5.5883  -5.5001  -5.4351  -5.3876  -5.3343
    -5.3250  -5.2278  -5.1743  -5.0512  -5.0500  -5.0165  -4.9702  -4.9644
    -4.9546  -4.9161  -4.8667  -4.8559  -4.8541  -4.8528  -4.7800  -4.7405
    -1.5357   0.0479   0.3210   0.4203   0.6914   0.7653   1.0727   1.2290
     1.2927   1.5483   1.6216   1.6599   1.6864   1.9244   2.1323   2.1471

          k = 0.1476 0.0000 0.0000 (219836 PWs)   bands (ev):

   -22.7528 -22.5419 -22.5371 -22.4736 -22.4550 -22.4244 -22.3543 -22.3348
   -22.3110 -22.2913 -22.2157 -22.1661 -22.1652 -22.1652 -22.1523 -22.1113
   -22.0818 -22.0560 -22.0547 -22.0533 -22.0427 -22.0179 -21.9808 -21.9126
   -16.7652 -16.7624 -16.7553 -16.7551 -16.7514 -16.7408 -16.7209 -16.7131
   -16.6938 -16.6915 -16.6895 -16.6880 -16.6627 -16.6604 -16.6548 -16.6394
   -16.6301 -16.6073 -16.5839 -16.5794 -16.5072 -16.5067 -16.4956 -16.4955
   -16.4940 -16.4825 -16.4749 -16.4672 -16.4572 -16.4441 -16.4252 -16.4169
   -16.3823 -16.3211 -16.3175 -16.3171 -16.2867 -16.2586 -16.2460 -16.2088
   -10.5023 -10.3463 -10.2452 -10.2169 -10.2044 -10.1166 -10.0594  -9.9404
    -9.8498  -9.7854  -9.6983  -9.6526  -9.3581  -9.3433  -9.2486  -9.0808
    -9.0774  -8.9097  -8.8778  -8.8130  -8.7345  -8.6304  -8.5954  -8.5420
    -8.5111  -8.4118  -8.2293  -8.1930  -7.9880  -7.6949  -7.5540  -7.3954
    -7.1569  -7.1185  -7.1055  -6.7646  -6.7018  -6.4605  -6.4148  -6.3434
    -6.2799  -6.1917  -6.0361  -5.9821  -5.9523  -5.8366  -5.8214  -5.8161
    -5.7885  -5.6597  -5.6132  -5.5909  -5.5090  -5.4299  -5.3797  -5.3307
    -5.3257  -5.2316  -5.1774  -5.0522  -5.0495  -5.0157  -4.9832  -4.9681
    -4.9540  -4.9148  -4.8682  -4.8570  -4.8489  -4.8482  -4.7729  -4.7479
    -1.5157  -0.0182   0.3277   0.4238   0.6985   0.8306   1.0716   1.2151
     1.3000   1.5561   1.5823   1.6620   1.6949   1.9276   2.1075   2.1739

          k = 0.1722 0.0000 0.0000 (219842 PWs)   bands (ev):

   -22.7501 -22.5523 -22.5359 -22.4754 -22.4534 -22.4169 -22.3592 -22.3358
   -22.3074 -22.2867 -22.2176 -22.1678 -22.1654 -22.1638 -22.1489 -22.1104
   -22.0855 -22.0573 -22.0567 -22.0549 -22.0404 -22.0179 -21.9786 -21.9136
   -16.7647 -16.7625 -16.7557 -16.7551 -16.7503 -16.7423 -16.7194 -16.7127
   -16.6936 -16.6921 -16.6901 -16.6895 -16.6640 -16.6611 -16.6538 -16.6388
   -16.6306 -16.6040 -16.5835 -16.5815 -16.5070 -16.5054 -16.4956 -16.4949
   -16.4939 -16.4822 -16.4764 -16.4679 -16.4561 -16.4444 -16.4254 -16.4170
   -16.3812 -16.3227 -16.3208 -16.3149 -16.2874 -16.2550 -16.2477 -16.2087
   -10.5002 -10.3530 -10.2445 -10.2177 -10.1977 -10.1146 -10.0609  -9.9509
    -9.8469  -9.7781  -9.6984  -9.6548  -9.3528  -9.3355  -9.2444  -9.0850
    -9.0764  -8.9198  -8.8817  -8.8109  -8.7272  -8.6362  -8.5846  -8.5439
    -8.5367  -8.4076  -8.2526  -8.1995  -7.9765  -7.6477  -7.5629  -7.4048
    -7.1362  -7.1297  -7.1134  -6.7656  -6.6716  -6.4677  -6.4357  -6.3471
    -6.2758  -6.1899  -6.0475  -5.9850  -5.9599  -5.8426  -5.8153  -5.7916
    -5.7803  -5.6612  -5.6228  -5.5936  -5.5181  -5.4241  -5.3706  -5.3271
    -5.3268  -5.2357  -5.1814  -5.0535  -5.0490  -5.0153  -4.9953  -4.9726
    -4.9532  -4.9130  -4.8702  -4.8600  -4.8468  -4.8395  -4.7651  -4.7563
    -1.4923  -0.0846   0.3354   0.4278   0.7067   0.8961   1.0705   1.1990
     1.3086   1.5432   1.5653   1.6641   1.7050   1.9311   2.0830   2.1599

          k = 0.1968 0.0000 0.0000 (219914 PWs)   bands (ev):

   -22.7470 -22.5627 -22.5346 -22.4774 -22.4515 -22.4099 -22.3641 -22.3369
   -22.3032 -22.2823 -22.2194 -22.1707 -22.1645 -22.1622 -22.1452 -22.1094
   -22.0893 -22.0601 -22.0576 -22.0566 -22.0382 -22.0179 -21.9761 -21.9149
   -16.7640 -16.7626 -16.7560 -16.7552 -16.7491 -16.7437 -16.7180 -16.7122
   -16.6935 -16.6930 -16.6927 -16.6895 -16.6648 -16.6616 -16.6527 -16.6380
   -16.6311 -16.6009 -16.5838 -16.5832 -16.5068 -16.5040 -16.4956 -16.4942
   -16.4938 -16.4819 -16.4778 -16.4685 -16.4551 -16.4447 -16.4258 -16.4179
   -16.3791 -16.3245 -16.3244 -16.3122 -16.2883 -16.2514 -16.2497 -16.2087
   -10.4978 -10.3599 -10.2437 -10.2185 -10.1907 -10.1123 -10.0626  -9.9614
    -9.8435  -9.7718  -9.6985  -9.6571  -9.3468  -9.3262  -9.2396  -9.0933
    -9.0716  -8.9301  -8.8860  -8.8084  -8.7194  -8.6427  -8.5732  -8.5659
    -8.5462  -8.4029  -8.2726  -8.2064  -7.9638  -7.6009  -7.5729  -7.4133
    -7.1528  -7.1154  -7.1073  -6.7679  -6.6418  -6.4757  -6.4555  -6.3521
    -6.2704  -6.1878  -6.0598  -5.9885  -5.9676  -5.8497  -5.8145  -5.7718
    -5.7609  -5.6620  -5.6339  -5.5964  -5.5269  -5.4179  -5.3603  -5.3282
    -5.3235  -5.2398  -5.1863  -5.0552  -5.0483  -5.0155  -5.0063  -4.9775
    -4.9522  -4.9107  -4.8730  -4.8629  -4.8458  -4.8301  -4.7657  -4.7570
    -1.4656  -0.1511   0.3440   0.4321   0.7160   0.9613   1.0695   1.1811
     1.3185   1.5047   1.5759   1.6660   1.7167   1.9349   2.0582   2.1435

          k = 0.2214 0.0000 0.0000 (219914 PWs)   bands (ev):

   -22.7435 -22.5730 -22.5332 -22.4795 -22.4496 -22.4036 -22.3689 -22.3382
   -22.2986 -22.2780 -22.2213 -22.1739 -22.1634 -22.1603 -22.1414 -22.1085
   -22.0931 -22.0630 -22.0587 -22.0585 -22.0362 -22.0178 -21.9735 -21.9162
   -16.7634 -16.7627 -16.7564 -16.7551 -16.7478 -16.7451 -16.7166 -16.7117
   -16.6957 -16.6941 -16.6933 -16.6895 -16.6652 -16.6620 -16.6515 -16.6371
   -16.6317 -16.5980 -16.5863 -16.5829 -16.5065 -16.5027 -16.4956 -16.4935
   -16.4934 -16.4816 -16.4791 -16.4691 -16.4541 -16.4450 -16.4262 -16.4195
   -16.3761 -16.3279 -16.3264 -16.3094 -16.2894 -16.2518 -16.2479 -16.2087
   -10.4950 -10.3670 -10.2429 -10.2194 -10.1836 -10.1098 -10.0646  -9.9716
    -9.8397  -9.7665  -9.6986  -9.6597  -9.3400  -9.3151  -9.2342  -9.1023
    -9.0667  -8.9406  -8.8910  -8.8053  -8.7112  -8.6496  -8.5980  -8.5612
    -8.5491  -8.3976  -8.2897  -8.2137  -7.9503  -7.5840  -7.5550  -7.4205
    -7.1744  -7.1003  -7.0948  -6.7721  -6.6128  -6.4843  -6.4731  -6.3584
    -6.2637  -6.1854  -6.0726  -5.9925  -5.9754  -5.8580  -5.8139  -5.7631
    -5.7303  -5.6620  -5.6465  -5.5990  -5.5354  -5.4112  -5.3489  -5.3301
    -5.3201  -5.2439  -5.1924  -5.0573  -5.0475  -5.0162  -5.0159  -4.9829
    -4.9510  -4.9080  -4.8766  -4.8654  -4.8458  -4.8202  -4.7759  -4.7491
    -1.4358  -0.2174   0.3534   0.4366   0.7265   1.0260   1.0689   1.1614
     1.3296   1.4671   1.5878   1.6674   1.7300   1.9389   2.0335   2.1247

          k = 0.2460 0.0000 0.0000 (219874 PWs)   bands (ev):

   -22.7395 -22.5832 -22.5316 -22.4817 -22.4475 -22.3977 -22.3737 -22.3396
   -22.2934 -22.2739 -22.2232 -22.1774 -22.1622 -22.1582 -22.1374 -22.1077
   -22.0970 -22.0659 -22.0609 -22.0596 -22.0342 -22.0179 -21.9708 -21.9178
   -16.7627 -16.7627 -16.7567 -16.7550 -16.7465 -16.7464 -16.7154 -16.7112
   -16.6989 -16.6954 -16.6931 -16.6896 -16.6652 -16.6622 -16.6504 -16.6360
   -16.6324 -16.5953 -16.5889 -16.5827 -16.5061 -16.5014 -16.4956 -16.4930
   -16.4925 -16.4812 -16.4804 -16.4696 -16.4533 -16.4453 -16.4268 -16.4217
   -16.3724 -16.3311 -16.3284 -16.3066 -16.2908 -16.2541 -16.2445 -16.2088
   -10.4920 -10.3742 -10.2420 -10.2203 -10.1763 -10.1070 -10.0668  -9.9815
    -9.8355  -9.7624  -9.6985  -9.6624  -9.3327  -9.3023  -9.2283  -9.1120
    -9.0618  -8.9506  -8.8965  -8.8016  -8.7027  -8.6568  -8.6322  -8.5524
    -8.5489  -8.3917  -8.3047  -8.2213  -7.9359  -7.5961  -7.5108  -7.4265
    -7.1938  -7.0923  -7.0750  -6.7784  -6.5854  -6.4934  -6.4880  -6.3659
    -6.2561  -6.1827  -6.0852  -5.9970  -5.9832  -5.8676  -5.8133  -5.7544
    -5.7007  -5.6611  -5.6603  -5.6008  -5.5435  -5.4042  -5.3364  -5.3326
    -5.3168  -5.2480  -5.1995  -5.0601  -5.0466  -5.0241  -5.0174  -4.9884
    -4.9497  -4.9049  -4.8809  -4.8676  -4.8465  -4.8099  -4.7867  -4.7417
    -1.4030  -0.2834   0.3635   0.4413   0.7379   1.0688   1.0899   1.1403
     1.3418   1.4306   1.6010   1.6681   1.7449   1.9428   2.0097   2.1036

          k = 0.0174 0.0174 0.0000 (219812 PWs)   bands (ev):

   -22.7602 -22.5407 -22.4889 -22.4697 -22.4660 -22.4616 -22.3320 -22.3316
   -22.3205 -22.3133 -22.2089 -22.1691 -22.1680 -22.1635 -22.1575 -22.1148
   -22.0658 -22.0547 -22.0539 -22.0489 -22.0465 -22.0181 -21.9880 -21.9097
   -16.7668 -16.7618 -16.7555 -16.7542 -16.7538 -16.7329 -16.7289 -16.7146
   -16.6942 -16.6905 -16.6891 -16.6840 -16.6582 -16.6579 -16.6518 -16.6411
   -16.6287 -16.6220 -16.5851 -16.5731 -16.5107 -16.5076 -16.4968 -16.4957
   -16.4936 -16.4832 -16.4675 -16.4642 -16.4635 -16.4433 -16.4249 -16.4220
   -16.3798 -16.3266 -16.3166 -16.3011 -16.2847 -16.2738 -16.2411 -16.2092
   -10.5080 -10.3228 -10.2479 -10.2280 -10.2140 -10.1223 -10.0554  -9.8962
    -9.8567  -9.8236  -9.6982  -9.6460  -9.3731  -9.3618  -9.2607  -9.0935
    -9.0553  -8.8812  -8.8620  -8.8169  -8.7580  -8.6306  -8.6123  -8.5378
    -8.4453  -8.4250  -8.1709  -8.0761  -8.0235  -7.9110  -7.5286  -7.3454
    -7.2395  -7.1330  -6.9911  -6.8334  -6.7653  -6.4401  -6.3413  -6.3304
    -6.2849  -6.1940  -6.0016  -5.9809  -5.9245  -5.9230  -5.8208  -5.8201
    -5.8173  -5.6501  -5.5895  -5.5821  -5.4754  -5.4482  -5.4057  -5.3457
    -5.3235  -5.2169  -5.1687  -5.0511  -5.0495  -5.0209  -4.9590  -4.9533
    -4.9175  -4.9106  -4.8920  -4.8742  -4.8635  -4.8462  -4.7955  -4.7236
    -1.5801   0.2950   0.3060   0.4035   0.5203   0.6837   1.0757   1.2609
     1.2766   1.5313   1.6517   1.6678   1.7569   1.9186   2.0123   2.1993

          k = 0.0348 0.0348 0.0000 (219799 PWs)   bands (ev):

   -22.7596 -22.5418 -22.4949 -22.4666 -22.4638 -22.4600 -22.3337 -22.3321
   -22.3202 -22.3120 -22.2086 -22.1689 -22.1679 -22.1629 -22.1579 -22.1147
   -22.0670 -22.0540 -22.0536 -22.0491 -22.0469 -22.0178 -21.9878 -21.9100
   -16.7667 -16.7618 -16.7562 -16.7543 -16.7528 -16.7337 -16.7283 -16.7148
   -16.6943 -16.6906 -16.6884 -16.6841 -16.6584 -16.6580 -16.6521 -16.6413
   -16.6288 -16.6213 -16.5848 -16.5733 -16.5105 -16.5076 -16.4967 -16.4957
   -16.4936 -16.4831 -16.4683 -16.4644 -16.4628 -16.4434 -16.4248 -16.4215
   -16.3803 -16.3261 -16.3179 -16.3011 -16.2844 -16.2729 -16.2413 -16.2093
   -10.5075 -10.3237 -10.2502 -10.2265 -10.2127 -10.1222 -10.0552  -9.9019
    -9.8532  -9.8209  -9.6996  -9.6456  -9.3724  -9.3601  -9.2612  -9.0914
    -9.0564  -8.8903  -8.8547  -8.8173  -8.7573  -8.6290  -8.6126  -8.5382
    -8.4480  -8.4286  -8.1685  -8.0913  -8.0215  -7.8933  -7.5286  -7.3498
    -7.2328  -7.1353  -7.0005  -6.8228  -6.7618  -6.4407  -6.3445  -6.3348
    -6.2845  -6.1952  -6.0036  -5.9782  -5.9247  -5.9182  -5.8219  -5.8195
    -5.8143  -5.6511  -5.5913  -5.5831  -5.4788  -5.4475  -5.4043  -5.3471
    -5.3228  -5.2157  -5.1695  -5.0510  -5.0504  -5.0203  -4.9593  -4.9558
    -4.9224  -4.9169  -4.8868  -4.8688  -4.8631  -4.8452  -4.7944  -4.7248
    -1.5747   0.2678   0.3079   0.3812   0.5498   0.7069   1.0749   1.2578
     1.2787   1.5335   1.6445   1.6701   1.7452   1.9242   2.0248   2.1889

          k = 0.0522 0.0522 0.0000 (219778 PWs)   bands (ev):

   -22.7586 -22.5437 -22.5015 -22.4672 -22.4577 -22.4574 -22.3366 -22.3323
   -22.3197 -22.3103 -22.2081 -22.1687 -22.1679 -22.1619 -22.1584 -22.1145
   -22.0687 -22.0541 -22.0521 -22.0494 -22.0475 -22.0174 -21.9875 -21.9105
   -16.7665 -16.7618 -16.7569 -16.7546 -16.7518 -16.7348 -16.7276 -16.7151
   -16.6944 -16.6908 -16.6873 -16.6842 -16.6591 -16.6578 -16.6524 -16.6417
   -16.6290 -16.6203 -16.5844 -16.5736 -16.5101 -16.5075 -16.4966 -16.4957
   -16.4936 -16.4830 -16.4693 -16.4648 -16.4620 -16.4434 -16.4248 -16.4208
   -16.3811 -16.3254 -16.3200 -16.3011 -16.2841 -16.2716 -16.2417 -16.2094
   -10.5066 -10.3253 -10.2535 -10.2241 -10.2110 -10.1220 -10.0549  -9.9092
    -9.8497  -9.8165  -9.7019  -9.6451  -9.3712  -9.3572  -9.2622  -9.0878
    -9.0581  -8.9002  -8.8477  -8.8179  -8.7564  -8.6265  -8.6130  -8.5388
    -8.4525  -8.4344  -8.1650  -8.1114  -8.0181  -7.8692  -7.5287  -7.3559
    -7.2229  -7.1388  -7.0137  -6.8075  -6.7563  -6.4417  -6.3505  -6.3411
    -6.2836  -6.1970  -6.0069  -5.9747  -5.9248  -5.9103  -5.8236  -5.8184
    -5.8094  -5.6529  -5.5944  -5.5848  -5.4838  -5.4469  -5.4019  -5.3490
    -5.3217  -5.2139  -5.1707  -5.0520  -5.0507  -5.0194  -4.9619  -4.9577
    -4.9325  -4.9185  -4.8842  -4.8624  -4.8607  -4.8436  -4.7923  -4.7267
    -1.5658   0.2322   0.3111   0.3501   0.5889   0.7394   1.0732   1.2530
     1.2821   1.5371   1.6333   1.6738   1.7281   1.9325   2.0430   2.1780

          k = 0.0696 0.0696 0.0000 (219774 PWs)   bands (ev):

   -22.7573 -22.5462 -22.5082 -22.4679 -22.4549 -22.4508 -22.3401 -22.3326
   -22.3189 -22.3083 -22.2075 -22.1683 -22.1678 -22.1605 -22.1592 -22.1142
   -22.0706 -22.0544 -22.0506 -22.0495 -22.0484 -22.0168 -21.9872 -21.9113
   -16.7663 -16.7618 -16.7573 -16.7549 -16.7507 -16.7360 -16.7269 -16.7155
   -16.6943 -16.6912 -16.6859 -16.6845 -16.6599 -16.6575 -16.6528 -16.6422
   -16.6293 -16.6191 -16.5839 -16.5741 -16.5095 -16.5074 -16.4963 -16.4956
   -16.4935 -16.4829 -16.4703 -16.4653 -16.4611 -16.4435 -16.4248 -16.4198
   -16.3820 -16.3244 -16.3226 -16.3012 -16.2836 -16.2700 -16.2422 -16.2095
   -10.5054 -10.3274 -10.2575 -10.2208 -10.2093 -10.1216 -10.0545  -9.9171
    -9.8470  -9.8103  -9.7049  -9.6444  -9.3696  -9.3532  -9.2633  -9.0831
    -9.0605  -8.9107  -8.8413  -8.8188  -8.7551  -8.6230  -8.6135  -8.5397
    -8.4589  -8.4418  -8.1610  -8.1333  -8.0131  -7.8419  -7.5289  -7.3626
    -7.2110  -7.1433  -7.0288  -6.7891  -6.7488  -6.4431  -6.3600  -6.3482
    -6.2821  -6.1990  -6.0115  -5.9717  -5.9241  -5.8995  -5.8262  -5.8170
    -5.8024  -5.6554  -5.5987  -5.5870  -5.4899  -5.4468  -5.3987  -5.3511
    -5.3201  -5.2120  -5.1722  -5.0542  -5.0505  -5.0185  -4.9674  -4.9578
    -4.9424  -4.9201  -4.8826  -4.8617  -4.8520  -4.8417  -4.7894  -4.7293
    -1.5533   0.1931   0.3133   0.3163   0.6330   0.7771   1.0704   1.2470
     1.2869   1.5421   1.6190   1.6790   1.7075   1.9420   2.0643   2.1664

          k = 0.0870 0.0870 0.0000 (219800 PWs)   bands (ev):

   -22.7556 -22.5491 -22.5150 -22.4687 -22.4516 -22.4444 -22.3440 -22.3331
   -22.3179 -22.3064 -22.2067 -22.1679 -22.1677 -22.1602 -22.1587 -22.1139
   -22.0727 -22.0547 -22.0506 -22.0495 -22.0483 -22.0161 -21.9868 -21.9122
   -16.7661 -16.7618 -16.7576 -16.7552 -16.7496 -16.7372 -16.7262 -16.7160
   -16.6942 -16.6918 -16.6848 -16.6844 -16.6607 -16.6571 -16.6532 -16.6428
   -16.6296 -16.6179 -16.5834 -16.5749 -16.5088 -16.5073 -16.4960 -16.4955
   -16.4935 -16.4827 -16.4715 -16.4658 -16.4603 -16.4437 -16.4249 -16.4188
   -16.3829 -16.3256 -16.3233 -16.3014 -16.2830 -16.2681 -16.2429 -16.2096
   -10.5039 -10.3299 -10.2620 -10.2169 -10.2078 -10.1211 -10.0540  -9.9251
    -9.8451  -9.8031  -9.7085  -9.6439  -9.3676  -9.3479  -9.2647  -9.0772
    -9.0636  -8.9216  -8.8354  -8.8197  -8.7537  -8.6187  -8.6141  -8.5409
    -8.4670  -8.4505  -8.1571  -8.1553  -8.0066  -7.8132  -7.5290  -7.3690
    -7.1981  -7.1483  -7.0442  -6.7690  -6.7398  -6.4449  -6.3723  -6.3560
    -6.2802  -6.2009  -6.0174  -5.9699  -5.9222  -5.8867  -5.8295  -5.8152
    -5.7933  -5.6586  -5.6044  -5.5898  -5.4967  -5.4475  -5.3948  -5.3530
    -5.3182  -5.2104  -5.1736  -5.0570  -5.0503  -5.0181  -4.9742  -4.9575
    -4.9515  -4.9220  -4.8812  -4.8609  -4.8438  -4.8397  -4.7854  -4.7325
    -1.5373   0.1527   0.2758   0.3208   0.6798   0.8174   1.0661   1.2405
     1.2931   1.5486   1.6027   1.6833   1.6877   1.9514   2.0862   2.1543

          k = 0.1044 0.1044 0.0000 (219776 PWs)   bands (ev):

   -22.7534 -22.5524 -22.5218 -22.4698 -22.4481 -22.4381 -22.3480 -22.3337
   -22.3166 -22.3044 -22.2060 -22.1675 -22.1674 -22.1613 -22.1566 -22.1135
   -22.0748 -22.0551 -22.0512 -22.0508 -22.0465 -22.0152 -21.9863 -21.9134
   -16.7657 -16.7619 -16.7577 -16.7557 -16.7485 -16.7385 -16.7257 -16.7165
   -16.6939 -16.6926 -16.6852 -16.6829 -16.6613 -16.6566 -16.6536 -16.6436
   -16.6299 -16.6166 -16.5828 -16.5758 -16.5080 -16.5071 -16.4955 -16.4955
   -16.4934 -16.4826 -16.4726 -16.4663 -16.4594 -16.4439 -16.4249 -16.4178
   -16.3836 -16.3288 -16.3220 -16.3018 -16.2822 -16.2661 -16.2437 -16.2098
   -10.5020 -10.3326 -10.2668 -10.2123 -10.2068 -10.1204 -10.0534  -9.9329
    -9.8437  -9.7954  -9.7124  -9.6436  -9.3651  -9.3413  -9.2660  -9.0703
    -9.0673  -8.9327  -8.8300  -8.8208  -8.7522  -8.6147  -8.6137  -8.5423
    -8.4770  -8.4599  -8.1766  -8.1540  -7.9985  -7.7843  -7.5293  -7.3746
    -7.1854  -7.1535  -7.0585  -6.7477  -6.7295  -6.4471  -6.3866  -6.3649
    -6.2781  -6.2023  -6.0247  -5.9699  -5.9188  -5.8728  -5.8338  -5.8130
    -5.7820  -5.6625  -5.6115  -5.5931  -5.5037  -5.4489  -5.3901  -5.3544
    -5.3161  -5.2096  -5.1746  -5.0606  -5.0499  -5.0186  -4.9817  -4.9594
    -4.9571  -4.9239  -4.8800  -4.8602  -4.8378  -4.8365  -4.7803  -4.7363
    -1.5180   0.1120   0.2366   0.3269   0.7282   0.8582   1.0599   1.2345
     1.3006   1.5564   1.5852   1.6616   1.6946   1.9593   2.1061   2.1424

          k = 0.1218 0.1218 0.0000 (219789 PWs)   bands (ev):

   -22.7510 -22.5559 -22.5284 -22.4711 -22.4442 -22.4320 -22.3522 -22.3344
   -22.3150 -22.3023 -22.2052 -22.1672 -22.1669 -22.1625 -22.1541 -22.1131
   -22.0770 -22.0556 -22.0522 -22.0520 -22.0446 -22.0142 -21.9857 -21.9148
   -16.7654 -16.7621 -16.7575 -16.7561 -16.7472 -16.7397 -16.7252 -16.7170
   -16.6937 -16.6935 -16.6856 -16.6814 -16.6617 -16.6559 -16.6541 -16.6444
   -16.6304 -16.6154 -16.5823 -16.5771 -16.5071 -16.5068 -16.4954 -16.4948
   -16.4934 -16.4824 -16.4737 -16.4669 -16.4586 -16.4441 -16.4251 -16.4170
   -16.3840 -16.3321 -16.3206 -16.3022 -16.2814 -16.2641 -16.2447 -16.2101
   -10.4998 -10.3355 -10.2719 -10.2072 -10.2065 -10.1193 -10.0528  -9.9404
    -9.8425  -9.7877  -9.7166  -9.6436  -9.3622  -9.3333  -9.2674  -9.0716
    -9.0627  -8.9440  -8.8251  -8.8220  -8.7507  -8.6154  -8.6080  -8.5439
    -8.4888  -8.4697  -8.1967  -8.1522  -7.9887  -7.7562  -7.5296  -7.3789
    -7.1743  -7.1582  -7.0698  -6.7259  -6.7183  -6.4497  -6.4018  -6.3747
    -6.2763  -6.2028  -6.0333  -5.9713  -5.9141  -5.8586  -5.8392  -5.8106
    -5.7683  -5.6671  -5.6201  -5.5967  -5.5107  -5.4510  -5.3848  -5.3551
    -5.3137  -5.2100  -5.1749  -5.0648  -5.0495  -5.0206  -4.9894  -4.9655
    -4.9565  -4.9258  -4.8787  -4.8595  -4.8363  -4.8305  -4.7743  -4.7404
    -1.4954   0.0717   0.1971   0.3337   0.7774   0.8980   1.0522   1.2297
     1.3095   1.5630   1.5694   1.6385   1.7046   1.9644   2.1206   2.1306

          k = 0.1392 0.1392 0.0000 (219808 PWs)   bands (ev):

   -22.7481 -22.5595 -22.5350 -22.4727 -22.4403 -22.4261 -22.3563 -22.3353
   -22.3130 -22.3003 -22.2045 -22.1669 -22.1667 -22.1636 -22.1514 -22.1126
   -22.0792 -22.0564 -22.0537 -22.0529 -22.0427 -22.0131 -21.9851 -21.9163
   -16.7651 -16.7622 -16.7572 -16.7566 -16.7460 -16.7409 -16.7248 -16.7175
   -16.6950 -16.6931 -16.6859 -16.6800 -16.6619 -16.6549 -16.6545 -16.6452
   -16.6308 -16.6142 -16.5820 -16.5786 -16.5065 -16.5061 -16.4953 -16.4940
   -16.4932 -16.4822 -16.4748 -16.4674 -16.4577 -16.4443 -16.4253 -16.4166
   -16.3839 -16.3354 -16.3193 -16.3027 -16.2804 -16.2622 -16.2459 -16.2105
   -10.4973 -10.3386 -10.2770 -10.2070 -10.2016 -10.1180 -10.0520  -9.9475
    -9.8416  -9.7801  -9.7210  -9.6440  -9.3589  -9.3241  -9.2686  -9.0765
    -9.0545  -8.9552  -8.8233  -8.8206  -8.7495  -8.6160  -8.6019  -8.5458
    -8.5020  -8.4795  -8.2154  -8.1521  -7.9773  -7.7296  -7.5300  -7.3815
    -7.1672  -7.1621  -7.0755  -6.7064  -6.7039  -6.4525  -6.4175  -6.3855
    -6.2751  -6.2019  -6.0433  -5.9740  -5.9083  -5.8458  -5.8449  -5.8079
    -5.7524  -5.6722  -5.6298  -5.6007  -5.5173  -5.4537  -5.3789  -5.3551
    -5.3113  -5.2118  -5.1744  -5.0697  -5.0490  -5.0243  -4.9972  -4.9698
    -4.9558  -4.9276  -4.8774  -4.8589  -4.8354  -4.8255  -4.7676  -4.7447
    -1.4695   0.0321   0.1579   0.3407   0.8270   0.9336   1.0450   1.2269
     1.3196   1.5471   1.5773   1.6160   1.7162   1.9660   2.1184   2.1270

          k = 0.1566 0.1566 0.0000 (219785 PWs)   bands (ev):

   -22.7449 -22.5633 -22.5414 -22.4747 -22.4362 -22.4206 -22.3603 -22.3363
   -22.3108 -22.2982 -22.2039 -22.1674 -22.1664 -22.1638 -22.1484 -22.1121
   -22.0813 -22.0576 -22.0550 -22.0539 -22.0409 -22.0119 -21.9845 -21.9181
   -16.7648 -16.7621 -16.7571 -16.7568 -16.7447 -16.7421 -16.7245 -16.7181
   -16.6967 -16.6925 -16.6863 -16.6787 -16.6618 -16.6550 -16.6538 -16.6461
   -16.6312 -16.6132 -16.5818 -16.5804 -16.5061 -16.5051 -16.4952 -16.4935
   -16.4925 -16.4821 -16.4758 -16.4678 -16.4568 -16.4445 -16.4255 -16.4166
   -16.3831 -16.3387 -16.3179 -16.3033 -16.2794 -16.2604 -16.2471 -16.2109
   -10.4944 -10.3417 -10.2821 -10.2084 -10.1957 -10.1162 -10.0512  -9.9542
    -9.8406  -9.7731  -9.7255  -9.6449  -9.3552  -9.3134  -9.2696  -9.0820
    -9.0460  -8.9662  -8.8246  -8.8165  -8.7484  -8.6166  -8.5954  -8.5480
    -8.5167  -8.4890  -8.2327  -8.1540  -7.9645  -7.7053  -7.5307  -7.3822
    -7.1656  -7.1647  -7.0736  -6.6941  -6.6819  -6.4557  -6.4333  -6.3969
    -6.2750  -6.1996  -6.0547  -5.9773  -5.9020  -5.8537  -5.8320  -5.8051
    -5.7345  -5.6777  -5.6407  -5.6049  -5.5236  -5.4567  -5.3727  -5.3544
    -5.3089  -5.2149  -5.1732  -5.0751  -5.0484  -5.0295  -5.0049  -4.9726
    -4.9549  -4.9289  -4.8761  -4.8583  -4.8353  -4.8215  -4.7605  -4.7491
    -1.4406  -0.0065   0.1194   0.3475   0.8767   0.9574   1.0453   1.2266
     1.3310   1.5285   1.5894   1.5945   1.7294   1.9637   2.1048   2.1247

          k = 0.1740 0.1740 0.0000 (219821 PWs)   bands (ev):

   -22.7413 -22.5670 -22.5476 -22.4772 -22.4322 -22.4154 -22.3641 -22.3374
   -22.3082 -22.2960 -22.2035 -22.1690 -22.1659 -22.1632 -22.1453 -22.1116
   -22.0835 -22.0592 -22.0560 -22.0551 -22.0389 -22.0106 -21.9838 -21.9200
   -16.7646 -16.7619 -16.7576 -16.7562 -16.7434 -16.7432 -16.7242 -16.7187
   -16.6985 -16.6920 -16.6865 -16.6776 -16.6615 -16.6555 -16.6525 -16.6470
   -16.6317 -16.6124 -16.5824 -16.5819 -16.5056 -16.5040 -16.4951 -16.4933
   -16.4913 -16.4820 -16.4767 -16.4682 -16.4559 -16.4448 -16.4259 -16.4170
   -16.3817 -16.3418 -16.3165 -16.3040 -16.2783 -16.2586 -16.2486 -16.2115
   -10.4912 -10.3448 -10.2873 -10.2107 -10.1895 -10.1141 -10.0504  -9.9604
    -9.8395  -9.7666  -9.7299  -9.6462  -9.3512  -9.3015  -9.2703  -9.0879
    -9.0377  -8.9763  -8.8260  -8.8127  -8.7478  -8.6172  -8.5887  -8.5504
    -8.5324  -8.4979  -8.2485  -8.1581  -7.9505  -7.6838  -7.5316  -7.3813
    -7.1687  -7.1656  -7.0644  -6.6818  -6.6602  -6.4591  -6.4487  -6.4088
    -6.2762  -6.1956  -6.0674  -5.9809  -5.8955  -5.8633  -5.8199  -5.8020
    -5.7151  -5.6834  -5.6522  -5.6091  -5.5293  -5.4599  -5.3661  -5.3532
    -5.3068  -5.2192  -5.1717  -5.0808  -5.0478  -5.0357  -5.0123  -4.9745
    -4.9538  -4.9298  -4.8749  -4.8578  -4.8362  -4.8182  -4.7534  -4.7533
    -1.4086  -0.0441   0.0819   0.3536   0.9262   0.9603   1.0625   1.2287
     1.3437   1.5101   1.5746   1.6030   1.7443   1.9579   2.0882   2.1156

     Writing all to output data dir ./tmp/slab.save/ :
     XML data file, pseudopotentials, collected wavefunctions

     init_run     :      5.93s CPU      6.42s WALL (       1 calls)
     electrons    :   2440.48s CPU   2532.80s WALL (       1 calls)

     Called by init_run:
     wfcinit      :      0.00s CPU      0.00s WALL (       1 calls)
     wfcinit:atom :      0.36s CPU      0.58s WALL (      21 calls)
     wfcinit:wfcr :     39.57s CPU     41.51s WALL (      21 calls)
     potinit      :      1.93s CPU      2.04s WALL (       1 calls)
     hinit0       :      1.09s CPU      1.12s WALL (       1 calls)

     Called by electrons:
     c_bands      :   2440.47s CPU   2532.78s WALL (       1 calls)
     v_of_rho     :      0.43s CPU      0.48s WALL (       1 calls)
     v_h          :      0.04s CPU      0.04s WALL (       1 calls)
     v_xc         :      0.39s CPU      0.43s WALL (       1 calls)
     newd         :      1.46s CPU      1.74s WALL (       1 calls)
     PAW_pot      :      0.78s CPU      0.80s WALL (       1 calls)

     Called by c_bands:
     init_us_2    :      0.94s CPU      0.97s WALL (      21 calls)
     cegterg      :   2394.09s CPU   2481.53s WALL (     126 calls)

     Called by sum_band:

     Called by *egterg:
     cdiaghg      :     33.49s CPU     35.55s WALL (    2541 calls)
     cegterg:over :    283.92s CPU    285.84s WALL (    2520 calls)
     cegterg:upda :    172.13s CPU    174.78s WALL (    2520 calls)
     cegterg:last :    358.41s CPU    362.03s WALL (    1102 calls)
     cdiaghg:chol :      2.74s CPU      2.77s WALL (    2541 calls)
     cdiaghg:inve :      0.69s CPU      0.69s WALL (    2541 calls)
     cdiaghg:para :      6.83s CPU      8.05s WALL (    5082 calls)
     h_psi        :   1372.40s CPU   1446.70s WALL (    2667 calls)
     s_psi        :    144.75s CPU    145.79s WALL (    2667 calls)
     g_psi        :     13.21s CPU     13.30s WALL (    2520 calls)

     Called by h_psi:
     h_psi:calbec :    180.83s CPU    182.76s WALL (    2667 calls)
     vloc_psi     :   1035.68s CPU   1105.03s WALL (    2667 calls)
                                        0.00s GPU  (    2667 calls)
     add_vuspsi   :    143.91s CPU    144.93s WALL (    2667 calls)

     General routines
     calbec       :    180.82s CPU    182.75s WALL (    2667 calls)
     fft          :      1.27s CPU      1.31s WALL (      13 calls)
     ffts         :      0.62s CPU      0.63s WALL (       1 calls)
     fftw         :    905.45s CPU    968.64s WALL (  360674 calls)
     interpolate  :      0.65s CPU      0.66s WALL (       1 calls)
     davcio       :      0.08s CPU      3.04s WALL (      42 calls)

     Parallel routines

     PAW routines
     PAW_pot      :      0.78s CPU      0.80s WALL (       1 calls)

     PWSCF        :  40m49.95s CPU  42m31.33s WALL


   This run was terminated on:   4:29:32   6Oct2026            

=------------------------------------------------------------------------------=
   JOB DONE.
=------------------------------------------------------------------------------=
Note: The following floating-point exceptions are signalling: IEEE_UNDERFLOW_FLAG IEEE_DENORMAL
Note: The following floating-point exceptions are signalling: IEEE_UNDERFLOW_FLAG IEEE_DENORMAL
