[b9g42p1021][[36941,1],1][btl_tcp_proc.c:266:mca_btl_tcp_proc_create_interface_graph] Unable to find reachable pairing between local and remote interfaces
[b9g42p1021][[36941,1],0][btl_tcp_proc.c:266:mca_btl_tcp_proc_create_interface_graph] Unable to find reachable pairing between local and remote interfaces

     Program PWSCF v.7.5 starts on 30Sep2026 at 10: 6:31 

     This program is part of the open-source Quantum ESPRESSO suite
     for quantum simulation of materials; please cite
         "P. Giannozzi et al., J. Phys.:Condens. Matter 21 395502 (2009);
         "P. Giannozzi et al., J. Phys.:Condens. Matter 29 465901 (2017);
         "P. Giannozzi et al., J. Chem. Phys. 152 154105 (2020);
          URL http://www.quantum-espresso.org", 
     in publications or presentations arising from this work. More details at
     http://www.quantum-espresso.org/quote

     Parallel version (MPI & OpenMP), running on       2 processor cores
     Number of MPI processes:                 2
     Threads/MPI process:                     1

     MPI processes distributed on     1 nodes
     10892 MiB available memory on the printing compute node when the environment starts

     Reading input from vcrelax.in

     Current dimensions of program PWSCF are:
     Max number of different atomic species (ntypx) = 10
     Max number of k-points (npk) =  40000
     Max angular momentum in pseudopotentials (lmaxx) =  4
     file W.pbe-spn-kjpaw_psl.1.0.0.UPF: wavefunction(s)  6S 5P 5D renormalized
     Message from routine setup:
     using ibrav=0 with symmetry is DISCOURAGED, use correct ibrav instead

     K-points division:     npool     =       2
     Subspace diagonalization in iterative solution of the eigenvalue problem:
     a serial algorithm will be used


     G-vector sticks info
     --------------------
     sticks:   dense  smooth     PW     G-vecs:    dense   smooth      PW
     Sum         917     457    145                73061    25805    4527

     Using Slab Decomposition



     bravais-lattice index     =            0
     lattice parameter (alat)  =       5.9904  a.u.
     unit-cell volume          =     757.4750 (a.u.)^3
     number of atoms/cell      =            3
     number of atomic types    =            1
     number of electrons       =        42.00
     number of Kohn-Sham states=           29
     kinetic-energy cutoff     =      40.0000  Ry
     charge density cutoff     =     320.0000  Ry
     scf convergence threshold =      1.0E-06
     mixing beta               =       0.2000
     number of iterations used =            8  local-TF  mixing
     energy convergence thresh.=      1.0E-04
     force convergence thresh. =      1.0E-03
     press convergence thresh. =      5.0E-01
     Exchange-correlation= SLA  PW   PBX  PBC
                           (   1   4   3   4   0   0   0)
     nstep                     =            3


     celldm(1)=   5.990432  celldm(2)=   0.000000  celldm(3)=   0.000000
     celldm(4)=   0.000000  celldm(5)=   0.000000  celldm(6)=   0.000000

     crystal axes: (cart. coord. in units of alat)
               a(1) = (   1.000000   0.000000   0.000000 )  
               a(2) = (   0.000000   1.000000   0.000000 )  
               a(3) = (   0.000000   0.000000   3.523659 )  

     reciprocal axes: (cart. coord. in units 2 pi/alat)
               b(1) = (  1.000000  0.000000  0.000000 )  
               b(2) = (  0.000000  1.000000  0.000000 )  
               b(3) = (  0.000000  0.000000  0.283796 )  


     PseudoPot. # 1 for W  read from file:
     ./W.pbe-spn-kjpaw_psl.1.0.0.UPF
     MD5 check sum: 03c3df5b60893f488392c7401945500a
     Pseudo is Projector augmented-wave + core cor, Zval = 14.0
     Generated using &quot;atomic&quot; code by A. Dal Corso  v.6.2.2
     Shape of augmentation charge: PSQ
     Using radial grid of 1273 points,  6 beta functions with: 
                l(1) =   0
                l(2) =   0
                l(3) =   1
                l(4) =   1
                l(5) =   2
                l(6) =   2
     Q(r) pseudized with 0 coefficients 


     atomic species   valence    mass     pseudopotential
     W                14.00   183.84000     W ( 1.00)

      8 Sym. Ops. (no inversion) found



   Cartesian axes

     site n.     atom                  positions (alat units)
         1        W      tau(   1) = (   0.0000000   0.0000000   1.2618297  )
         2        W      tau(   2) = (   0.5000000   0.5000000   1.7776025  )
         3        W      tau(   3) = (   0.0000000   0.0000000   2.2618297  )

     number of k points=    10  Marzari-Vanderbilt smearing, width (Ry)=  0.0200
                       cart. coord. in units 2pi/alat
        k(    1) = (   0.0000000   0.0000000   0.0000000), wk =   0.0555556
        k(    2) = (   0.0000000   0.1666667   0.0000000), wk =   0.2222222
        k(    3) = (   0.0000000   0.3333333   0.0000000), wk =   0.2222222
        k(    4) = (   0.0000000  -0.5000000   0.0000000), wk =   0.1111111
        k(    5) = (   0.1666667   0.1666667   0.0000000), wk =   0.2222222
        k(    6) = (   0.1666667   0.3333333   0.0000000), wk =   0.4444444
        k(    7) = (   0.1666667  -0.5000000   0.0000000), wk =   0.2222222
        k(    8) = (   0.3333333   0.3333333   0.0000000), wk =   0.2222222
        k(    9) = (   0.3333333  -0.5000000   0.0000000), wk =   0.2222222
        k(   10) = (  -0.5000000  -0.5000000   0.0000000), wk =   0.0555556

     Dense  grid:    73061 G-vectors     FFT dimensions: (  36,  36, 125)

     Smooth grid:    25805 G-vectors     FFT dimensions: (  25,  25,  90)

     Estimated max dynamical RAM per process >     167.59 MB

     Estimated total dynamical RAM >     317.34 MB

     Initial potential from superposition of free atoms

     starting charge      41.9983, renormalised to      42.0000
     Starting wfcs are   39 randomized atomic wfcs
     Checking if some PAW data can be deallocated... 

     total cpu time spent up to now is        5.3 secs

     per-process dynamical memory:    54.2 Mb

     Self-consistent Calculation

     iteration #  1     ecut=    40.00 Ry     beta= 0.20
     Davidson diagonalization with overlap
     ethr =  1.00E-02,  avg # of iterations =  2.0

     total cpu time spent up to now is        8.1 secs

     total energy              =   -2280.49191252 Ry
     estimated scf accuracy    <       1.17242335 Ry

     iteration #  2     ecut=    40.00 Ry     beta= 0.20
     Davidson diagonalization with overlap
     ethr =  2.79E-03,  avg # of iterations =  1.0

     negative rho (up, down):  8.728E-02 0.000E+00

     total cpu time spent up to now is       10.9 secs

     total energy              =   -2280.29938582 Ry
     estimated scf accuracy    <       0.86340399 Ry

     iteration #  3     ecut=    40.00 Ry     beta= 0.20
     Davidson diagonalization with overlap
     ethr =  2.06E-03,  avg # of iterations =  1.9

     negative rho (up, down):  5.602E-02 0.000E+00

     total cpu time spent up to now is       13.3 secs

     total energy              =   -2280.37385303 Ry
     estimated scf accuracy    <       0.10016777 Ry

     iteration #  4     ecut=    40.00 Ry     beta= 0.20
     Davidson diagonalization with overlap
     ethr =  2.38E-04,  avg # of iterations =  2.0

     negative rho (up, down):  7.434E-02 0.000E+00

     total cpu time spent up to now is       15.8 secs

     total energy              =   -2280.37483187 Ry
     estimated scf accuracy    <       0.11658559 Ry

     iteration #  5     ecut=    40.00 Ry     beta= 0.20
     Davidson diagonalization with overlap
     ethr =  2.38E-04,  avg # of iterations =  1.0

     negative rho (up, down):  1.005E-01 0.000E+00

     total cpu time spent up to now is       18.4 secs

     total energy              =   -2280.36252475 Ry
     estimated scf accuracy    <       0.05744121 Ry

     iteration #  6     ecut=    40.00 Ry     beta= 0.20
     Davidson diagonalization with overlap
     ethr =  1.37E-04,  avg # of iterations =  2.1

     negative rho (up, down):  8.017E-02 0.000E+00

     total cpu time spent up to now is       21.4 secs

     total energy              =   -2280.36826653 Ry
     estimated scf accuracy    <       0.00938656 Ry

     iteration #  7     ecut=    40.00 Ry     beta= 0.20
     Davidson diagonalization with overlap
     ethr =  2.23E-05,  avg # of iterations =  4.0

     negative rho (up, down):  5.388E-02 0.000E+00

     total cpu time spent up to now is       24.5 secs

     total energy              =   -2280.37113907 Ry
     estimated scf accuracy    <       0.01496988 Ry

     iteration #  8     ecut=    40.00 Ry     beta= 0.20
     Davidson diagonalization with overlap
     ethr =  2.23E-05,  avg # of iterations =  2.4

     negative rho (up, down):  2.593E-02 0.000E+00

     total cpu time spent up to now is       27.4 secs

     total energy              =   -2280.36750590 Ry
     estimated scf accuracy    <       0.02465302 Ry

     iteration #  9     ecut=    40.00 Ry     beta= 0.20
     Davidson diagonalization with overlap
     ethr =  2.23E-05,  avg # of iterations =  2.4

     negative rho (up, down):  2.468E-02 0.000E+00

     total cpu time spent up to now is       30.5 secs

     total energy              =   -2280.37068733 Ry
     estimated scf accuracy    <       0.00090374 Ry

     iteration # 10     ecut=    40.00 Ry     beta= 0.20
     Davidson diagonalization with overlap
     ethr =  2.15E-06,  avg # of iterations =  4.0

     negative rho (up, down):  3.077E-02 0.000E+00

     total cpu time spent up to now is       33.7 secs

     total energy              =   -2280.37048605 Ry
     estimated scf accuracy    <       0.00243879 Ry

     iteration # 11     ecut=    40.00 Ry     beta= 0.20
     Davidson diagonalization with overlap
     ethr =  2.15E-06,  avg # of iterations =  2.0

     negative rho (up, down):  3.808E-02 0.000E+00

     total cpu time spent up to now is       36.7 secs

     total energy              =   -2280.36991053 Ry
     estimated scf accuracy    <       0.00044591 Ry

     iteration # 12     ecut=    40.00 Ry     beta= 0.20
     Davidson diagonalization with overlap
     ethr =  1.06E-06,  avg # of iterations =  4.4

     negative rho (up, down):  5.721E-02 0.000E+00

     total cpu time spent up to now is       39.9 secs

     total energy              =   -2280.36906597 Ry
     estimated scf accuracy    <       0.00046145 Ry

     iteration # 13     ecut=    40.00 Ry     beta= 0.20
     Davidson diagonalization with overlap
     ethr =  1.06E-06,  avg # of iterations =  2.4

     negative rho (up, down):  4.878E-02 0.000E+00

     total cpu time spent up to now is       43.1 secs

     total energy              =   -2280.37080581 Ry
     estimated scf accuracy    <       0.00013579 Ry

     iteration # 14     ecut=    40.00 Ry     beta= 0.20
     Davidson diagonalization with overlap
     ethr =  3.23E-07,  avg # of iterations =  3.8

     negative rho (up, down):  5.026E-02 0.000E+00

     total cpu time spent up to now is       45.6 secs

     total energy              =   -2280.37116715 Ry
     estimated scf accuracy    <       0.00009011 Ry

     iteration # 15     ecut=    40.00 Ry     beta= 0.20
     Davidson diagonalization with overlap
     ethr =  2.15E-07,  avg # of iterations =  2.4

     negative rho (up, down):  5.113E-02 0.000E+00

     total cpu time spent up to now is       47.8 secs

     total energy              =   -2280.37072248 Ry
     estimated scf accuracy    <       0.00001661 Ry

     iteration # 16     ecut=    40.00 Ry     beta= 0.20
     Davidson diagonalization with overlap
     ethr =  3.95E-08,  avg # of iterations =  3.6

     negative rho (up, down):  5.080E-02 0.000E+00

     total cpu time spent up to now is       50.7 secs

     total energy              =   -2280.37066606 Ry
     estimated scf accuracy    <       0.00001479 Ry

     iteration # 17     ecut=    40.00 Ry     beta= 0.20
     Davidson diagonalization with overlap
     ethr =  3.52E-08,  avg # of iterations =  2.5

     negative rho (up, down):  4.759E-02 0.000E+00

     total cpu time spent up to now is       53.0 secs

     total energy              =   -2280.37115851 Ry
     estimated scf accuracy    <       0.00002869 Ry

     iteration # 18     ecut=    40.00 Ry     beta= 0.20
     Davidson diagonalization with overlap
     ethr =  3.52E-08,  avg # of iterations =  3.8

     negative rho (up, down):  4.793E-02 0.000E+00

     total cpu time spent up to now is       55.4 secs

     total energy              =   -2280.37120557 Ry
     estimated scf accuracy    <       0.00000104 Ry

     iteration # 19     ecut=    40.00 Ry     beta= 0.20
     Davidson diagonalization with overlap
     ethr =  2.48E-09,  avg # of iterations =  2.7

     negative rho (up, down):  4.830E-02 0.000E+00

     total cpu time spent up to now is       57.4 secs

     End of self-consistent calculation

          k = 0.0000 0.0000 0.0000 (  3227 PWs)   bands (ev):

   -66.8630 -66.7556 -66.5786 -31.2417 -31.1320 -31.0911 -31.0911 -30.8171
   -30.8171 -30.5639 -30.4546 -30.4546  -0.5661   2.4561   2.6561   2.9299
     5.1019   6.5528   6.5528   6.9130   7.1217   7.1473   7.6608   7.6608
     8.1165   9.2560  10.4258  10.4266  10.4266

          k = 0.0000 0.1667 0.0000 (  3224 PWs)   bands (ev):

   -66.8579 -66.7490 -66.5841 -31.2916 -31.2278 -31.0470 -31.0002 -30.9257
   -30.8117 -30.5217 -30.4924 -30.4758   0.0008   2.6808   2.8959   3.4315
     5.2185   6.1462   6.1633   6.2991   6.8726   7.4056   7.9874   8.2097
     8.7166   8.8760   9.3060  10.2716  11.1484

          k = 0.0000 0.3333 0.0000 (  3210 PWs)   bands (ev):

   -66.8481 -66.7333 -66.5972 -31.4285 -31.2826 -31.0164 -30.9988 -30.9323
   -30.7979 -30.5976 -30.5700 -30.4278   1.3014   2.7048   3.1808   4.6283
     5.2856   5.6502   5.9100   6.4198   6.9000   7.8773   8.1435   8.2727
     8.6612   8.8053   9.2725  10.7294  11.3602

          k = 0.0000-0.5000 0.0000 (  3216 PWs)   bands (ev):

   -66.8434 -66.7236 -66.6055 -31.4828 -31.3329 -31.0314 -31.0207 -30.8422
   -30.7436 -30.7303 -30.5816 -30.4135   1.9811   2.6137   3.4509   4.9769
     5.3374   5.5135   5.6560   6.3462   7.5535   7.9927   8.3131   8.3756
     8.8006   9.1132  10.3258  10.8997  11.2943

          k = 0.1667 0.1667 0.0000 (  3237 PWs)   bands (ev):

   -66.8537 -66.7431 -66.5881 -31.2923 -31.2176 -31.1722 -30.9475 -30.9025
   -30.8649 -30.5940 -30.4701 -30.4638   0.5544   3.1290   3.4015   3.6769
     4.9164   5.0747   6.2817   6.8079   6.9481   7.2124   7.2763   8.3539
     8.4165   9.2866  10.1300  10.4818  10.6418

          k = 0.1667 0.3333 0.0000 (  3231 PWs)   bands (ev):

   -66.8454 -66.7295 -66.5976 -31.3987 -31.2392 -31.1616 -31.0136 -30.9150
   -30.8541 -30.6399 -30.5074 -30.4534   1.8191   3.3230   3.6496   4.3809
     4.8253   5.0767   6.0586   6.5456   6.9630   7.2408   7.5583   8.4281
     8.8291   9.2166  10.3063  10.4628  11.5873

          k = 0.1667-0.5000 0.0000 (  3252 PWs)   bands (ev):

   -66.8414 -66.7216 -66.6034 -31.4557 -31.2755 -31.1545 -31.0215 -30.9240
   -30.8315 -30.6581 -30.5284 -30.4607   2.5804   3.1782   3.4088   4.7189
     4.8798   4.8933   6.1892   6.7455   7.4830   7.5333   8.0039   8.4892
     8.8632   9.4431  10.2803  11.0333  11.4160

          k = 0.3333 0.3333 0.0000 (  3264 PWs)   bands (ev):

   -66.8400 -66.7216 -66.5985 -31.3556 -31.3317 -31.1494 -31.0527 -30.9684
   -30.9596 -30.6069 -30.5158 -30.5009   2.6554   3.6067   4.2356   4.4867
     4.5450   4.8797   5.4666   7.0258   7.4516   7.5218   7.6373   8.7048
     8.8607   9.8476  10.3038  11.0245  12.6991

          k = 0.3333-0.5000 0.0000 (  3264 PWs)   bands (ev):

   -66.8373 -66.7175 -66.5991 -31.4144 -31.3336 -31.1276 -31.0850 -30.9846
   -30.9469 -30.6365 -30.5312 -30.5084   2.8307   3.3383   4.0957   4.2914
     4.5689   5.4013   5.5981   7.4294   7.6345   8.0776   8.8327   8.8951
     9.2162   9.9423  10.8048  11.1973  11.5572

          k =-0.5000-0.5000 0.0000 (  3256 PWs)   bands (ev):

   -66.8353 -66.7154 -66.5969 -31.4101 -31.4101 -31.1180 -31.0064 -31.0064
   -30.9763 -30.7354 -30.5163 -30.5163   2.5682   3.1274   4.2390   4.2390
     4.9186   5.3290   5.3290   8.4851   8.4851   8.9909   9.2627  10.0246
    10.0246  10.2920  10.6813  10.7080  10.8003

     the Fermi energy is     7.3610 ev

!    total energy              =   -2280.37136677 Ry
     total all-electron energy =    -96857.220380 Ry
     estimated scf accuracy    <       0.00000069 Ry
     smearing contrib. (-TS)   =      -0.00114414 Ry
     internal energy E=F+TS    =   -2280.37022263 Ry

     The total energy is F=E-TS. E is the sum of the following terms:
     one-electron contribution =    -779.78943283 Ry
     hartree contribution      =     396.91814309 Ry
     xc contribution           =    -119.61658491 Ry
     ewald contribution        =      38.79264325 Ry
     one-center paw contrib.   =   -1816.67499122 Ry

     convergence has been achieved in  19 iterations

     negative rho (up, down):  4.830E-02 0.000E+00

     Forces acting on atoms (cartesian axes, Ry/au):

     atom    1 type  1   force =     0.00000000    0.00000000    0.05818793
     atom    2 type  1   force =     0.00000000    0.00000000   -0.01508409
     atom    3 type  1   force =     0.00000000    0.00000000   -0.04310384

     Total force =     0.073968     Total SCF correction =     0.000821


     Computing stress (Cartesian axis) and pressure


     negative rho (up, down):  4.830E-02 0.000E+00
          total   stress  (Ry/bohr**3)                   (kbar)     P=     -105.92
  -0.00087188   0.00000000   0.00000000         -128.26        0.00        0.00
   0.00000000  -0.00087188   0.00000000            0.00     -128.26        0.00
   0.00000000   0.00000000  -0.00041637            0.00        0.00      -61.25


     BFGS Geometry Optimization
     Energy error            =      3.8E-02 Ry
     Gradient error          =      5.8E-02 Ry/Bohr
     Cell gradient error     =      1.3E+02 kbar

     number of scf cycles    =   1
     number of bfgs steps    =   0

     enthalpy           new  =   -2280.3713667736 Ry

     new trust radius        =       0.1199804547 bohr
     new conv_thr            =       0.0000010000 Ry

     new unit-cell volume =    724.81354 a.u.^3 (   107.40628 Ang^3 )
     density =      8.52669 g/cm^3

CELL_PARAMETERS (angstrom)
   3.100903568   0.000000000   0.000000000
   0.000000000   3.100903568   0.000000000
   0.000000000   0.000000000  11.170000000

ATOMIC_POSITIONS (crystal)
W                0.0000000000        0.0000000000        0.3608587042
W                0.5000000000        0.5000000000        0.5037616688
W                0.0000000000        0.0000000000        0.6398559026



     Writing config-only to output data dir ./tmp/vcr.save/ :
     XML data file
     NEW-OLD atomic charge density approx. for the potential
     New effective cutoffs (rho, wfc):  334.21   41.80

     Check: negative core charge=   -0.000001

     negative rho (up, down):  5.411E-02 0.000E+00

     total cpu time spent up to now is       62.8 secs

     per-process dynamical memory:    64.5 Mb

     Self-consistent Calculation

     iteration #  1     ecut=    40.00 Ry     beta= 0.20
     Davidson diagonalization with overlap
     ethr =  1.00E-06,  avg # of iterations = 10.2

     negative rho (up, down):  3.579E-01 0.000E+00

     total cpu time spent up to now is       67.5 secs

     total energy              =   -2280.23737191 Ry
     estimated scf accuracy    <       5.85491017 Ry

     iteration #  2     ecut=    40.00 Ry     beta= 0.20
     Davidson diagonalization with overlap
     ethr =  1.00E-02,  avg # of iterations =  1.9

     negative rho (up, down):  4.704E-01 0.000E+00

     total cpu time spent up to now is       69.9 secs

     total energy              =   -2280.33182234 Ry
     estimated scf accuracy    <       0.47688731 Ry

     iteration #  3     ecut=    40.00 Ry     beta= 0.20
     Davidson diagonalization with overlap
     ethr =  1.14E-03,  avg # of iterations =  2.0

     negative rho (up, down):  5.044E-01 0.000E+00

     total cpu time spent up to now is       72.2 secs

     total energy              =   -2280.34864449 Ry
     estimated scf accuracy    <       0.03698199 Ry

     iteration #  4     ecut=    40.00 Ry     beta= 0.20
     Davidson diagonalization with overlap
     ethr =  8.81E-05,  avg # of iterations =  2.5

     negative rho (up, down):  4.825E-01 0.000E+00

     total cpu time spent up to now is       74.5 secs

     total energy              =   -2280.36001016 Ry
     estimated scf accuracy    <       0.00938778 Ry

     iteration #  5     ecut=    40.00 Ry     beta= 0.20
     Davidson diagonalization with overlap
     ethr =  2.24E-05,  avg # of iterations =  2.0

     negative rho (up, down):  4.235E-01 0.000E+00

     total cpu time spent up to now is       77.0 secs

     total energy              =   -2280.36841582 Ry
     estimated scf accuracy    <       0.02821528 Ry

     iteration #  6     ecut=    40.00 Ry     beta= 0.20
     Davidson diagonalization with overlap
     ethr =  2.24E-05,  avg # of iterations =  2.0

     negative rho (up, down):  3.717E-01 0.000E+00

     total cpu time spent up to now is       79.1 secs

     total energy              =   -2280.37306192 Ry
     estimated scf accuracy    <       0.02136859 Ry

     iteration #  7     ecut=    40.00 Ry     beta= 0.20
     Davidson diagonalization with overlap
     ethr =  2.24E-05,  avg # of iterations =  1.6

     negative rho (up, down):  2.913E-01 0.000E+00

     total cpu time spent up to now is       81.2 secs

     total energy              =   -2280.37942354 Ry
     estimated scf accuracy    <       0.01307817 Ry

     iteration #  8     ecut=    40.00 Ry     beta= 0.20
     Davidson diagonalization with overlap
     ethr =  2.24E-05,  avg # of iterations =  2.3

     negative rho (up, down):  2.487E-01 0.000E+00

     total cpu time spent up to now is       83.4 secs

     total energy              =   -2280.38538784 Ry
     estimated scf accuracy    <       0.00942910 Ry

     iteration #  9     ecut=    40.00 Ry     beta= 0.20
     Davidson diagonalization with overlap
     ethr =  2.24E-05,  avg # of iterations =  2.0

     negative rho (up, down):  1.654E-01 0.000E+00

     total cpu time spent up to now is       85.5 secs

     total energy              =   -2280.38759761 Ry
     estimated scf accuracy    <       0.00864795 Ry

     iteration # 10     ecut=    40.00 Ry     beta= 0.20
     Davidson diagonalization with overlap
     ethr =  2.06E-05,  avg # of iterations =  2.0

     negative rho (up, down):  1.006E-01 0.000E+00

     total cpu time spent up to now is       88.0 secs

     total energy              =   -2280.38749209 Ry
     estimated scf accuracy    <       0.00766022 Ry

     iteration # 11     ecut=    40.00 Ry     beta= 0.20
     Davidson diagonalization with overlap
     ethr =  1.82E-05,  avg # of iterations =  3.2

     negative rho (up, down):  1.108E-01 0.000E+00

     total cpu time spent up to now is       90.3 secs

     total energy              =   -2280.38863703 Ry
     estimated scf accuracy    <       0.00577229 Ry

     iteration # 12     ecut=    40.00 Ry     beta= 0.20
     Davidson diagonalization with overlap
     ethr =  1.37E-05,  avg # of iterations =  1.0

     negative rho (up, down):  1.501E-01 0.000E+00

     total cpu time spent up to now is       93.2 secs

     total energy              =   -2280.38928596 Ry
     estimated scf accuracy    <       0.00725672 Ry

     iteration # 13     ecut=    40.00 Ry     beta= 0.20
     Davidson diagonalization with overlap
     ethr =  1.37E-05,  avg # of iterations =  3.4

     negative rho (up, down):  7.103E-02 0.000E+00

     total cpu time spent up to now is       95.7 secs

     total energy              =   -2280.39454134 Ry
     estimated scf accuracy    <       0.00609669 Ry

     iteration # 14     ecut=    40.00 Ry     beta= 0.20
     Davidson diagonalization with overlap
     ethr =  1.37E-05,  avg # of iterations =  4.0

     negative rho (up, down):  6.402E-02 0.000E+00

     total cpu time spent up to now is       98.2 secs

     total energy              =   -2280.39607368 Ry
     estimated scf accuracy    <       0.00016092 Ry

     iteration # 15     ecut=    40.00 Ry     beta= 0.20
     Davidson diagonalization with overlap
     ethr =  3.83E-07,  avg # of iterations =  4.1

     negative rho (up, down):  8.793E-02 0.000E+00

     total cpu time spent up to now is      100.7 secs

     total energy              =   -2280.39455462 Ry
     estimated scf accuracy    <       0.00053395 Ry

     iteration # 16     ecut=    40.00 Ry     beta= 0.20
     Davidson diagonalization with overlap
     ethr =  3.83E-07,  avg # of iterations =  3.6

     negative rho (up, down):  8.950E-02 0.000E+00

     total cpu time spent up to now is      103.7 secs

     total energy              =   -2280.39540944 Ry
     estimated scf accuracy    <       0.00054375 Ry

     iteration # 17     ecut=    40.00 Ry     beta= 0.20
     Davidson diagonalization with overlap
     ethr =  3.83E-07,  avg # of iterations =  2.9

     negative rho (up, down):  9.089E-02 0.000E+00

     total cpu time spent up to now is      106.7 secs

     total energy              =   -2280.39595844 Ry
     estimated scf accuracy    <       0.00026143 Ry

     iteration # 18     ecut=    40.00 Ry     beta= 0.20
     Davidson diagonalization with overlap
     ethr =  3.83E-07,  avg # of iterations =  2.1

     negative rho (up, down):  8.407E-02 0.000E+00

     total cpu time spent up to now is      109.6 secs

     total energy              =   -2280.39618214 Ry
     estimated scf accuracy    <       0.00045086 Ry

     iteration # 19     ecut=    40.00 Ry     beta= 0.20
     Davidson diagonalization with overlap
     ethr =  3.83E-07,  avg # of iterations =  2.0

     negative rho (up, down):  7.877E-02 0.000E+00

     total cpu time spent up to now is      112.4 secs

     total energy              =   -2280.39644920 Ry
     estimated scf accuracy    <       0.00066726 Ry

     iteration # 20     ecut=    40.00 Ry     beta= 0.20
     Davidson diagonalization with overlap
     ethr =  3.83E-07,  avg # of iterations =  1.8

     negative rho (up, down):  7.193E-02 0.000E+00

     total cpu time spent up to now is      114.9 secs

     total energy              =   -2280.39682311 Ry
     estimated scf accuracy    <       0.00054078 Ry

     iteration # 21     ecut=    40.00 Ry     beta= 0.20
     Davidson diagonalization with overlap
     ethr =  3.83E-07,  avg # of iterations =  3.6

     negative rho (up, down):  8.525E-02 0.000E+00

     total cpu time spent up to now is      117.1 secs

     total energy              =   -2280.39649878 Ry
     estimated scf accuracy    <       0.00017462 Ry

     iteration # 22     ecut=    40.00 Ry     beta= 0.20
     Davidson diagonalization with overlap
     ethr =  3.83E-07,  avg # of iterations =  2.2

     negative rho (up, down):  6.620E-02 0.000E+00

     total cpu time spent up to now is      119.6 secs

     total energy              =   -2280.39698689 Ry
     estimated scf accuracy    <       0.00080338 Ry

     iteration # 23     ecut=    40.00 Ry     beta= 0.20
     Davidson diagonalization with overlap
     ethr =  3.83E-07,  avg # of iterations =  2.4

     negative rho (up, down):  6.072E-02 0.000E+00

     total cpu time spent up to now is      122.0 secs

     total energy              =   -2280.39676782 Ry
     estimated scf accuracy    <       0.00040365 Ry

     iteration # 24     ecut=    40.00 Ry     beta= 0.20
     Davidson diagonalization with overlap
     ethr =  3.83E-07,  avg # of iterations =  1.6

     negative rho (up, down):  7.347E-02 0.000E+00

     total cpu time spent up to now is      124.2 secs

     total energy              =   -2280.39656177 Ry
     estimated scf accuracy    <       0.00019353 Ry

     iteration # 25     ecut=    40.00 Ry     beta= 0.20
     Davidson diagonalization with overlap
     ethr =  3.83E-07,  avg # of iterations =  2.4

     negative rho (up, down):  9.149E-02 0.000E+00

     total cpu time spent up to now is      126.6 secs

     total energy              =   -2280.39614997 Ry
     estimated scf accuracy    <       0.00012196 Ry

     iteration # 26     ecut=    40.00 Ry     beta= 0.20
     Davidson diagonalization with overlap
     ethr =  2.90E-07,  avg # of iterations =  2.4

     negative rho (up, down):  9.729E-02 0.000E+00

     total cpu time spent up to now is      128.9 secs

     total energy              =   -2280.39611002 Ry
     estimated scf accuracy    <       0.00019793 Ry

     iteration # 27     ecut=    40.00 Ry     beta= 0.20
     Davidson diagonalization with overlap
     ethr =  2.90E-07,  avg # of iterations =  2.0

     negative rho (up, down):  7.327E-02 0.000E+00

     total cpu time spent up to now is      131.2 secs

     total energy              =   -2280.39685037 Ry
     estimated scf accuracy    <       0.00020274 Ry

     iteration # 28     ecut=    40.00 Ry     beta= 0.20
     Davidson diagonalization with overlap
     ethr =  2.90E-07,  avg # of iterations =  3.1

     negative rho (up, down):  7.515E-02 0.000E+00

     total cpu time spent up to now is      133.5 secs

     total energy              =   -2280.39716307 Ry
     estimated scf accuracy    <       0.00002302 Ry

     iteration # 29     ecut=    40.00 Ry     beta= 0.20
     Davidson diagonalization with overlap
     ethr =  5.48E-08,  avg # of iterations =  2.9

     negative rho (up, down):  7.699E-02 0.000E+00

     total cpu time spent up to now is      135.8 secs

     total energy              =   -2280.39716411 Ry
     estimated scf accuracy    <       0.00003583 Ry

     iteration # 30     ecut=    40.00 Ry     beta= 0.20
     Davidson diagonalization with overlap
     ethr =  5.48E-08,  avg # of iterations =  2.0

     negative rho (up, down):  7.302E-02 0.000E+00

     total cpu time spent up to now is      138.0 secs

     total energy              =   -2280.39724192 Ry
     estimated scf accuracy    <       0.00002866 Ry

     iteration # 31     ecut=    40.00 Ry     beta= 0.20
     Davidson diagonalization with overlap
     ethr =  5.48E-08,  avg # of iterations =  2.3

     negative rho (up, down):  6.686E-02 0.000E+00

     total cpu time spent up to now is      140.4 secs

     total energy              =   -2280.39729239 Ry
     estimated scf accuracy    <       0.00000424 Ry

     iteration # 32     ecut=    40.00 Ry     beta= 0.20
     Davidson diagonalization with overlap
     ethr =  1.01E-08,  avg # of iterations =  3.5

     negative rho (up, down):  6.491E-02 0.000E+00

     total cpu time spent up to now is      143.1 secs

     total energy              =   -2280.39731218 Ry
     estimated scf accuracy    <       0.00000424 Ry

     iteration # 33     ecut=    40.00 Ry     beta= 0.20
     Davidson diagonalization with overlap
     ethr =  1.01E-08,  avg # of iterations =  2.0

     negative rho (up, down):  6.472E-02 0.000E+00

     total cpu time spent up to now is      145.3 secs

     End of self-consistent calculation

          k = 0.0000 0.0000 0.0000 (  3227 PWs)   bands (ev):

   -66.3169 -66.2242 -65.9849 -30.7701 -30.6337 -30.6027 -30.6027 -30.2732
   -30.2732 -29.9726 -29.8435 -29.8435  -0.3544   2.7013   2.7422   3.0114
     5.3145   6.9509   6.9509   7.3573   7.5621   7.6058   8.1894   8.1894
     8.5518   9.8923  11.1337  11.1813  11.1813

          k = 0.0000 0.1704 0.0000 (  3224 PWs)   bands (ev):

   -66.3088 -66.2171 -65.9916 -30.8288 -30.7699 -30.5493 -30.4883 -30.3987
   -30.2665 -29.9149 -29.8887 -29.8774   0.2497   2.9414   2.9896   3.5594
     5.4830   6.5403   6.5424   6.6733   7.2870   7.8520   8.4700   8.7884
     9.2975   9.4614   9.9061  10.9278  11.9573

          k = 0.0000 0.3408 0.0000 (  3210 PWs)   bands (ev):

   -66.2933 -66.1997 -66.0075 -31.0021 -30.8532 -30.5026 -30.4869 -30.4086
   -30.2513 -30.0145 -29.9713 -29.8202   1.5739   2.8989   3.3779   4.8837
     5.6012   5.9724   6.2443   6.8009   7.3761   8.3979   8.6759   8.7807
     9.2424   9.3113   9.8967  11.4248  12.1879

          k = 0.0000-0.5111 0.0000 (  3216 PWs)   bands (ev):

   -66.2859 -66.1887 -66.0172 -31.0696 -30.9205 -30.5505 -30.4849 -30.2874
   -30.2095 -30.1626 -29.9812 -29.8058   2.1565   2.7776   3.8429   5.2652
     5.6345   5.7938   6.0233   6.6868   8.0358   8.4742   8.8655   8.9526
     9.3999   9.6960  10.9981  11.6885  12.1585

          k = 0.1704 0.1704 0.0000 (  3237 PWs)   bands (ev):

   -66.3022 -66.2105 -65.9964 -30.8266 -30.7607 -30.7056 -30.4185 -30.3798
   -30.3345 -30.0011 -29.8647 -29.8589   0.8405   3.4364   3.5448   3.8219
     5.1602   5.3763   6.6561   7.2051   7.3708   7.6587   7.7470   8.9101
     8.9741   9.8840  10.7953  11.1707  11.4038

          k = 0.1704 0.3408 0.0000 (  3231 PWs)   bands (ev):

   -66.2893 -66.1950 -66.0075 -30.9671 -30.7995 -30.6939 -30.4829 -30.3960
   -30.3280 -30.0513 -29.9075 -29.8526   2.1381   3.5635   3.8792   4.6051
     5.1110   5.3455   6.4550   6.9312   7.3911   7.7122   8.0303   8.9871
     9.4178   9.8009  11.0327  11.1675  12.3751

          k = 0.1704-0.5111 0.0000 (  3252 PWs)   bands (ev):

   -66.2831 -66.1859 -66.0142 -31.0390 -30.8503 -30.6954 -30.4832 -30.3959
   -30.3041 -30.0800 -29.9264 -29.8664   2.8158   3.3837   3.7184   4.9686
     5.1321   5.2278   6.5455   7.1721   7.9939   8.0009   8.5114   9.0555
     9.4244  10.0924  11.0260  11.8413  12.2713

          k = 0.3408 0.3408 0.0000 (  3264 PWs)   bands (ev):

   -66.2814 -66.1853 -66.0078 -30.9193 -30.9068 -30.6903 -30.5351 -30.4553
   -30.4491 -30.0125 -29.9342 -29.9067   2.9403   3.8371   4.4799   4.7170
     4.8069   5.2231   5.8349   7.4724   7.9227   8.0452   8.1274   9.2972
     9.4574  10.5129  11.0290  11.8279  13.5692

          k = 0.3408-0.5111 0.0000 (  3264 PWs)   bands (ev):

   -66.2775 -66.1802 -66.0081 -31.0003 -30.9119 -30.6678 -30.5663 -30.4585
   -30.4388 -30.0627 -29.9526 -29.9122   3.0238   3.5629   4.3252   4.4852
     4.8615   5.8284   5.9416   7.9258   8.1449   8.6250   9.4460   9.4921
     9.8756  10.6353  11.6087  12.0247  12.4198

          k =-0.5111-0.5111 0.0000 (  3256 PWs)   bands (ev):

   -66.2746 -66.1773 -66.0050 -31.0051 -31.0051 -30.5967 -30.5150 -30.5150
   -30.4438 -30.1978 -29.9275 -29.9275   2.7328   3.2797   4.4472   4.4472
     5.1856   5.7220   5.7220   9.0785   9.0785   9.6324   9.9554  10.7367
    10.7367  11.0480  11.4679  11.5024  11.5988

     the Fermi energy is     7.8374 ev

!    total energy              =   -2280.39734513 Ry
     total all-electron energy =    -96857.246358 Ry
     estimated scf accuracy    <       0.00000044 Ry
     smearing contrib. (-TS)   =      -0.00122520 Ry
     internal energy E=F+TS    =   -2280.39611993 Ry

     The total energy is F=E-TS. E is the sum of the following terms:
     one-electron contribution =    -820.05156147 Ry
     hartree contribution      =     417.86672654 Ry
     xc contribution           =    -119.82976907 Ry
     ewald contribution        =      58.30916204 Ry
     one-center paw contrib.   =   -1816.69067798 Ry

     convergence has been achieved in  33 iterations

     negative rho (up, down):  6.472E-02 0.000E+00

     Forces acting on atoms (cartesian axes, Ry/au):

     atom    1 type  1   force =     0.00000000    0.00000000    0.01996772
     atom    2 type  1   force =     0.00000000    0.00000000   -0.01497279
     atom    3 type  1   force =     0.00000000    0.00000000   -0.00499492

     Total force =     0.025453     Total SCF correction =     0.001931


     Computing stress (Cartesian axis) and pressure


     negative rho (up, down):  6.472E-02 0.000E+00
          total   stress  (Ry/bohr**3)                   (kbar)     P=      -53.49
  -0.00048276   0.00000000   0.00000000          -71.02        0.00        0.00
   0.00000000  -0.00048276   0.00000000            0.00      -71.02        0.00
   0.00000000   0.00000000  -0.00012528            0.00        0.00      -18.43

     Energy error            =      2.6E-02 Ry
     Gradient error          =      2.0E-02 Ry/Bohr
     Cell gradient error     =      7.1E+01 kbar

     number of scf cycles    =   2
     number of bfgs steps    =   1

     enthalpy           old  =   -2280.3713667736 Ry
     enthalpy           new  =   -2280.3973451310 Ry

     CASE: enthalpy          _new < enthalpy          _old

     new trust radius        =       0.1319785002 bohr
     new conv_thr            =       0.0000001997 Ry

     new unit-cell volume =    689.71727 a.u.^3 (   102.20555 Ang^3 )
     density =      8.96057 g/cm^3

CELL_PARAMETERS (angstrom)
   3.024897493   0.000000000   0.000000000
   0.000000000   3.024897493   0.000000000
   0.000000000   0.000000000  11.170000000

ATOMIC_POSITIONS (crystal)
W                0.0000000000        0.0000000000        0.3628328279
W                0.5000000000        0.5000000000        0.5023522524
W                0.0000000000        0.0000000000        0.6392911954



     Writing config-only to output data dir ./tmp/vcr.save/ :
     XML data file
     NEW-OLD atomic charge density approx. for the potential
     New effective cutoffs (rho, wfc):  351.18   43.92

     Check: negative core charge=   -0.000001

     negative rho (up, down):  6.945E-02 0.000E+00

     total cpu time spent up to now is      152.0 secs

     per-process dynamical memory:    64.5 Mb

     Self-consistent Calculation

     iteration #  1     ecut=    40.00 Ry     beta= 0.20
     Davidson diagonalization with overlap
     ethr =  1.00E-06,  avg # of iterations =  8.8

     negative rho (up, down):  2.031E-01 0.000E+00

     total cpu time spent up to now is      157.1 secs

     total energy              =   -2280.42054362 Ry
     estimated scf accuracy    <       1.88461276 Ry

     iteration #  2     ecut=    40.00 Ry     beta= 0.20
     Davidson diagonalization with overlap
     ethr =  4.49E-03,  avg # of iterations =  1.0

     negative rho (up, down):  4.636E-01 0.000E+00

     total cpu time spent up to now is      160.0 secs

     total energy              =   -2280.34653605 Ry
     estimated scf accuracy    <       0.59688992 Ry

     iteration #  3     ecut=    40.00 Ry     beta= 0.20
     Davidson diagonalization with overlap
     ethr =  1.42E-03,  avg # of iterations =  2.0

     negative rho (up, down):  3.759E-01 0.000E+00

     total cpu time spent up to now is      163.1 secs

     total energy              =   -2280.37836151 Ry
     estimated scf accuracy    <       0.04919943 Ry

     iteration #  4     ecut=    40.00 Ry     beta= 0.20
     Davidson diagonalization with overlap
     ethr =  1.17E-04,  avg # of iterations =  2.3

     negative rho (up, down):  3.678E-01 0.000E+00

     total cpu time spent up to now is      165.9 secs

     total energy              =   -2280.38453901 Ry
     estimated scf accuracy    <       0.00213795 Ry

     iteration #  5     ecut=    40.00 Ry     beta= 0.20
     Davidson diagonalization with overlap
     ethr =  5.09E-06,  avg # of iterations =  3.3

     negative rho (up, down):  3.264E-01 0.000E+00

     total cpu time spent up to now is      168.9 secs

     total energy              =   -2280.38953065 Ry
     estimated scf accuracy    <       0.00665540 Ry

     iteration #  6     ecut=    40.00 Ry     beta= 0.20
     Davidson diagonalization with overlap
     ethr =  5.09E-06,  avg # of iterations =  2.9

     negative rho (up, down):  3.192E-01 0.000E+00

     total cpu time spent up to now is      171.7 secs

     total energy              =   -2280.39078645 Ry
     estimated scf accuracy    <       0.01026518 Ry

     iteration #  7     ecut=    40.00 Ry     beta= 0.20
     Davidson diagonalization with overlap
     ethr =  5.09E-06,  avg # of iterations =  1.0

     negative rho (up, down):  2.529E-01 0.000E+00

     total cpu time spent up to now is      174.3 secs

     total energy              =   -2280.39609987 Ry
     estimated scf accuracy    <       0.00941932 Ry

     iteration #  8     ecut=    40.00 Ry     beta= 0.20
     Davidson diagonalization with overlap
     ethr =  5.09E-06,  avg # of iterations =  2.9

     negative rho (up, down):  1.606E-01 0.000E+00

     total cpu time spent up to now is      177.4 secs

     total energy              =   -2280.39876319 Ry
     estimated scf accuracy    <       0.00290139 Ry

     iteration #  9     ecut=    40.00 Ry     beta= 0.20
     Davidson diagonalization with overlap
     ethr =  5.09E-06,  avg # of iterations =  3.6

     negative rho (up, down):  1.325E-01 0.000E+00

     total cpu time spent up to now is      180.5 secs

     total energy              =   -2280.40254518 Ry
     estimated scf accuracy    <       0.00341667 Ry

     iteration # 10     ecut=    40.00 Ry     beta= 0.20
     Davidson diagonalization with overlap
     ethr =  5.09E-06,  avg # of iterations =  2.0

     negative rho (up, down):  1.348E-01 0.000E+00

     total cpu time spent up to now is      183.7 secs

     total energy              =   -2280.40289147 Ry
     estimated scf accuracy    <       0.00230916 Ry

     iteration # 11     ecut=    40.00 Ry     beta= 0.20
     Davidson diagonalization with overlap
     ethr =  5.09E-06,  avg # of iterations =  1.0

     negative rho (up, down):  1.129E-01 0.000E+00

     total cpu time spent up to now is      186.7 secs

     total energy              =   -2280.40426081 Ry
     estimated scf accuracy    <       0.00253599 Ry

     iteration # 12     ecut=    40.00 Ry     beta= 0.20
     Davidson diagonalization with overlap
     ethr =  5.09E-06,  avg # of iterations =  2.7

     negative rho (up, down):  1.003E-01 0.000E+00

     total cpu time spent up to now is      189.6 secs

     total energy              =   -2280.40442908 Ry
     estimated scf accuracy    <       0.00085689 Ry

     iteration # 13     ecut=    40.00 Ry     beta= 0.20
     Davidson diagonalization with overlap
     ethr =  2.04E-06,  avg # of iterations =  2.0

     negative rho (up, down):  8.853E-02 0.000E+00

     total cpu time spent up to now is      192.4 secs

     total energy              =   -2280.40510137 Ry
     estimated scf accuracy    <       0.00028723 Ry

     iteration # 14     ecut=    40.00 Ry     beta= 0.20
     Davidson diagonalization with overlap
     ethr =  6.84E-07,  avg # of iterations =  3.0

     negative rho (up, down):  9.230E-02 0.000E+00

     total cpu time spent up to now is      195.5 secs

     total energy              =   -2280.40529905 Ry
     estimated scf accuracy    <       0.00075593 Ry

     iteration # 15     ecut=    40.00 Ry     beta= 0.20
     Davidson diagonalization with overlap
     ethr =  6.84E-07,  avg # of iterations =  1.1

     negative rho (up, down):  8.839E-02 0.000E+00

     total cpu time spent up to now is      198.4 secs

     total energy              =   -2280.40559003 Ry
     estimated scf accuracy    <       0.00033801 Ry

     iteration # 16     ecut=    40.00 Ry     beta= 0.20
     Davidson diagonalization with overlap
     ethr =  6.84E-07,  avg # of iterations =  2.1

     negative rho (up, down):  8.522E-02 0.000E+00

     total cpu time spent up to now is      201.6 secs

     total energy              =   -2280.40572948 Ry
     estimated scf accuracy    <       0.00039865 Ry

     iteration # 17     ecut=    40.00 Ry     beta= 0.20
     Davidson diagonalization with overlap
     ethr =  6.84E-07,  avg # of iterations =  1.0

     negative rho (up, down):  8.622E-02 0.000E+00

     total cpu time spent up to now is      204.7 secs

     total energy              =   -2280.40573730 Ry
     estimated scf accuracy    <       0.00040950 Ry

     iteration # 18     ecut=    40.00 Ry     beta= 0.20
     Davidson diagonalization with overlap
     ethr =  6.84E-07,  avg # of iterations =  1.0

     negative rho (up, down):  7.792E-02 0.000E+00

     total cpu time spent up to now is      207.6 secs

     total energy              =   -2280.40571363 Ry
     estimated scf accuracy    <       0.00044660 Ry

     iteration # 19     ecut=    40.00 Ry     beta= 0.20
     Davidson diagonalization with overlap
     ethr =  6.84E-07,  avg # of iterations =  2.0

     negative rho (up, down):  7.887E-02 0.000E+00

     total cpu time spent up to now is      210.7 secs

     total energy              =   -2280.40568313 Ry
     estimated scf accuracy    <       0.00017852 Ry

     iteration # 20     ecut=    40.00 Ry     beta= 0.20
     Davidson diagonalization with overlap
     ethr =  4.25E-07,  avg # of iterations =  1.0

     negative rho (up, down):  7.804E-02 0.000E+00

     total cpu time spent up to now is      213.6 secs

     total energy              =   -2280.40560731 Ry
     estimated scf accuracy    <       0.00021832 Ry

     iteration # 21     ecut=    40.00 Ry     beta= 0.20
     Davidson diagonalization with overlap
     ethr =  4.25E-07,  avg # of iterations =  1.1

     negative rho (up, down):  7.967E-02 0.000E+00

     total cpu time spent up to now is      216.4 secs

     total energy              =   -2280.40544218 Ry
     estimated scf accuracy    <       0.00021157 Ry

     iteration # 22     ecut=    40.00 Ry     beta= 0.20
     Davidson diagonalization with overlap
     ethr =  4.25E-07,  avg # of iterations =  1.5

     negative rho (up, down):  7.922E-02 0.000E+00

     total cpu time spent up to now is      218.8 secs

     total energy              =   -2280.40518582 Ry
     estimated scf accuracy    <       0.00022260 Ry

     iteration # 23     ecut=    40.00 Ry     beta= 0.20
     Davidson diagonalization with overlap
     ethr =  4.25E-07,  avg # of iterations =  2.0

     negative rho (up, down):  7.941E-02 0.000E+00

     total cpu time spent up to now is      221.6 secs

     total energy              =   -2280.40514365 Ry
     estimated scf accuracy    <       0.00042469 Ry

     iteration # 24     ecut=    40.00 Ry     beta= 0.20
     Davidson diagonalization with overlap
     ethr =  4.25E-07,  avg # of iterations =  1.0

     negative rho (up, down):  7.840E-02 0.000E+00

     total cpu time spent up to now is      224.5 secs

     total energy              =   -2280.40505244 Ry
     estimated scf accuracy    <       0.00041918 Ry

     iteration # 25     ecut=    40.00 Ry     beta= 0.20
     Davidson diagonalization with overlap
     ethr =  4.25E-07,  avg # of iterations =  1.0

     negative rho (up, down):  7.810E-02 0.000E+00

     total cpu time spent up to now is      226.9 secs

     total energy              =   -2280.40496252 Ry
     estimated scf accuracy    <       0.00035840 Ry

     iteration # 26     ecut=    40.00 Ry     beta= 0.20
     Davidson diagonalization with overlap
     ethr =  4.25E-07,  avg # of iterations =  1.1

     negative rho (up, down):  6.632E-02 0.000E+00

     total cpu time spent up to now is      229.6 secs

     total energy              =   -2280.40500437 Ry
     estimated scf accuracy    <       0.00035525 Ry

     iteration # 27     ecut=    40.00 Ry     beta= 0.20
     Davidson diagonalization with overlap
     ethr =  4.25E-07,  avg # of iterations =  2.0

     negative rho (up, down):  6.938E-02 0.000E+00

     total cpu time spent up to now is      232.8 secs

     total energy              =   -2280.40509055 Ry
     estimated scf accuracy    <       0.00007871 Ry

     iteration # 28     ecut=    40.00 Ry     beta= 0.20
     Davidson diagonalization with overlap
     ethr =  1.87E-07,  avg # of iterations =  2.0

     negative rho (up, down):  6.625E-02 0.000E+00

     total cpu time spent up to now is      236.0 secs

     total energy              =   -2280.40525765 Ry
     estimated scf accuracy    <       0.00007781 Ry

     iteration # 29     ecut=    40.00 Ry     beta= 0.20
     Davidson diagonalization with overlap
     ethr =  1.85E-07,  avg # of iterations =  1.5

     negative rho (up, down):  7.318E-02 0.000E+00

     total cpu time spent up to now is      238.4 secs

     total energy              =   -2280.40586925 Ry
     estimated scf accuracy    <       0.00002751 Ry

     iteration # 30     ecut=    40.00 Ry     beta= 0.20
     Davidson diagonalization with overlap
     ethr =  6.55E-08,  avg # of iterations =  3.9

     negative rho (up, down):  7.501E-02 0.000E+00

     total cpu time spent up to now is      241.5 secs

     total energy              =   -2280.40596223 Ry
     estimated scf accuracy    <       0.00001633 Ry

     iteration # 31     ecut=    40.00 Ry     beta= 0.20
     Davidson diagonalization with overlap
     ethr =  3.89E-08,  avg # of iterations =  2.1

     negative rho (up, down):  7.676E-02 0.000E+00

     total cpu time spent up to now is      244.3 secs

     total energy              =   -2280.40586509 Ry
     estimated scf accuracy    <       0.00001234 Ry

     iteration # 32     ecut=    40.00 Ry     beta= 0.20
     Davidson diagonalization with overlap
     ethr =  2.94E-08,  avg # of iterations =  2.6

     negative rho (up, down):  7.641E-02 0.000E+00

     total cpu time spent up to now is      246.9 secs

     total energy              =   -2280.40591843 Ry
     estimated scf accuracy    <       0.00000552 Ry

     iteration # 33     ecut=    40.00 Ry     beta= 0.20
     Davidson diagonalization with overlap
     ethr =  1.32E-08,  avg # of iterations =  2.5

     negative rho (up, down):  7.301E-02 0.000E+00

     total cpu time spent up to now is      249.4 secs

     total energy              =   -2280.40595624 Ry
     estimated scf accuracy    <       0.00001382 Ry

     iteration # 34     ecut=    40.00 Ry     beta= 0.20
     Davidson diagonalization with overlap
     ethr =  1.32E-08,  avg # of iterations =  2.9

     negative rho (up, down):  7.152E-02 0.000E+00

     total cpu time spent up to now is      252.3 secs

     total energy              =   -2280.40573652 Ry
     estimated scf accuracy    <       0.00001542 Ry

     iteration # 35     ecut=    40.00 Ry     beta= 0.20
     Davidson diagonalization with overlap
     ethr =  1.32E-08,  avg # of iterations =  3.2

     negative rho (up, down):  7.105E-02 0.000E+00

     total cpu time spent up to now is      255.4 secs

     total energy              =   -2280.40577163 Ry
     estimated scf accuracy    <       0.00002635 Ry

     iteration # 36     ecut=    40.00 Ry     beta= 0.20
     Davidson diagonalization with overlap
     ethr =  1.32E-08,  avg # of iterations =  2.3

     negative rho (up, down):  7.310E-02 0.000E+00

     total cpu time spent up to now is      258.1 secs

     total energy              =   -2280.40586591 Ry
     estimated scf accuracy    <       0.00001960 Ry

     iteration # 37     ecut=    40.00 Ry     beta= 0.20
     Davidson diagonalization with overlap
     ethr =  1.32E-08,  avg # of iterations =  2.7

     negative rho (up, down):  7.165E-02 0.000E+00

     total cpu time spent up to now is      261.3 secs

     total energy              =   -2280.40558145 Ry
     estimated scf accuracy    <       0.00000746 Ry

     iteration # 38     ecut=    40.00 Ry     beta= 0.20
     Davidson diagonalization with overlap
     ethr =  1.32E-08,  avg # of iterations =  3.2

     negative rho (up, down):  7.297E-02 0.000E+00

     total cpu time spent up to now is      264.4 secs

     total energy              =   -2280.40561680 Ry
     estimated scf accuracy    <       0.00002252 Ry

     iteration # 39     ecut=    40.00 Ry     beta= 0.20
     Davidson diagonalization with overlap
     ethr =  1.32E-08,  avg # of iterations =  2.2

     negative rho (up, down):  7.688E-02 0.000E+00

     total cpu time spent up to now is      267.4 secs

     total energy              =   -2280.40594602 Ry
     estimated scf accuracy    <       0.00001652 Ry

     iteration # 40     ecut=    40.00 Ry     beta= 0.20
     Davidson diagonalization with overlap
     ethr =  1.32E-08,  avg # of iterations =  4.0

     negative rho (up, down):  7.650E-02 0.000E+00

     total cpu time spent up to now is      270.7 secs

     total energy              =   -2280.40596676 Ry
     estimated scf accuracy    <       0.00000126 Ry

     iteration # 41     ecut=    40.00 Ry     beta= 0.20
     Davidson diagonalization with overlap
     ethr =  3.01E-09,  avg # of iterations =  2.8

     negative rho (up, down):  7.518E-02 0.000E+00

     total cpu time spent up to now is      274.0 secs

     total energy              =   -2280.40598268 Ry
     estimated scf accuracy    <       0.00000118 Ry

     iteration # 42     ecut=    40.00 Ry     beta= 0.20
     Davidson diagonalization with overlap
     ethr =  2.80E-09,  avg # of iterations =  3.4

     negative rho (up, down):  7.527E-02 0.000E+00

     total cpu time spent up to now is      277.3 secs

     total energy              =   -2280.40598314 Ry
     estimated scf accuracy    <       0.00000028 Ry

     iteration # 43     ecut=    40.00 Ry     beta= 0.20
     Davidson diagonalization with overlap
     ethr =  6.65E-10,  avg # of iterations =  2.1

     negative rho (up, down):  7.512E-02 0.000E+00

     total cpu time spent up to now is      280.2 secs

     End of self-consistent calculation

          k = 0.0000 0.0000 0.0000 (  3227 PWs)   bands (ev):

   -65.7063 -65.6372 -65.3320 -30.2649 -30.0680 -30.0513 -30.0513 -29.6605
   -29.6605 -29.3103 -29.1661 -29.1661  -0.0715   2.7998   3.0666   3.0996
     5.5444   7.3970   7.3970   7.8708   8.0188   8.2507   8.8391   8.8391
     8.9555  10.6453  11.9206  12.0648  12.0648

          k = 0.0000 0.1747 0.0000 (  3224 PWs)   bands (ev):

   -65.6914 -65.6317 -65.3402 -30.3120 -30.2766 -29.9878 -29.9098 -29.8085
   -29.6519 -29.2384 -29.2183 -29.2143   0.5769   3.1053   3.2688   3.7204
     5.7826   6.9964   7.0702   7.1123   7.7238   8.3615   8.9795   9.4934
     9.9651  10.0996  10.5458  11.6499  12.8367

          k = 0.0000 0.3493 0.0000 (  3210 PWs)   bands (ev):

   -65.6611 -65.6179 -65.3597 -30.5322 -30.3895 -29.9516 -29.8978 -29.8192
   -29.6343 -29.3643 -29.3081 -29.1465   1.9144   3.1368   3.6435   5.2037
     6.0321   6.3816   6.6620   7.2383   7.8873   9.0103   9.2641   9.3074
     9.8033   9.8920  10.5983  12.2161  13.0939

          k = 0.0000-0.5240 0.0000 (  3216 PWs)   bands (ev):

   -65.6472 -65.6073 -65.3719 -30.6173 -30.4760 -30.0234 -29.8869 -29.6507
   -29.6165 -29.5306 -29.3147 -29.1357   2.3898   2.9865   4.3219   5.6604
     6.0227   6.1420   6.4875   7.0458   8.5989   8.9542   9.4389   9.5998
    10.0706  10.3136  11.7523  12.6237  13.2034

          k = 0.1747 0.1747 0.0000 (  3237 PWs)   bands (ev):

   -65.6789 -65.6262 -65.3459 -30.3063 -30.2668 -30.1828 -29.8254 -29.7922
   -29.7406 -29.3420 -29.1972 -29.1833   1.2129   3.7568   3.8032   3.9971
     5.4366   5.7745   7.1051   7.6363   7.8639   8.1429   8.3163   9.5495
     9.5755  10.5144  11.5329  11.8838  12.2877

          k = 0.1747 0.3493 0.0000 (  3231 PWs)   bands (ev):

   -65.6544 -65.6125 -65.3593 -30.4911 -30.3234 -30.1734 -29.8894 -29.8193
   -29.7376 -29.3963 -29.2463 -29.1873   2.5402   3.8543   4.1861   4.8774
     5.4980   5.6643   6.9078   7.3971   7.8612   8.2688   8.5518   9.5751
    10.0819  10.4300  11.8574  11.9388  13.2206

          k = 0.1747-0.5240 0.0000 (  3252 PWs)   bands (ev):

   -65.6432 -65.6033 -65.3675 -30.5820 -30.3905 -30.1904 -29.8789 -29.8041
   -29.7136 -29.4411 -29.2596 -29.2132   3.1210   3.6380   4.0940   5.2746
     5.4144   5.6790   6.9974   7.6271   8.5074   8.5968   9.0858   9.6463
    10.0439  10.8257  11.8797  12.7950  13.2900

          k = 0.3493 0.3493 0.0000 (  3264 PWs)   bands (ev):

   -65.6414 -65.6012 -65.3588 -30.4389 -30.4380 -30.1905 -29.9580 -29.8984
   -29.8652 -29.3411 -29.3060 -29.2589   3.2811   4.1170   4.7561   4.9569
     5.1643   5.6627   6.2545   7.9762   8.4891   8.6815   8.7003   9.9302
    10.1427  11.2662  11.8350  12.7500  14.4958

          k = 0.3493-0.5240 0.0000 (  3264 PWs)   bands (ev):

   -65.6350 -65.5951 -65.3587 -30.5465 -30.4490 -30.1672 -29.9814 -29.8908
   -29.8565 -29.4268 -29.3273 -29.2601   3.2642   3.8171   4.5710   4.6890
     5.2466   6.2978   6.3642   8.5089   8.7653   9.2885  10.1020  10.1876
    10.6562  11.4391  12.5474  12.9967  13.4382

          k =-0.5240-0.5240 0.0000 (  3256 PWs)   bands (ev):

   -65.6309 -65.5910 -65.3542 -30.5620 -30.5620 -30.0050 -29.9759 -29.9759
   -29.8483 -29.6086 -29.2894 -29.2894   2.9368   3.4517   4.6496   4.6496
     5.4692   6.2076   6.2076   9.7962   9.7962  10.3221  10.8039  11.5978
    11.5978  11.9504  12.3961  12.4425  12.5379

     the Fermi energy is     8.3941 ev

!    total energy              =   -2280.40598587 Ry
     total all-electron energy =    -96857.254999 Ry
     estimated scf accuracy    <       0.00000016 Ry
     smearing contrib. (-TS)   =      -0.00206166 Ry
     internal energy E=F+TS    =   -2280.40392421 Ry

     The total energy is F=E-TS. E is the sum of the following terms:
     one-electron contribution =    -859.42850885 Ry
     hartree contribution      =     438.47938529 Ry
     xc contribution           =    -120.05691223 Ry
     ewald contribution        =      77.31017092 Ry
     one-center paw contrib.   =   -1816.70805935 Ry

     convergence has been achieved in  43 iterations

     negative rho (up, down):  7.512E-02 0.000E+00

     Forces acting on atoms (cartesian axes, Ry/au):

     atom    1 type  1   force =     0.00000000    0.00000000   -0.02479822
     atom    2 type  1   force =     0.00000000    0.00000000   -0.00697781
     atom    3 type  1   force =     0.00000000    0.00000000    0.03177604

     Total force =     0.040907     Total SCF correction =     0.001184


     Computing stress (Cartesian axis) and pressure


     negative rho (up, down):  7.512E-02 0.000E+00
          total   stress  (Ry/bohr**3)                   (kbar)     P=       12.44
   0.00002173   0.00000000   0.00000000            3.20        0.00        0.00
   0.00000000   0.00002173   0.00000000            0.00        3.20        0.00
   0.00000000   0.00000000   0.00021029            0.00        0.00       30.93

     Energy error            =      8.6E-03 Ry
     Gradient error          =      3.2E-02 Ry/Bohr
     Cell gradient error     =      3.2E+00 kbar

     number of scf cycles    =   3
     number of bfgs steps    =   2

     enthalpy           old  =   -2280.3973451310 Ry
     enthalpy           new  =   -2280.4059858719 Ry

     CASE: enthalpy          _new < enthalpy          _old

     new trust radius        =       0.0272099139 bohr

     The maximum number of steps has been reached.

     End of BFGS Geometry Optimization
     new unit-cell volume =    689.85359 a.u.^3 (   102.22576 Ang^3 )
     density =      8.95880 g/cm^3

CELL_PARAMETERS (angstrom)
   3.025196416   0.000000000   0.000000000
   0.000000000   3.025196416   0.000000000
   0.000000000   0.000000000  11.170000000

ATOMIC_POSITIONS (crystal)
W                0.0000000000        0.0000000000        0.3618412079
W                0.5000000000        0.5000000000        0.5020548064
W                0.0000000000        0.0000000000        0.6405802613



     Writing config-only to output data dir ./tmp/vcr.save/ :
     XML data file
     NEW-OLD atomic charge density approx. for the potential
     New effective cutoffs (rho, wfc):  351.11   43.91

     Check: negative core charge=   -0.000001

     negative rho (up, down):  7.347E-02 0.000E+00

     Writing all to output data dir ./tmp/vcr.save/ :
     XML data file, charge density, pseudopotentials, collected wavefunctions

     init_run     :      4.80s CPU      5.02s WALL (       1 calls)
     electrons    :    245.90s CPU    262.73s WALL (       3 calls)
     update_pot   :      3.32s CPU      3.54s WALL (       3 calls)
     forces       :      1.54s CPU      1.75s WALL (       3 calls)
     stress       :      8.83s CPU      9.52s WALL (       3 calls)

     Called by init_run:
     wfcinit      :      0.61s CPU      0.63s WALL (       1 calls)
     potinit      :      1.65s CPU      1.78s WALL (       1 calls)
     hinit0       :      2.22s CPU      2.25s WALL (       1 calls)

     Called by electrons:
     c_bands      :     81.84s CPU     82.74s WALL (      95 calls)
     sum_band     :     32.99s CPU     38.16s WALL (      95 calls)
     v_of_rho     :     11.38s CPU     12.18s WALL (      99 calls)
     newd         :     19.36s CPU     24.18s WALL (      99 calls)
     PAW_pot      :     90.20s CPU     95.59s WALL (     102 calls)
     mix_rho      :     17.50s CPU     17.87s WALL (      95 calls)

     Called by c_bands:
     init_us_2    :      2.21s CPU      2.25s WALL (    1000 calls)
     cegterg      :     70.20s CPU     71.00s WALL (     475 calls)

     Called by *egterg:
     cdiaghg      :      2.36s CPU      2.38s WALL (    1805 calls)
     h_psi        :     51.00s CPU     51.63s WALL (    1820 calls)
     s_psi        :      2.95s CPU      2.98s WALL (    1820 calls)
     g_psi        :      0.87s CPU      0.88s WALL (    1340 calls)

     Called by h_psi:
     h_psi:calbec :      3.39s CPU      3.41s WALL (    1820 calls)
     vloc_psi     :     44.22s CPU     44.79s WALL (    1820 calls)
                                        0.00s GPU  (    1820 calls)
     add_vuspsi   :      3.05s CPU      3.07s WALL (    1820 calls)

     General routines
     calbec       :      5.26s CPU      5.30s WALL (    2565 calls)
     fft          :      5.32s CPU      5.37s WALL (    1359 calls)
     ffts         :      7.40s CPU      7.48s WALL (    8004 calls)
     fftw         :     43.95s CPU     44.54s WALL (   81939 calls)
     interpolate  :      0.81s CPU      0.82s WALL (      99 calls)
     davcio       :      0.00s CPU      0.01s WALL (       5 calls)

     Parallel routines

     PWSCF        :   4m28.43s CPU   4m46.94s WALL


   This run was terminated on:  10:11:18  30Sep2026            

=------------------------------------------------------------------------------=
   JOB DONE.
=------------------------------------------------------------------------------=
