
     Program PWSCF v.7.3.1 starts on  1Oct2026 at  0:59:11 

     This program is part of the open-source Quantum ESPRESSO suite
     for quantum simulation of materials; please cite
         "P. Giannozzi et al., J. Phys.:Condens. Matter 21 395502 (2009);
         "P. Giannozzi et al., J. Phys.:Condens. Matter 29 465901 (2017);
         "P. Giannozzi et al., J. Chem. Phys. 152 154105 (2020);
          URL http://www.quantum-espresso.org", 
     in publications or presentations arising from this work. More details at
     http://www.quantum-espresso.org/quote

     Parallel version (MPI & OpenMP), running on       1 processor cores
     Number of MPI processes:                 1
     Threads/MPI process:                     1

     MPI processes distributed on     1 nodes
     310917 MiB available memory on the printing compute node when the environment starts
 
     Reading input from scf.in

     Current dimensions of program PWSCF are:
     Max number of different atomic species (ntypx) = 10
     Max number of k-points (npk) =  40000
     Max angular momentum in pseudopotentials (lmaxx) =  4

     IMPORTANT: XC functional enforced from input :
     Exchange-correlation= HSE
                           (   1   4  12   4   0   0   0)
     EXX-fraction              =        0.25
     Any further DFT definition will be discarded
     Please, verify this is what you really want

     Message from routine setup:
     using ibrav=0 with symmetry is DISCOURAGED, use correct ibrav instead
 
     Subspace diagonalization in iterative solution of the eigenvalue problem:
     a serial algorithm will be used

     EXX: q-point mesh:     1    1    1
     EXX: setup a grid of 4 q-points centered on each k-point
     (k+q)-points:
   0.0000000   0.0000000   0.0000000         1    1
   0.0000000   0.3333955   0.0000000         2    1
   0.3333333   0.0000000   0.0000000         3    1
   0.3333333   0.3333955   0.0000000         4    1
 
     G-vector sticks info
     --------------------
     sticks:   dense  smooth     PW     G-vecs:    dense   smooth      PW
     Sum        9725    9725   2509              2430543  2430543  319563
 
     Using Slab Decomposition
 


     bravais-lattice index     =            0
     lattice parameter (alat)  =      19.5330  a.u.
     unit-cell volume          =   25140.0035 (a.u.)^3
     number of atoms/cell      =           96
     number of atomic types    =            3
     number of electrons       =       624.00
     number of Kohn-Sham states=          328
     kinetic-energy cutoff     =      80.0000  Ry
     charge density cutoff     =     320.0000  Ry
     cutoff for Fock operator  =     160.0000  Ry
     scf convergence threshold =      1.0E-09
     mixing beta               =       0.3000
     number of iterations used =            8  local-TF  mixing
     Exchange-correlation= HSE
                           (   1   4  12   4   0   0   0)
     EXX-fraction              =        0.25

     GPU acceleration is ACTIVE.  1 visible GPUs per MPI rank
     GPU-aware MPI enabled


     GPU used by master process:

        Device Number: 0
        Device name: NVIDIA H100 NVL
        Compute capability : 90
        Ratio of single to double precision performance  : 2
        Memory Clock Rate (KHz): 2619000
        Memory Bus Width (bits): 6016
        Peak Memory Bandwidth (GB/s): ******

     celldm(1)=  19.533024  celldm(2)=   0.000000  celldm(3)=   0.000000
     celldm(4)=   0.000000  celldm(5)=   0.000000  celldm(6)=   0.000000

     crystal axes: (cart. coord. in units of alat)
               a(1) = (   1.000000   0.000000   0.000000 )  
               a(2) = (   0.000000   0.999814   0.000000 )  
               a(3) = (   0.000000   0.000000   3.373944 )  

     reciprocal axes: (cart. coord. in units 2 pi/alat)
               b(1) = (  1.000000  0.000000  0.000000 )  
               b(2) = (  0.000000  1.000186  0.000000 )  
               b(3) = (  0.000000  0.000000  0.296389 )  


     PseudoPot. # 1 for In read from file:
     ./In_ONCV_PBE-1.2.upf
     MD5 check sum: 2123f823f6143602c63cd302e3a0bdd6
     Pseudo is Norm-conserving, Zval = 13.0
     Generated using ONCVPSP code by D. R. Hamann
     Using radial grid of  602 points,  6 beta functions with: 
                l(1) =   0
                l(2) =   0
                l(3) =   1
                l(4) =   1
                l(5) =   2
                l(6) =   2

     PseudoPot. # 2 for O  read from file:
     ./O_ONCV_PBE-1.2.upf
     MD5 check sum: e36c48deb68f4e355fffe4602be2c42c
     Pseudo is Norm-conserving, Zval =  6.0
     Generated using ONCVPSP code by D. R. Hamann
     Using radial grid of  602 points,  4 beta functions with: 
                l(1) =   0
                l(2) =   0
                l(3) =   1
                l(4) =   1

     PseudoPot. # 3 for H  read from file:
     ./H_ONCV_PBE-1.2.upf
     MD5 check sum: bf21e08b90ac4ce7d0149ac4e8138190
     Pseudo is Norm-conserving, Zval =  1.0
     Generated using ONCVPSP code by D. R. Hamann
     Using radial grid of  602 points,  2 beta functions with: 
                l(1) =   0
                l(2) =   0

     atomic species   valence    mass     pseudopotential
     In               13.00   114.81800     In( 1.00)
     O                 6.00    15.99900     O ( 1.00)
     H                 1.00     1.00800     H ( 1.00)

      8 Sym. Ops., with inversion, found ( 6 have fractional translation)


                                    s                        frac. trans.

      isym =  1     identity                                     

 cryst.   s( 1) = (     1          0          0      )
                  (     0          1          0      )
                  (     0          0          1      )

 cart.    s( 1) = (  1.0000000  0.0000000  0.0000000 )
                  (  0.0000000  1.0000000  0.0000000 )
                  (  0.0000000  0.0000000  1.0000000 )


      isym =  2     180 deg rotation - cart. axis [0,0,1]        

 cryst.   s( 2) = (    -1          0          0      )    f =(  0.0000000 )
                  (     0         -1          0      )       ( -0.5000000 )
                  (     0          0          1      )       (  0.0000000 )

 cart.    s( 2) = ( -1.0000000  0.0000000  0.0000000 )    f =(  0.0000000 )
                  (  0.0000000 -1.0000000  0.0000000 )       ( -0.4999068 )
                  (  0.0000000  0.0000000  1.0000000 )       (  0.0000000 )


      isym =  3     180 deg rotation - cart. axis [0,1,0]        

 cryst.   s( 3) = (    -1          0          0      )    f =(  0.5000000 )
                  (     0          1          0      )       (  0.0000000 )
                  (     0          0         -1      )       ( -0.0000000 )

 cart.    s( 3) = ( -1.0000000  0.0000000  0.0000000 )    f =(  0.5000000 )
                  (  0.0000000  1.0000000  0.0000000 )       (  0.0000000 )
                  (  0.0000000  0.0000000 -1.0000000 )       ( -0.0000000 )


      isym =  4     180 deg rotation - cart. axis [1,0,0]        

 cryst.   s( 4) = (     1          0          0      )    f =( -0.5000000 )
                  (     0         -1          0      )       ( -0.5000000 )
                  (     0          0         -1      )       ( -0.0000000 )

 cart.    s( 4) = (  1.0000000  0.0000000  0.0000000 )    f =( -0.5000000 )
                  (  0.0000000 -1.0000000  0.0000000 )       ( -0.4999068 )
                  (  0.0000000  0.0000000 -1.0000000 )       ( -0.0000000 )


      isym =  5     inversion                                    

 cryst.   s( 5) = (    -1          0          0      )
                  (     0         -1          0      )
                  (     0          0         -1      )

 cart.    s( 5) = ( -1.0000000  0.0000000  0.0000000 )
                  (  0.0000000 -1.0000000  0.0000000 )
                  (  0.0000000  0.0000000 -1.0000000 )


      isym =  6     inv. 180 deg rotation - cart. axis [0,0,1]   

 cryst.   s( 6) = (     1          0          0      )    f =(  0.0000000 )
                  (     0          1          0      )       (  0.5000000 )
                  (     0          0         -1      )       ( -0.0000000 )

 cart.    s( 6) = (  1.0000000  0.0000000  0.0000000 )    f =(  0.0000000 )
                  (  0.0000000  1.0000000  0.0000000 )       (  0.4999068 )
                  (  0.0000000  0.0000000 -1.0000000 )       ( -0.0000000 )


      isym =  7     inv. 180 deg rotation - cart. axis [0,1,0]   

 cryst.   s( 7) = (     1          0          0      )    f =( -0.5000000 )
                  (     0         -1          0      )       (  0.0000000 )
                  (     0          0          1      )       (  0.0000000 )

 cart.    s( 7) = (  1.0000000  0.0000000  0.0000000 )    f =( -0.5000000 )
                  (  0.0000000 -1.0000000  0.0000000 )       (  0.0000000 )
                  (  0.0000000  0.0000000  1.0000000 )       (  0.0000000 )


      isym =  8     inv. 180 deg rotation - cart. axis [1,0,0]   

 cryst.   s( 8) = (    -1          0          0      )    f =(  0.5000000 )
                  (     0          1          0      )       (  0.5000000 )
                  (     0          0          1      )       (  0.0000000 )

 cart.    s( 8) = ( -1.0000000  0.0000000  0.0000000 )    f =(  0.5000000 )
                  (  0.0000000  1.0000000  0.0000000 )       (  0.4999068 )
                  (  0.0000000  0.0000000  1.0000000 )       (  0.0000000 )


   Cartesian axes

     site n.     atom                  positions (alat units)
         1        In     tau(   1) = (   0.2477884   0.2524314   1.4377810  )
         2        In     tau(   2) = (   0.7522116   0.2474754   1.4377810  )
         3        In     tau(   3) = (   0.2522116   0.2524314   1.9361629  )
         4        In     tau(   4) = (   0.2522116   0.7523382   1.4377810  )
         5        In     tau(   5) = (   0.4644838   0.5018987   1.9353099  )
         6        In     tau(   6) = (   0.0355162   0.5018987   1.4386341  )
         7        In     tau(   7) = (   0.7500000   0.4645322   1.6869720  )
         8        In     tau(   8) = (   0.2500000   0.0353746   1.6869720  )
         9        In     tau(   9) = (   0.5000000   0.7498602   1.6545612  )
        10        In     tau(  10) = (   0.0355162   0.0019919   1.9353099  )
        11        In     tau(  11) = (   0.4644838   0.0019919   1.4386341  )
        12        In     tau(  12) = (   0.0000000   0.2499534   1.6545612  )
        13        O      tau(  13) = (   0.3895937   0.1566307   1.5661185  )
        14        O      tau(  14) = (   0.6104063   0.3432761   1.5661185  )
        15        O      tau(  15) = (   0.1104063   0.1566307   1.8078254  )
        16        O      tau(  16) = (   0.8895937   0.3432761   1.8078254  )
        17        O      tau(  17) = (   0.3807926   0.3940382   1.3430988  )
        18        O      tau(  18) = (   0.3835283   0.6107629   1.5355577  )
        19        O      tau(  19) = (   0.6192074   0.1058686   1.3430988  )
        20        O      tau(  20) = (   0.6164717   0.8889575   1.5355577  )
        21        O      tau(  21) = (   0.1543779   0.3833719   1.5788707  )
        22        O      tau(  22) = (   0.3456221   0.3833719   1.7950732  )
        23        O      tau(  23) = (   0.1844690   0.6022275   1.3059819  )
        24        O      tau(  24) = (   0.3155310   0.6022275   2.0679621  )
        25        O      tau(  25) = (   0.0987520   0.3418824   1.3159406  )
        26        O      tau(  26) = (   0.9012480   0.1580244   1.3159406  )
        27        O      tau(  27) = (   0.4012480   0.3418824   2.0580033  )
        28        O      tau(  28) = (   0.5987520   0.1580244   2.0580033  )
        29        O      tau(  29) = (   0.1164717   0.1108561   1.5355577  )
        30        O      tau(  30) = (   0.1192074   0.8939450   1.3430988  )
        31        O      tau(  31) = (   0.8835283   0.3890507   1.5355577  )
        32        O      tau(  32) = (   0.8807926   0.6057754   1.3430988  )
        33        O      tau(  33) = (   0.3155310   0.1023207   1.3059819  )
        34        O      tau(  34) = (   0.1844690   0.1023207   2.0679621  )
        35        O      tau(  35) = (   0.3456221   0.8832787   1.5788707  )
        36        O      tau(  36) = (   0.1543779   0.8832787   1.7950732  )
        37        In     tau(  37) = (   0.7522116   0.7473822   1.9361629  )
        38        In     tau(  38) = (   0.2477884   0.7523382   1.9361629  )
        39        In     tau(  39) = (   0.7477884   0.7473822   1.4377810  )
        40        In     tau(  40) = (   0.7477884   0.2474754   1.9361629  )
        41        In     tau(  41) = (   0.9644838  -0.0019919   1.4386341  )
        42        In     tau(  42) = (   0.5355162  -0.0019919   1.9353099  )
        43        In     tau(  43) = (   0.0000000   0.7498602   1.7193827  )
        44        In     tau(  44) = (   0.5355162   0.4979149   1.4386341  )
        45        In     tau(  45) = (   0.9644838   0.4979149   1.9353099  )
        46        In     tau(  46) = (   0.2500000   0.5352814   1.6869720  )
        47        In     tau(  47) = (   0.7500000   0.9644390   1.6869720  )
        48        In     tau(  48) = (   0.5000000   0.2499534   1.7193827  )
        49        O      tau(  49) = (   0.9012480   0.6579312   2.0580033  )
        50        O      tau(  50) = (   0.0987520   0.8417892   2.0580033  )
        51        O      tau(  51) = (   0.5987520   0.6579312   1.3159406  )
        52        O      tau(  52) = (   0.4012480   0.8417892   1.3159406  )
        53        O      tau(  53) = (   0.8835283   0.8889575   1.8383862  )
        54        O      tau(  54) = (   0.8807926   0.1058686   2.0308451  )
        55        O      tau(  55) = (   0.1164717   0.6107629   1.8383862  )
        56        O      tau(  56) = (   0.1192074   0.3940382   2.0308451  )
        57        O      tau(  57) = (   0.6844690   0.8974929   2.0679621  )
        58        O      tau(  58) = (   0.8155310   0.8974929   1.3059819  )
        59        O      tau(  59) = (   0.6543779   0.1165349   1.7950732  )
        60        O      tau(  60) = (   0.8456221   0.1165349   1.5788707  )
        61        O      tau(  61) = (   0.6104063   0.8431829   1.8078254  )
        62        O      tau(  62) = (   0.3895937   0.6565375   1.8078254  )
        63        O      tau(  63) = (   0.8895937   0.8431829   1.5661185  )
        64        O      tau(  64) = (   0.1104063   0.6565375   1.5661185  )
        65        O      tau(  65) = (   0.6192074   0.6057754   2.0308451  )
        66        O      tau(  66) = (   0.6164717   0.3890507   1.8383862  )
        67        O      tau(  67) = (   0.3807926   0.8939450   2.0308451  )
        68        O      tau(  68) = (   0.3835283   0.1108561   1.8383862  )
        69        O      tau(  69) = (   0.8456221   0.6164417   1.7950732  )
        70        O      tau(  70) = (   0.6543779   0.6164417   1.5788707  )
        71        O      tau(  71) = (   0.8155310   0.3975861   2.0679621  )
        72        O      tau(  72) = (   0.6844690   0.3975861   1.3059819  )
        73        H      tau(  73) = (   0.3217590   0.4630756   1.3138608  )
        74        H      tau(  74) = (   0.6782410   0.0368312   1.3138608  )
        75        H      tau(  75) = (   0.1367869   0.6459755   1.2374682  )
        76        H      tau(  76) = (   0.3632131   0.6459755   2.1364757  )
        77        H      tau(  77) = (   0.1355230   0.3772115   1.2369454  )
        78        H      tau(  78) = (   0.8644770   0.1226953   1.2369454  )
        79        H      tau(  79) = (   0.3644770   0.3772115   2.1369985  )
        80        H      tau(  80) = (   0.6355230   0.1226953   2.1369985  )
        81        H      tau(  81) = (   0.1782410   0.9629824   1.3138608  )
        82        H      tau(  82) = (   0.8217590   0.5367379   1.3138608  )
        83        H      tau(  83) = (   0.3632131   0.1460687   1.2374682  )
        84        H      tau(  84) = (   0.1367869   0.1460687   2.1364757  )
        85        H      tau(  85) = (   0.8644770   0.6226021   2.1369985  )
        86        H      tau(  86) = (   0.1355230   0.8771183   2.1369985  )
        87        H      tau(  87) = (   0.6355230   0.6226021   1.2369454  )
        88        H      tau(  88) = (   0.3644770   0.8771183   1.2369454  )
        89        H      tau(  89) = (   0.8217590   0.0368312   2.0600832  )
        90        H      tau(  90) = (   0.1782410   0.4630756   2.0600832  )
        91        H      tau(  91) = (   0.6367869   0.8537449   2.1364757  )
        92        H      tau(  92) = (   0.8632130   0.8537449   1.2374682  )
        93        H      tau(  93) = (   0.6782410   0.5367379   2.0600832  )
        94        H      tau(  94) = (   0.3217590   0.9629824   2.0600832  )
        95        H      tau(  95) = (   0.8632130   0.3538381   2.1364757  )
        96        H      tau(  96) = (   0.6367869   0.3538381   1.2374682  )

   Crystallographic axes

     site n.     atom                  positions (cryst. coord.)
         1        In     tau(   1) = (  0.2477884  0.2524785  0.4261425  )
         2        In     tau(   2) = (  0.7522116  0.2475215  0.4261425  )
         3        In     tau(   3) = (  0.2522116  0.2524785  0.5738575  )
         4        In     tau(   4) = (  0.2522116  0.7524785  0.4261425  )
         5        In     tau(   5) = (  0.4644838  0.5019922  0.5736046  )
         6        In     tau(   6) = (  0.0355162  0.5019922  0.4263954  )
         7        In     tau(   7) = (  0.7500000  0.4646188  0.5000000  )
         8        In     tau(   8) = (  0.2500000  0.0353812  0.5000000  )
         9        In     tau(   9) = (  0.5000000  0.7500000  0.4903938  )
        10        In     tau(  10) = (  0.0355162  0.0019922  0.5736046  )
        11        In     tau(  11) = (  0.4644838  0.0019922  0.4263954  )
        12        In     tau(  12) = (  0.0000000  0.2500000  0.4903938  )
        13        O      tau(  13) = (  0.3895937  0.1566599  0.4641804  )
        14        O      tau(  14) = (  0.6104063  0.3433401  0.4641804  )
        15        O      tau(  15) = (  0.1104063  0.1566599  0.5358196  )
        16        O      tau(  16) = (  0.8895937  0.3433401  0.5358196  )
        17        O      tau(  17) = (  0.3807926  0.3941117  0.3980798  )
        18        O      tau(  18) = (  0.3835283  0.6108768  0.4551225  )
        19        O      tau(  19) = (  0.6192074  0.1058883  0.3980798  )
        20        O      tau(  20) = (  0.6164717  0.8891232  0.4551225  )
        21        O      tau(  21) = (  0.1543779  0.3834434  0.4679600  )
        22        O      tau(  22) = (  0.3456221  0.3834434  0.5320400  )
        23        O      tau(  23) = (  0.1844690  0.6023397  0.3870787  )
        24        O      tau(  24) = (  0.3155310  0.6023397  0.6129213  )
        25        O      tau(  25) = (  0.0987520  0.3419461  0.3900304  )
        26        O      tau(  26) = (  0.9012480  0.1580539  0.3900304  )
        27        O      tau(  27) = (  0.4012480  0.3419461  0.6099696  )
        28        O      tau(  28) = (  0.5987520  0.1580539  0.6099696  )
        29        O      tau(  29) = (  0.1164717  0.1108768  0.4551225  )
        30        O      tau(  30) = (  0.1192074  0.8941117  0.3980798  )
        31        O      tau(  31) = (  0.8835283  0.3891232  0.4551225  )
        32        O      tau(  32) = (  0.8807926  0.6058883  0.3980798  )
        33        O      tau(  33) = (  0.3155310  0.1023397  0.3870787  )
        34        O      tau(  34) = (  0.1844690  0.1023397  0.6129213  )
        35        O      tau(  35) = (  0.3456221  0.8834434  0.4679600  )
        36        O      tau(  36) = (  0.1543779  0.8834434  0.5320400  )
        37        In     tau(  37) = (  0.7522116  0.7475215  0.5738575  )
        38        In     tau(  38) = (  0.2477884  0.7524785  0.5738575  )
        39        In     tau(  39) = (  0.7477884  0.7475215  0.4261425  )
        40        In     tau(  40) = (  0.7477884  0.2475215  0.5738575  )
        41        In     tau(  41) = (  0.9644838 -0.0019922  0.4263954  )
        42        In     tau(  42) = (  0.5355162 -0.0019922  0.5736046  )
        43        In     tau(  43) = (  0.0000000  0.7500000  0.5096062  )
        44        In     tau(  44) = (  0.5355162  0.4980078  0.4263954  )
        45        In     tau(  45) = (  0.9644838  0.4980078  0.5736046  )
        46        In     tau(  46) = (  0.2500000  0.5353812  0.5000000  )
        47        In     tau(  47) = (  0.7500000  0.9646188  0.5000000  )
        48        In     tau(  48) = (  0.5000000  0.2500000  0.5096062  )
        49        O      tau(  49) = (  0.9012480  0.6580539  0.6099696  )
        50        O      tau(  50) = (  0.0987520  0.8419461  0.6099696  )
        51        O      tau(  51) = (  0.5987520  0.6580539  0.3900304  )
        52        O      tau(  52) = (  0.4012480  0.8419461  0.3900304  )
        53        O      tau(  53) = (  0.8835283  0.8891232  0.5448775  )
        54        O      tau(  54) = (  0.8807926  0.1058883  0.6019202  )
        55        O      tau(  55) = (  0.1164717  0.6108768  0.5448775  )
        56        O      tau(  56) = (  0.1192074  0.3941117  0.6019202  )
        57        O      tau(  57) = (  0.6844690  0.8976603  0.6129213  )
        58        O      tau(  58) = (  0.8155310  0.8976603  0.3870787  )
        59        O      tau(  59) = (  0.6543779  0.1165566  0.5320400  )
        60        O      tau(  60) = (  0.8456221  0.1165566  0.4679600  )
        61        O      tau(  61) = (  0.6104063  0.8433401  0.5358196  )
        62        O      tau(  62) = (  0.3895937  0.6566599  0.5358196  )
        63        O      tau(  63) = (  0.8895937  0.8433401  0.4641804  )
        64        O      tau(  64) = (  0.1104063  0.6566599  0.4641804  )
        65        O      tau(  65) = (  0.6192074  0.6058883  0.6019202  )
        66        O      tau(  66) = (  0.6164717  0.3891232  0.5448775  )
        67        O      tau(  67) = (  0.3807926  0.8941117  0.6019202  )
        68        O      tau(  68) = (  0.3835283  0.1108768  0.5448775  )
        69        O      tau(  69) = (  0.8456221  0.6165566  0.5320400  )
        70        O      tau(  70) = (  0.6543779  0.6165566  0.4679600  )
        71        O      tau(  71) = (  0.8155310  0.3976603  0.6129213  )
        72        O      tau(  72) = (  0.6844690  0.3976603  0.3870787  )
        73        H      tau(  73) = (  0.3217590  0.4631620  0.3894139  )
        74        H      tau(  74) = (  0.6782410  0.0368380  0.3894139  )
        75        H      tau(  75) = (  0.1367869  0.6460959  0.3667720  )
        76        H      tau(  76) = (  0.3632131  0.6460959  0.6332280  )
        77        H      tau(  77) = (  0.1355230  0.3772818  0.3666171  )
        78        H      tau(  78) = (  0.8644770  0.1227182  0.3666171  )
        79        H      tau(  79) = (  0.3644770  0.3772818  0.6333829  )
        80        H      tau(  80) = (  0.6355230  0.1227182  0.6333829  )
        81        H      tau(  81) = (  0.1782410  0.9631620  0.3894139  )
        82        H      tau(  82) = (  0.8217590  0.5368380  0.3894139  )
        83        H      tau(  83) = (  0.3632131  0.1460959  0.3667720  )
        84        H      tau(  84) = (  0.1367869  0.1460959  0.6332280  )
        85        H      tau(  85) = (  0.8644770  0.6227182  0.6333829  )
        86        H      tau(  86) = (  0.1355230  0.8772818  0.6333829  )
        87        H      tau(  87) = (  0.6355230  0.6227182  0.3666171  )
        88        H      tau(  88) = (  0.3644770  0.8772818  0.3666171  )
        89        H      tau(  89) = (  0.8217590  0.0368380  0.6105861  )
        90        H      tau(  90) = (  0.1782410  0.4631620  0.6105861  )
        91        H      tau(  91) = (  0.6367869  0.8539041  0.6332280  )
        92        H      tau(  92) = (  0.8632130  0.8539041  0.3667720  )
        93        H      tau(  93) = (  0.6782410  0.5368380  0.6105861  )
        94        H      tau(  94) = (  0.3217590  0.9631620  0.6105861  )
        95        H      tau(  95) = (  0.8632130  0.3539041  0.6332280  )
        96        H      tau(  96) = (  0.6367869  0.3539041  0.3667720  )

     number of k points=     4
                       cart. coord. in units 2pi/alat
        k(    1) = (   0.0000000   0.0000000   0.0000000), wk =   0.2222222
        k(    2) = (   0.0000000   0.3333955   0.0000000), wk =   0.4444444
        k(    3) = (   0.3333333   0.0000000   0.0000000), wk =   0.4444444
        k(    4) = (   0.3333333   0.3333955   0.0000000), wk =   0.8888889

                       cryst. coord.
        k(    1) = (   0.0000000   0.0000000   0.0000000), wk =   0.2222222
        k(    2) = (   0.0000000   0.3333333   0.0000000), wk =   0.4444444
        k(    3) = (   0.3333333   0.0000000   0.0000000), wk =   0.4444444
        k(    4) = (   0.3333333   0.3333333   0.0000000), wk =   0.8888889

     Dense  grid:  2430543 G-vectors     FFT dimensions: ( 120, 120, 375)

     Dynamical RAM for                 wfc:    1520.35 MB

     Dynamical RAM for     wfc (w. buffer):    7601.74 MB

     Dynamical RAM for                 EXX:   40587.84 MB

     Dynamical RAM for           str. fact:     111.26 MB

     Dynamical RAM for           local pot:       0.00 MB

     Dynamical RAM for          nlocal pot:    4004.82 MB

     Dynamical RAM for                qrad:       4.35 MB

     Dynamical RAM for          rho,v,vnew:     234.86 MB

     Dynamical RAM for               rhoin:      78.29 MB

     Dynamical RAM for            rho*nmix:     593.39 MB

     Dynamical RAM for           G-vectors:     157.62 MB

     Dynamical RAM for          h,s,v(r/c):      19.70 MB

     Dynamical RAM for          <psi|beta>:       4.32 MB

     Dynamical RAM for                 psi:    3040.70 MB

     Dynamical RAM for                hpsi:    3040.70 MB

     Dynamical RAM for      wfcinit/wfcrot:    3043.16 MB

     Estimated static dynamical RAM per process >      51.89 GB

     Estimated max dynamical RAM per process >      58.43 GB
     EXX: ACE will be initialized later

     Initial potential from superposition of free atoms

     starting charge     621.3932, renormalised to     624.0000

     negative rho (up, down):  4.181E-03 0.000E+00
     Starting wfcs are random

     total cpu time spent up to now is        7.2 secs

     Self-consistent Calculation
[tb_dev] Currently allocated     1.18E+01 Mbytes, locked:    0 /   5
[tb_pin] Currently allocated     0.00E+00 Mbytes, locked:    0 /   0

     iteration #  1     ecut=    80.00 Ry     beta= 0.30
     Davidson diagonalization with overlap

---- Real-time Memory Report at c_bands before calling an iterative solver
         13271 MiB given to the printing process from OS
             0 MiB allocation reported by mallinfo(arena+hblkhd)
        298195 MiB available memory on the node where the printing process lives
     GPU memory used/free/total (MiB): 17610 / 77700 / 95311
------------------
     ethr =  1.00E-02,  avg # of iterations = 15.0

     negative rho (up, down):  2.865E-05 0.000E+00

     total cpu time spent up to now is       29.8 secs

     total energy              =   -4075.54633383 Ry
     estimated scf accuracy    <      18.49897497 Ry
[tb_dev] Currently allocated     3.66E-04 Mbytes, locked:    0 /   1
[tb_pin] Currently allocated     0.00E+00 Mbytes, locked:    0 /   0

     iteration #  2     ecut=    80.00 Ry     beta= 0.30
     Davidson diagonalization with overlap

---- Real-time Memory Report at c_bands before calling an iterative solver
         13550 MiB given to the printing process from OS
             0 MiB allocation reported by mallinfo(arena+hblkhd)
        298276 MiB available memory on the node where the printing process lives
     GPU memory used/free/total (MiB): 33560 / 61750 / 95311
------------------
     ethr =  2.96E-03,  avg # of iterations =  1.0

     negative rho (up, down):  1.464E-06 0.000E+00

     total cpu time spent up to now is       37.1 secs

     total energy              =   -4071.91102914 Ry
     estimated scf accuracy    <       8.52699769 Ry
[tb_dev] Currently allocated     3.66E-04 Mbytes, locked:    0 /   1
[tb_pin] Currently allocated     0.00E+00 Mbytes, locked:    0 /   0

     iteration #  3     ecut=    80.00 Ry     beta= 0.30
     Davidson diagonalization with overlap

---- Real-time Memory Report at c_bands before calling an iterative solver
         13658 MiB given to the printing process from OS
             0 MiB allocation reported by mallinfo(arena+hblkhd)
        298209 MiB available memory on the node where the printing process lives
     GPU memory used/free/total (MiB): 33560 / 61750 / 95311
------------------
     ethr =  1.37E-03,  avg # of iterations =  2.0

     negative rho (up, down):  8.036E-08 0.000E+00

     total cpu time spent up to now is       45.5 secs

     total energy              =   -4073.81060452 Ry
     estimated scf accuracy    <       0.80145149 Ry
[tb_dev] Currently allocated     3.66E-04 Mbytes, locked:    0 /   1
[tb_pin] Currently allocated     0.00E+00 Mbytes, locked:    0 /   0

     iteration #  4     ecut=    80.00 Ry     beta= 0.30
     Davidson diagonalization with overlap

---- Real-time Memory Report at c_bands before calling an iterative solver
         13836 MiB given to the printing process from OS
             0 MiB allocation reported by mallinfo(arena+hblkhd)
        297953 MiB available memory on the node where the printing process lives
     GPU memory used/free/total (MiB): 34302 / 61008 / 95311
------------------
     ethr =  1.28E-04,  avg # of iterations =  3.0

     negative rho (up, down):  1.499E-08 0.000E+00

     total cpu time spent up to now is       54.0 secs

     total energy              =   -4073.91360061 Ry
     estimated scf accuracy    <       1.11667429 Ry
[tb_dev] Currently allocated     3.66E-04 Mbytes, locked:    0 /   1
[tb_pin] Currently allocated     0.00E+00 Mbytes, locked:    0 /   0

     iteration #  5     ecut=    80.00 Ry     beta= 0.30
     Davidson diagonalization with overlap

---- Real-time Memory Report at c_bands before calling an iterative solver
         13978 MiB given to the printing process from OS
             0 MiB allocation reported by mallinfo(arena+hblkhd)
        297799 MiB available memory on the node where the printing process lives
     GPU memory used/free/total (MiB): 34468 / 60842 / 95311
------------------
     ethr =  1.28E-04,  avg # of iterations =  2.0

     total cpu time spent up to now is       61.8 secs

     total energy              =   -4073.89904581 Ry
     estimated scf accuracy    <       0.30382779 Ry
[tb_dev] Currently allocated     3.66E-04 Mbytes, locked:    0 /   1
[tb_pin] Currently allocated     0.00E+00 Mbytes, locked:    0 /   0

     iteration #  6     ecut=    80.00 Ry     beta= 0.30
     Davidson diagonalization with overlap

---- Real-time Memory Report at c_bands before calling an iterative solver
         14126 MiB given to the printing process from OS
             0 MiB allocation reported by mallinfo(arena+hblkhd)
        297701 MiB available memory on the node where the printing process lives
     GPU memory used/free/total (MiB): 34714 / 60596 / 95311
------------------
     ethr =  4.87E-05,  avg # of iterations =  6.8

     total cpu time spent up to now is       71.1 secs

     total energy              =   -4073.92695415 Ry
     estimated scf accuracy    <       0.07883584 Ry
[tb_dev] Currently allocated     3.66E-04 Mbytes, locked:    0 /   1
[tb_pin] Currently allocated     0.00E+00 Mbytes, locked:    0 /   0

     iteration #  7     ecut=    80.00 Ry     beta= 0.30
     Davidson diagonalization with overlap

---- Real-time Memory Report at c_bands before calling an iterative solver
         14274 MiB given to the printing process from OS
             0 MiB allocation reported by mallinfo(arena+hblkhd)
        297388 MiB available memory on the node where the printing process lives
     GPU memory used/free/total (MiB): 34714 / 60596 / 95311
------------------
     ethr =  1.26E-05,  avg # of iterations = 11.0

     negative rho (up, down):  4.843E-06 0.000E+00

     total cpu time spent up to now is       79.7 secs

     total energy              =   -4073.90311119 Ry
     estimated scf accuracy    <       0.06949642 Ry
[tb_dev] Currently allocated     3.66E-04 Mbytes, locked:    0 /   1
[tb_pin] Currently allocated     0.00E+00 Mbytes, locked:    0 /   0

     iteration #  8     ecut=    80.00 Ry     beta= 0.30
     Davidson diagonalization with overlap

---- Real-time Memory Report at c_bands before calling an iterative solver
         14423 MiB given to the printing process from OS
             0 MiB allocation reported by mallinfo(arena+hblkhd)
        297466 MiB available memory on the node where the printing process lives
     GPU memory used/free/total (MiB): 34714 / 60596 / 95311
------------------
     ethr =  1.11E-05,  avg # of iterations =  8.3

     negative rho (up, down):  4.248E-02 0.000E+00

     total cpu time spent up to now is       89.7 secs

     total energy              =   -4073.90830827 Ry
     estimated scf accuracy    <       0.03647088 Ry
[tb_dev] Currently allocated     3.66E-04 Mbytes, locked:    0 /   1
[tb_pin] Currently allocated     0.00E+00 Mbytes, locked:    0 /   0

     iteration #  9     ecut=    80.00 Ry     beta= 0.30
     Davidson diagonalization with overlap

---- Real-time Memory Report at c_bands before calling an iterative solver
         14572 MiB given to the printing process from OS
             0 MiB allocation reported by mallinfo(arena+hblkhd)
        297281 MiB available memory on the node where the printing process lives
     GPU memory used/free/total (MiB): 34714 / 60596 / 95311
------------------
     c_bands:  1 eigenvalues not converged
     ethr =  5.84E-06,  avg # of iterations = 15.5

     negative rho (up, down):  5.229E-02 0.000E+00

     total cpu time spent up to now is      100.5 secs

     total energy              =   -4073.91180035 Ry
     estimated scf accuracy    <       0.02257970 Ry
[tb_dev] Currently allocated     3.66E-04 Mbytes, locked:    0 /   1
[tb_pin] Currently allocated     0.00E+00 Mbytes, locked:    0 /   0

     iteration # 10     ecut=    80.00 Ry     beta= 0.30
     Davidson diagonalization with overlap

---- Real-time Memory Report at c_bands before calling an iterative solver
         14720 MiB given to the printing process from OS
             0 MiB allocation reported by mallinfo(arena+hblkhd)
        296764 MiB available memory on the node where the printing process lives
     GPU memory used/free/total (MiB): 36010 / 59300 / 95311
------------------
     ethr =  3.62E-06,  avg # of iterations =  2.0

     negative rho (up, down):  1.196E-01 0.000E+00

     total cpu time spent up to now is      108.3 secs

     total energy              =   -4073.90478253 Ry
     estimated scf accuracy    <       0.02059061 Ry
[tb_dev] Currently allocated     3.66E-04 Mbytes, locked:    0 /   1
[tb_pin] Currently allocated     0.00E+00 Mbytes, locked:    0 /   0

     iteration # 11     ecut=    80.00 Ry     beta= 0.30
     Davidson diagonalization with overlap

---- Real-time Memory Report at c_bands before calling an iterative solver
         14720 MiB given to the printing process from OS
             0 MiB allocation reported by mallinfo(arena+hblkhd)
        296600 MiB available memory on the node where the printing process lives
     GPU memory used/free/total (MiB): 36010 / 59300 / 95311
------------------
     ethr =  3.30E-06,  avg # of iterations = 10.8

     negative rho (up, down):  1.173E-01 0.000E+00

     total cpu time spent up to now is      117.8 secs

     total energy              =   -4073.90689133 Ry
     estimated scf accuracy    <       0.01595849 Ry
[tb_dev] Currently allocated     3.66E-04 Mbytes, locked:    0 /   1
[tb_pin] Currently allocated     0.00E+00 Mbytes, locked:    0 /   0

     iteration # 12     ecut=    80.00 Ry     beta= 0.30
     Davidson diagonalization with overlap

---- Real-time Memory Report at c_bands before calling an iterative solver
         14720 MiB given to the printing process from OS
             0 MiB allocation reported by mallinfo(arena+hblkhd)
        296345 MiB available memory on the node where the printing process lives
     GPU memory used/free/total (MiB): 36010 / 59300 / 95311
------------------
     ethr =  2.56E-06,  avg # of iterations =  3.5

     negative rho (up, down):  6.247E-02 0.000E+00

     total cpu time spent up to now is      126.1 secs

     total energy              =   -4073.90458780 Ry
     estimated scf accuracy    <       0.00851848 Ry
[tb_dev] Currently allocated     3.66E-04 Mbytes, locked:    0 /   1
[tb_pin] Currently allocated     0.00E+00 Mbytes, locked:    0 /   0

     iteration # 13     ecut=    80.00 Ry     beta= 0.30
     Davidson diagonalization with overlap

---- Real-time Memory Report at c_bands before calling an iterative solver
         14720 MiB given to the printing process from OS
             0 MiB allocation reported by mallinfo(arena+hblkhd)
        292782 MiB available memory on the node where the printing process lives
     GPU memory used/free/total (MiB): 36010 / 59300 / 95311
------------------
     ethr =  1.37E-06,  avg # of iterations =  6.0

     negative rho (up, down):  9.391E-02 0.000E+00

     total cpu time spent up to now is      135.0 secs

     total energy              =   -4073.90440488 Ry
     estimated scf accuracy    <       0.00586621 Ry
[tb_dev] Currently allocated     3.66E-04 Mbytes, locked:    0 /   1
[tb_pin] Currently allocated     0.00E+00 Mbytes, locked:    0 /   0

     iteration # 14     ecut=    80.00 Ry     beta= 0.30
     Davidson diagonalization with overlap

---- Real-time Memory Report at c_bands before calling an iterative solver
         14720 MiB given to the printing process from OS
             0 MiB allocation reported by mallinfo(arena+hblkhd)
        293952 MiB available memory on the node where the printing process lives
     GPU memory used/free/total (MiB): 36010 / 59300 / 95311
------------------
     ethr =  9.40E-07,  avg # of iterations =  8.5

     negative rho (up, down):  4.672E-02 0.000E+00

     total cpu time spent up to now is      144.4 secs

     total energy              =   -4073.90335966 Ry
     estimated scf accuracy    <       0.00471264 Ry
[tb_dev] Currently allocated     3.66E-04 Mbytes, locked:    0 /   1
[tb_pin] Currently allocated     0.00E+00 Mbytes, locked:    0 /   0

     iteration # 15     ecut=    80.00 Ry     beta= 0.30
     Davidson diagonalization with overlap

---- Real-time Memory Report at c_bands before calling an iterative solver
         14720 MiB given to the printing process from OS
             0 MiB allocation reported by mallinfo(arena+hblkhd)
        296871 MiB available memory on the node where the printing process lives
     GPU memory used/free/total (MiB): 36010 / 59300 / 95311
------------------
     ethr =  7.55E-07,  avg # of iterations =  9.3

     negative rho (up, down):  3.681E-02 0.000E+00

     total cpu time spent up to now is      153.2 secs

     total energy              =   -4073.90345056 Ry
     estimated scf accuracy    <       0.00264276 Ry
[tb_dev] Currently allocated     3.66E-04 Mbytes, locked:    0 /   1
[tb_pin] Currently allocated     0.00E+00 Mbytes, locked:    0 /   0

     iteration # 16     ecut=    80.00 Ry     beta= 0.30
     Davidson diagonalization with overlap

---- Real-time Memory Report at c_bands before calling an iterative solver
         14720 MiB given to the printing process from OS
             0 MiB allocation reported by mallinfo(arena+hblkhd)
        296898 MiB available memory on the node where the printing process lives
     GPU memory used/free/total (MiB): 36010 / 59300 / 95311
------------------
     ethr =  4.24E-07,  avg # of iterations =  5.8

     negative rho (up, down):  1.031E-02 0.000E+00

     total cpu time spent up to now is      161.6 secs

     total energy              =   -4073.90304238 Ry
     estimated scf accuracy    <       0.00326601 Ry
[tb_dev] Currently allocated     3.66E-04 Mbytes, locked:    0 /   1
[tb_pin] Currently allocated     0.00E+00 Mbytes, locked:    0 /   0

     iteration # 17     ecut=    80.00 Ry     beta= 0.30
     Davidson diagonalization with overlap

---- Real-time Memory Report at c_bands before calling an iterative solver
         14720 MiB given to the printing process from OS
             0 MiB allocation reported by mallinfo(arena+hblkhd)
        296519 MiB available memory on the node where the printing process lives
     GPU memory used/free/total (MiB): 36010 / 59300 / 95311
------------------
     c_bands:  1 eigenvalues not converged
     ethr =  4.24E-07,  avg # of iterations = 10.3

     negative rho (up, down):  6.449E-03 0.000E+00

     total cpu time spent up to now is      170.8 secs

     total energy              =   -4073.90288792 Ry
     estimated scf accuracy    <       0.00084623 Ry
[tb_dev] Currently allocated     3.66E-04 Mbytes, locked:    0 /   1
[tb_pin] Currently allocated     0.00E+00 Mbytes, locked:    0 /   0

     iteration # 18     ecut=    80.00 Ry     beta= 0.30
     Davidson diagonalization with overlap

---- Real-time Memory Report at c_bands before calling an iterative solver
         14720 MiB given to the printing process from OS
             0 MiB allocation reported by mallinfo(arena+hblkhd)
        296652 MiB available memory on the node where the printing process lives
     GPU memory used/free/total (MiB): 36010 / 59300 / 95311
------------------
     ethr =  1.36E-07,  avg # of iterations =  7.3

     negative rho (up, down):  2.027E-03 0.000E+00

     total cpu time spent up to now is      180.3 secs

     total energy              =   -4073.90311840 Ry
     estimated scf accuracy    <       0.00015617 Ry
[tb_dev] Currently allocated     3.66E-04 Mbytes, locked:    0 /   1
[tb_pin] Currently allocated     0.00E+00 Mbytes, locked:    0 /   0

     iteration # 19     ecut=    80.00 Ry     beta= 0.30
     Davidson diagonalization with overlap

---- Real-time Memory Report at c_bands before calling an iterative solver
         14721 MiB given to the printing process from OS
             0 MiB allocation reported by mallinfo(arena+hblkhd)
        296332 MiB available memory on the node where the printing process lives
     GPU memory used/free/total (MiB): 36010 / 59300 / 95311
------------------
     ethr =  2.50E-08,  avg # of iterations =  6.0

     negative rho (up, down):  3.932E-03 0.000E+00

     total cpu time spent up to now is      189.7 secs

     total energy              =   -4073.90312952 Ry
     estimated scf accuracy    <       0.00009987 Ry
[tb_dev] Currently allocated     3.66E-04 Mbytes, locked:    0 /   1
[tb_pin] Currently allocated     0.00E+00 Mbytes, locked:    0 /   0

     iteration # 20     ecut=    80.00 Ry     beta= 0.30
     Davidson diagonalization with overlap

---- Real-time Memory Report at c_bands before calling an iterative solver
         14722 MiB given to the printing process from OS
             0 MiB allocation reported by mallinfo(arena+hblkhd)
        296492 MiB available memory on the node where the printing process lives
     GPU memory used/free/total (MiB): 36010 / 59300 / 95311
------------------
     ethr =  1.60E-08,  avg # of iterations =  2.5

     negative rho (up, down):  2.468E-03 0.000E+00

     total cpu time spent up to now is      198.1 secs

     total energy              =   -4073.90317300 Ry
     estimated scf accuracy    <       0.00001212 Ry
[tb_dev] Currently allocated     3.66E-04 Mbytes, locked:    0 /   1
[tb_pin] Currently allocated     0.00E+00 Mbytes, locked:    0 /   0

     iteration # 21     ecut=    80.00 Ry     beta= 0.30
     Davidson diagonalization with overlap

---- Real-time Memory Report at c_bands before calling an iterative solver
         14722 MiB given to the printing process from OS
             0 MiB allocation reported by mallinfo(arena+hblkhd)
        296370 MiB available memory on the node where the printing process lives
     GPU memory used/free/total (MiB): 36010 / 59300 / 95311
------------------
     ethr =  1.94E-09,  avg # of iterations =  5.5

     negative rho (up, down):  1.118E-03 0.000E+00

     total cpu time spent up to now is      206.6 secs

     total energy              =   -4073.90318563 Ry
     estimated scf accuracy    <       0.00000462 Ry
[tb_dev] Currently allocated     3.66E-04 Mbytes, locked:    0 /   1
[tb_pin] Currently allocated     0.00E+00 Mbytes, locked:    0 /   0

     iteration # 22     ecut=    80.00 Ry     beta= 0.30
     Davidson diagonalization with overlap

---- Real-time Memory Report at c_bands before calling an iterative solver
         14722 MiB given to the printing process from OS
             0 MiB allocation reported by mallinfo(arena+hblkhd)
        296476 MiB available memory on the node where the printing process lives
     GPU memory used/free/total (MiB): 36010 / 59300 / 95311
------------------
     ethr =  7.41E-10,  avg # of iterations =  5.8

     negative rho (up, down):  4.351E-04 0.000E+00

     total cpu time spent up to now is      216.0 secs

     total energy              =   -4073.90318702 Ry
     estimated scf accuracy    <       0.00000228 Ry
[tb_dev] Currently allocated     3.66E-04 Mbytes, locked:    0 /   1
[tb_pin] Currently allocated     0.00E+00 Mbytes, locked:    0 /   0

     iteration # 23     ecut=    80.00 Ry     beta= 0.30
     Davidson diagonalization with overlap

---- Real-time Memory Report at c_bands before calling an iterative solver
         14722 MiB given to the printing process from OS
             0 MiB allocation reported by mallinfo(arena+hblkhd)
        296713 MiB available memory on the node where the printing process lives
     GPU memory used/free/total (MiB): 36010 / 59300 / 95311
------------------
     ethr =  3.66E-10,  avg # of iterations =  3.3

     negative rho (up, down):  4.277E-04 0.000E+00

     total cpu time spent up to now is      224.7 secs

     total energy              =   -4073.90318750 Ry
     estimated scf accuracy    <       0.00000077 Ry
[tb_dev] Currently allocated     3.66E-04 Mbytes, locked:    0 /   1
[tb_pin] Currently allocated     0.00E+00 Mbytes, locked:    0 /   0

     iteration # 24     ecut=    80.00 Ry     beta= 0.30
     Davidson diagonalization with overlap

---- Real-time Memory Report at c_bands before calling an iterative solver
         14722 MiB given to the printing process from OS
             0 MiB allocation reported by mallinfo(arena+hblkhd)
        296790 MiB available memory on the node where the printing process lives
     GPU memory used/free/total (MiB): 36010 / 59300 / 95311
------------------
     ethr =  1.24E-10,  avg # of iterations =  2.0

     negative rho (up, down):  6.036E-04 0.000E+00

     total cpu time spent up to now is      232.8 secs

     total energy              =   -4073.90318788 Ry
     estimated scf accuracy    <       0.00000030 Ry
[tb_dev] Currently allocated     3.66E-04 Mbytes, locked:    0 /   1
[tb_pin] Currently allocated     0.00E+00 Mbytes, locked:    0 /   0

     iteration # 25     ecut=    80.00 Ry     beta= 0.30
     Davidson diagonalization with overlap

---- Real-time Memory Report at c_bands before calling an iterative solver
         14722 MiB given to the printing process from OS
             0 MiB allocation reported by mallinfo(arena+hblkhd)
        296746 MiB available memory on the node where the printing process lives
     GPU memory used/free/total (MiB): 36010 / 59300 / 95311
------------------
     ethr =  4.83E-11,  avg # of iterations =  2.0

     negative rho (up, down):  4.004E-04 0.000E+00

     total cpu time spent up to now is      241.2 secs

     total energy              =   -4073.90318694 Ry
     estimated scf accuracy    <       0.00000028 Ry
[tb_dev] Currently allocated     3.66E-04 Mbytes, locked:    0 /   1
[tb_pin] Currently allocated     0.00E+00 Mbytes, locked:    0 /   0

     iteration # 26     ecut=    80.00 Ry     beta= 0.30
     Davidson diagonalization with overlap

---- Real-time Memory Report at c_bands before calling an iterative solver
         14722 MiB given to the printing process from OS
             0 MiB allocation reported by mallinfo(arena+hblkhd)
        296719 MiB available memory on the node where the printing process lives
     GPU memory used/free/total (MiB): 36010 / 59300 / 95311
------------------
     ethr =  4.54E-11,  avg # of iterations =  2.0

     negative rho (up, down):  1.395E-04 0.000E+00

     total cpu time spent up to now is      249.2 secs

     total energy              =   -4073.90318633 Ry
     estimated scf accuracy    <       0.00000007 Ry
[tb_dev] Currently allocated     3.66E-04 Mbytes, locked:    0 /   1
[tb_pin] Currently allocated     0.00E+00 Mbytes, locked:    0 /   0

     iteration # 27     ecut=    80.00 Ry     beta= 0.30
     Davidson diagonalization with overlap

---- Real-time Memory Report at c_bands before calling an iterative solver
         14722 MiB given to the printing process from OS
             0 MiB allocation reported by mallinfo(arena+hblkhd)
        296259 MiB available memory on the node where the printing process lives
     GPU memory used/free/total (MiB): 36010 / 59300 / 95311
------------------
     ethr =  1.19E-11,  avg # of iterations =  2.0

     negative rho (up, down):  9.671E-05 0.000E+00

     total cpu time spent up to now is      257.5 secs

     total energy              =   -4073.90318625 Ry
     estimated scf accuracy    <       0.00000002 Ry
[tb_dev] Currently allocated     3.66E-04 Mbytes, locked:    0 /   1
[tb_pin] Currently allocated     0.00E+00 Mbytes, locked:    0 /   0

     iteration # 28     ecut=    80.00 Ry     beta= 0.30
     Davidson diagonalization with overlap

---- Real-time Memory Report at c_bands before calling an iterative solver
         14722 MiB given to the printing process from OS
             0 MiB allocation reported by mallinfo(arena+hblkhd)
        296656 MiB available memory on the node where the printing process lives
     GPU memory used/free/total (MiB): 36010 / 59300 / 95311
------------------
     ethr =  3.89E-12,  avg # of iterations =  2.0

     negative rho (up, down):  4.248E-05 0.000E+00

     total cpu time spent up to now is      266.0 secs

     total energy              =   -4073.90318622 Ry
     estimated scf accuracy    <       0.00000002 Ry
[tb_dev] Currently allocated     3.66E-04 Mbytes, locked:    0 /   1
[tb_pin] Currently allocated     0.00E+00 Mbytes, locked:    0 /   0

     iteration # 29     ecut=    80.00 Ry     beta= 0.30
     Davidson diagonalization with overlap

---- Real-time Memory Report at c_bands before calling an iterative solver
         14722 MiB given to the printing process from OS
             0 MiB allocation reported by mallinfo(arena+hblkhd)
        296701 MiB available memory on the node where the printing process lives
     GPU memory used/free/total (MiB): 36010 / 59300 / 95311
------------------
     ethr =  2.64E-12,  avg # of iterations =  3.0

     negative rho (up, down):  3.970E-05 0.000E+00

     total cpu time spent up to now is      274.8 secs

     total energy              =   -4073.90318621 Ry
     estimated scf accuracy    <       0.00000001 Ry
[tb_dev] Currently allocated     3.66E-04 Mbytes, locked:    0 /   1
[tb_pin] Currently allocated     0.00E+00 Mbytes, locked:    0 /   0

     iteration # 30     ecut=    80.00 Ry     beta= 0.30
     Davidson diagonalization with overlap

---- Real-time Memory Report at c_bands before calling an iterative solver
         14722 MiB given to the printing process from OS
             0 MiB allocation reported by mallinfo(arena+hblkhd)
        296730 MiB available memory on the node where the printing process lives
     GPU memory used/free/total (MiB): 36010 / 59300 / 95311
------------------
     ethr =  1.70E-12,  avg # of iterations =  2.0

     negative rho (up, down):  2.890E-05 0.000E+00

     total cpu time spent up to now is      282.6 secs

     total energy              =   -4073.90318618 Ry
     estimated scf accuracy    <          5.3E-09 Ry
[tb_dev] Currently allocated     3.66E-04 Mbytes, locked:    0 /   1
[tb_pin] Currently allocated     0.00E+00 Mbytes, locked:    0 /   0

     iteration # 31     ecut=    80.00 Ry     beta= 0.30
     Davidson diagonalization with overlap

---- Real-time Memory Report at c_bands before calling an iterative solver
         14722 MiB given to the printing process from OS
             0 MiB allocation reported by mallinfo(arena+hblkhd)
        296485 MiB available memory on the node where the printing process lives
     GPU memory used/free/total (MiB): 36010 / 59300 / 95311
------------------
     ethr =  8.48E-13,  avg # of iterations =  2.3

     negative rho (up, down):  1.132E-05 0.000E+00

     total cpu time spent up to now is      291.1 secs

     total energy              =   -4073.90318615 Ry
     estimated scf accuracy    <          1.5E-09 Ry
[tb_dev] Currently allocated     3.66E-04 Mbytes, locked:    0 /   1
[tb_pin] Currently allocated     0.00E+00 Mbytes, locked:    0 /   0

     iteration # 32     ecut=    80.00 Ry     beta= 0.30
     Davidson diagonalization with overlap

---- Real-time Memory Report at c_bands before calling an iterative solver
         14722 MiB given to the printing process from OS
             0 MiB allocation reported by mallinfo(arena+hblkhd)
        296092 MiB available memory on the node where the printing process lives
     GPU memory used/free/total (MiB): 36010 / 59300 / 95311
------------------
     ethr =  2.47E-13,  avg # of iterations =  2.0

     negative rho (up, down):  1.023E-05 0.000E+00

     total cpu time spent up to now is      299.1 secs

     total energy              =   -4073.90318612 Ry
     estimated scf accuracy    <          1.0E-09 Ry
[tb_dev] Currently allocated     3.66E-04 Mbytes, locked:    0 /   1
[tb_pin] Currently allocated     0.00E+00 Mbytes, locked:    0 /   0

     iteration # 33     ecut=    80.00 Ry     beta= 0.30
     Davidson diagonalization with overlap

---- Real-time Memory Report at c_bands before calling an iterative solver
         14722 MiB given to the printing process from OS
             0 MiB allocation reported by mallinfo(arena+hblkhd)
        296246 MiB available memory on the node where the printing process lives
     GPU memory used/free/total (MiB): 36010 / 59300 / 95311
------------------
     ethr =  1.64E-13,  avg # of iterations =  3.0

     negative rho (up, down):  6.060E-06 0.000E+00

     total cpu time spent up to now is      307.7 secs

     total energy              =   -4073.90318610 Ry
     estimated scf accuracy    <          1.1E-09 Ry
[tb_dev] Currently allocated     3.66E-04 Mbytes, locked:    0 /   1
[tb_pin] Currently allocated     0.00E+00 Mbytes, locked:    0 /   0

     iteration # 34     ecut=    80.00 Ry     beta= 0.30
     Davidson diagonalization with overlap

---- Real-time Memory Report at c_bands before calling an iterative solver
         14722 MiB given to the printing process from OS
             0 MiB allocation reported by mallinfo(arena+hblkhd)
        296074 MiB available memory on the node where the printing process lives
     GPU memory used/free/total (MiB): 36010 / 59300 / 95311
------------------
     ethr =  1.64E-13,  avg # of iterations =  2.0

     total cpu time spent up to now is      315.5 secs

     End of self-consistent calculation

          k = 0.0000 0.0000 0.0000 (303775 PWs)   bands (ev):

   -20.3752 -20.3651 -20.2579 -20.2560 -20.2297 -20.2289 -20.1872 -20.1869
   -20.0289 -20.0284 -19.9665 -19.9664 -19.9385 -19.9377 -19.9102 -19.9097
   -19.9091 -19.9085 -19.8620 -19.8615 -19.8239 -19.8228 -19.8134 -19.8134
   -19.1921 -19.0190 -18.9244 -18.9175 -18.9174 -18.8909 -18.8736 -18.7526
   -18.7504 -18.7418 -18.7307 -18.6514 -18.6505 -18.6229 -18.6199 -18.6135
   -18.5483 -18.5470 -18.5416 -18.5252 -18.4755 -18.4659 -18.4646 -18.3868
   -14.6298 -14.6290 -14.6231 -14.6161 -14.6046 -14.5997 -14.5977 -14.5881
   -14.5875 -14.5844 -14.5803 -14.5742 -14.5727 -14.5580 -14.5580 -14.5513
   -14.5491 -14.5477 -14.5476 -14.5432 -14.5329 -14.5325 -14.5258 -14.5248
   -14.5105 -14.5084 -14.5059 -14.5043 -14.5040 -14.4951 -14.4946 -14.4926
   -14.4897 -14.4842 -14.4825 -14.4818 -14.4791 -14.4763 -14.4738 -14.4632
   -14.4490 -14.4384 -14.4351 -14.4338 -14.4326 -14.4258 -14.4234 -14.4203
   -14.4151 -14.4144 -14.4144 -14.4065 -14.4053 -14.3927 -14.3895 -14.3893
   -14.3865 -14.3788 -14.3787 -14.3729 -14.3728 -14.3724 -14.3722 -14.3631
   -14.3617 -14.3567 -14.3546 -14.3536 -14.3467 -14.3374 -14.3360 -14.3310
   -14.3276 -14.3258 -14.3241 -14.3221 -14.3213 -14.3099 -14.3099 -14.3047
   -14.2982 -14.2982 -14.2946 -14.2897 -14.2890 -14.2827 -14.2815 -14.2803
   -14.2717 -14.2697 -14.2663 -14.2623 -14.2532 -14.2479 -14.2293 -14.2254
   -14.2172 -14.2104 -14.1993 -14.1841 -14.1654 -14.1593 -14.1388 -14.1303
   -14.0091 -13.9687 -13.9418 -13.8967 -13.8587 -13.8446 -13.7896 -13.7786
   -13.7412 -13.6467 -13.6014 -13.5907 -13.5524 -13.4794 -13.4620 -13.4169
    -7.9924  -7.9757  -7.8923  -7.8585  -7.8262  -7.8124  -7.8038  -7.7387
    -7.6907  -7.6590  -7.6400  -7.6063  -7.5948  -7.5618  -7.5217  -7.4426
    -7.3950  -7.1288  -7.0962  -7.0397  -6.9158  -6.8813  -6.8746  -6.8036
    -6.7818  -6.7633  -6.7111  -6.6082  -6.5556  -6.5257  -6.5049  -6.4604
    -6.3059  -6.2382  -6.1792  -6.0697  -6.0020  -5.9809  -5.9709  -5.8511
    -5.8263  -5.7332  -5.7261  -5.6355  -5.6265  -5.5188  -5.3754  -5.3379
    -5.3096  -5.2282  -5.1817  -5.1312  -5.0195  -4.9184  -4.9006  -4.8952
    -4.8874  -4.8317  -4.8135  -4.7426  -4.7200  -4.7025  -4.6805  -4.6451
    -4.4955  -4.4724  -4.3553  -4.2376  -4.1975  -4.1845  -4.1718  -4.1589
    -4.1589  -4.1248  -4.1196  -4.0370  -4.0323  -4.0220  -3.9664  -3.9446
    -3.9350  -3.8596  -3.8465  -3.8430  -3.8344  -3.7954  -3.7722  -3.7563
    -3.7504  -3.6781  -3.6453  -3.6413  -3.5549  -3.5280  -3.4918  -3.4520
    -3.4504  -3.3896  -3.3415  -3.2732  -3.2534  -3.2161  -3.1993  -3.1766
    -3.1568  -3.1489  -3.1294  -3.0673  -2.9967  -2.9845  -2.9788  -2.9744
    -2.9619  -2.8586  -2.8322  -2.7196  -2.6946  -2.6880  -2.6486  -2.6485
    -2.6363  -2.6308  -2.6307  -2.6278  -2.5459  -2.5450  -2.5377  -2.5354
    -2.5132  -2.4799  -2.4661  -2.4405  -2.4072  -2.4022  -2.3914  -2.3792
    -2.3644  -2.3543  -2.3350  -2.2957  -2.2531  -2.1866  -2.1703  -2.1683
    -0.3615   1.1347   2.0788   2.0842   2.0986   2.1302   2.3451   2.7319
     2.8512   2.9325   3.0193   3.0260   3.1141   3.1555   3.1748   3.2166

     occupation numbers 
     1.0000   1.0000   1.0000   1.0000   1.0000   1.0000   1.0000   1.0000
     1.0000   1.0000   1.0000   1.0000   1.0000   1.0000   1.0000   1.0000
     1.0000   1.0000   1.0000   1.0000   1.0000   1.0000   1.0000   1.0000
     1.0000   1.0000   1.0000   1.0000   1.0000   1.0000   1.0000   1.0000
     1.0000   1.0000   1.0000   1.0000   1.0000   1.0000   1.0000   1.0000
     1.0000   1.0000   1.0000   1.0000   1.0000   1.0000   1.0000   1.0000
     1.0000   1.0000   1.0000   1.0000   1.0000   1.0000   1.0000   1.0000
     1.0000   1.0000   1.0000   1.0000   1.0000   1.0000   1.0000   1.0000
     1.0000   1.0000   1.0000   1.0000   1.0000   1.0000   1.0000   1.0000
     1.0000   1.0000   1.0000   1.0000   1.0000   1.0000   1.0000   1.0000
     1.0000   1.0000   1.0000   1.0000   1.0000   1.0000   1.0000   1.0000
     1.0000   1.0000   1.0000   1.0000   1.0000   1.0000   1.0000   1.0000
     1.0000   1.0000   1.0000   1.0000   1.0000   1.0000   1.0000   1.0000
     1.0000   1.0000   1.0000   1.0000   1.0000   1.0000   1.0000   1.0000
     1.0000   1.0000   1.0000   1.0000   1.0000   1.0000   1.0000   1.0000
     1.0000   1.0000   1.0000   1.0000   1.0000   1.0000   1.0000   1.0000
     1.0000   1.0000   1.0000   1.0000   1.0000   1.0000   1.0000   1.0000
     1.0000   1.0000   1.0000   1.0000   1.0000   1.0000   1.0000   1.0000
     1.0000   1.0000   1.0000   1.0000   1.0000   1.0000   1.0000   1.0000
     1.0000   1.0000   1.0000   1.0000   1.0000   1.0000   1.0000   1.0000
     1.0000   1.0000   1.0000   1.0000   1.0000   1.0000   1.0000   1.0000
     1.0000   1.0000   1.0000   1.0000   1.0000   1.0000   1.0000   1.0000
     1.0000   1.0000   1.0000   1.0000   1.0000   1.0000   1.0000   1.0000
     1.0000   1.0000   1.0000   1.0000   1.0000   1.0000   1.0000   1.0000
     1.0000   1.0000   1.0000   1.0000   1.0000   1.0000   1.0000   1.0000
     1.0000   1.0000   1.0000   1.0000   1.0000   1.0000   1.0000   1.0000
     1.0000   1.0000   1.0000   1.0000   1.0000   1.0000   1.0000   1.0000
     1.0000   1.0000   1.0000   1.0000   1.0000   1.0000   1.0000   1.0000
     1.0000   1.0000   1.0000   1.0000   1.0000   1.0000   1.0000   1.0000
     1.0000   1.0000   1.0000   1.0000   1.0000   1.0000   1.0000   1.0000
     1.0000   1.0000   1.0000   1.0000   1.0000   1.0000   1.0000   1.0000
     1.0000   1.0000   1.0000   1.0000   1.0000   1.0000   1.0000   1.0000
     1.0000   1.0000   1.0000   1.0000   1.0000   1.0000   1.0000   1.0000
     1.0000   1.0000   1.0000   1.0000   1.0000   1.0000   1.0000   1.0000
     1.0000   1.0000   1.0000   1.0000   1.0000   1.0000   1.0000   1.0000
     1.0000   1.0000   1.0000   1.0000   1.0000   1.0000   1.0000   1.0000
     1.0000   1.0000   1.0000   1.0000   1.0000   1.0000   1.0000   1.0000
     1.0000   1.0000   1.0000   1.0000   1.0000   1.0000   1.0000   1.0000
     1.0000   1.0000   1.0000   1.0000   1.0000   1.0000   1.0000   1.0000
     0.0000   0.0000   0.0000   0.0000   0.0000   0.0000   0.0000   0.0000
     0.0000   0.0000   0.0000   0.0000   0.0000   0.0000   0.0000   0.0000

          k = 0.0000 0.3334 0.0000 (303760 PWs)   bands (ev):

   -20.3469 -20.3390 -20.2780 -20.2745 -20.2426 -20.2413 -20.2074 -20.2073
   -19.9929 -19.9928 -19.9531 -19.9527 -19.9507 -19.9500 -19.9198 -19.9186
   -19.8951 -19.8945 -19.8721 -19.8718 -19.8257 -19.8247 -19.8193 -19.8191
   -19.1642 -19.0880 -18.9320 -18.9214 -18.9063 -18.8845 -18.7884 -18.7527
   -18.7515 -18.7375 -18.7319 -18.6835 -18.6454 -18.6222 -18.6206 -18.6199
   -18.5635 -18.5558 -18.5467 -18.5440 -18.4653 -18.4647 -18.4333 -18.3984
   -14.6253 -14.6162 -14.6129 -14.6011 -14.6004 -14.5946 -14.5928 -14.5883
   -14.5857 -14.5833 -14.5798 -14.5712 -14.5711 -14.5652 -14.5577 -14.5555
   -14.5428 -14.5423 -14.5406 -14.5389 -14.5312 -14.5290 -14.5259 -14.5179
   -14.5164 -14.5103 -14.5094 -14.5077 -14.5058 -14.4984 -14.4919 -14.4884
   -14.4881 -14.4879 -14.4875 -14.4872 -14.4834 -14.4753 -14.4676 -14.4593
   -14.4547 -14.4545 -14.4522 -14.4424 -14.4417 -14.4398 -14.4390 -14.4378
   -14.4277 -14.4234 -14.4139 -14.4113 -14.4107 -14.4089 -14.4034 -14.3973
   -14.3920 -14.3860 -14.3793 -14.3737 -14.3722 -14.3679 -14.3616 -14.3560
   -14.3537 -14.3517 -14.3514 -14.3490 -14.3464 -14.3364 -14.3359 -14.3343
   -14.3319 -14.3293 -14.3197 -14.3106 -14.3082 -14.3044 -14.3014 -14.2995
   -14.2987 -14.2938 -14.2916 -14.2883 -14.2859 -14.2859 -14.2843 -14.2797
   -14.2774 -14.2670 -14.2623 -14.2609 -14.2600 -14.2505 -14.2447 -14.2314
   -14.2197 -14.2180 -14.2121 -14.1786 -14.1459 -14.1434 -14.1132 -14.1055
   -14.0394 -13.9462 -13.9237 -13.9091 -13.8318 -13.8080 -13.7885 -13.7743
   -13.7247 -13.6750 -13.6635 -13.6469 -13.4886 -13.4719 -13.4638 -13.4355
    -7.9797  -7.9456  -7.9375  -7.8701  -7.8455  -7.8361  -7.8120  -7.7877
    -7.7054  -7.6788  -7.6348  -7.6193  -7.5007  -7.4969  -7.4515  -7.4285
    -7.2828  -7.0846  -7.0807  -7.0522  -6.9886  -6.9623  -6.9531  -6.8391
    -6.7820  -6.7461  -6.6380  -6.6372  -6.5691  -6.5371  -6.5364  -6.4679
    -6.4160  -6.3730  -6.2265  -6.0289  -6.0131  -5.9129  -5.9057  -5.8891
    -5.8471  -5.8254  -5.7810  -5.6329  -5.4440  -5.3795  -5.3402  -5.2522
    -5.1950  -5.1884  -5.1327  -5.0758  -5.0647  -4.9866  -4.9679  -4.9092
    -4.7702  -4.7658  -4.7430  -4.7325  -4.6725  -4.6373  -4.5639  -4.5336
    -4.5165  -4.4909  -4.4889  -4.4522  -4.4243  -4.3808  -4.3685  -4.2421
    -4.1918  -4.1387  -4.0918  -4.0901  -4.0697  -4.0122  -3.9777  -3.9170
    -3.8974  -3.8481  -3.8459  -3.8061  -3.7540  -3.7505  -3.7455  -3.6847
    -3.6822  -3.6666  -3.6038  -3.5827  -3.5332  -3.4857  -3.4639  -3.3885
    -3.3762  -3.3668  -3.3540  -3.3290  -3.3011  -3.2460  -3.2243  -3.1776
    -3.1155  -3.0885  -3.0485  -3.0193  -3.0094  -2.9939  -2.9902  -2.9684
    -2.9368  -2.8863  -2.8626  -2.8367  -2.8343  -2.7746  -2.7414  -2.7033
    -2.6825  -2.6583  -2.6356  -2.5695  -2.5604  -2.5536  -2.5286  -2.5154
    -2.5094  -2.4834  -2.4721  -2.4259  -2.4210  -2.4159  -2.4041  -2.3994
    -2.3700  -2.3347  -2.2705  -2.2609  -2.2513  -2.2035  -2.2006  -2.1952
     0.1109   1.0694   1.4080   2.0512   2.2747   2.2783   2.5326   2.6623
     2.7146   2.9022   2.9970   2.9986   3.0990   3.1951   3.1977   3.2279

     occupation numbers 
     1.0000   1.0000   1.0000   1.0000   1.0000   1.0000   1.0000   1.0000
     1.0000   1.0000   1.0000   1.0000   1.0000   1.0000   1.0000   1.0000
     1.0000   1.0000   1.0000   1.0000   1.0000   1.0000   1.0000   1.0000
     1.0000   1.0000   1.0000   1.0000   1.0000   1.0000   1.0000   1.0000
     1.0000   1.0000   1.0000   1.0000   1.0000   1.0000   1.0000   1.0000
     1.0000   1.0000   1.0000   1.0000   1.0000   1.0000   1.0000   1.0000
     1.0000   1.0000   1.0000   1.0000   1.0000   1.0000   1.0000   1.0000
     1.0000   1.0000   1.0000   1.0000   1.0000   1.0000   1.0000   1.0000
     1.0000   1.0000   1.0000   1.0000   1.0000   1.0000   1.0000   1.0000
     1.0000   1.0000   1.0000   1.0000   1.0000   1.0000   1.0000   1.0000
     1.0000   1.0000   1.0000   1.0000   1.0000   1.0000   1.0000   1.0000
     1.0000   1.0000   1.0000   1.0000   1.0000   1.0000   1.0000   1.0000
     1.0000   1.0000   1.0000   1.0000   1.0000   1.0000   1.0000   1.0000
     1.0000   1.0000   1.0000   1.0000   1.0000   1.0000   1.0000   1.0000
     1.0000   1.0000   1.0000   1.0000   1.0000   1.0000   1.0000   1.0000
     1.0000   1.0000   1.0000   1.0000   1.0000   1.0000   1.0000   1.0000
     1.0000   1.0000   1.0000   1.0000   1.0000   1.0000   1.0000   1.0000
     1.0000   1.0000   1.0000   1.0000   1.0000   1.0000   1.0000   1.0000
     1.0000   1.0000   1.0000   1.0000   1.0000   1.0000   1.0000   1.0000
     1.0000   1.0000   1.0000   1.0000   1.0000   1.0000   1.0000   1.0000
     1.0000   1.0000   1.0000   1.0000   1.0000   1.0000   1.0000   1.0000
     1.0000   1.0000   1.0000   1.0000   1.0000   1.0000   1.0000   1.0000
     1.0000   1.0000   1.0000   1.0000   1.0000   1.0000   1.0000   1.0000
     1.0000   1.0000   1.0000   1.0000   1.0000   1.0000   1.0000   1.0000
     1.0000   1.0000   1.0000   1.0000   1.0000   1.0000   1.0000   1.0000
     1.0000   1.0000   1.0000   1.0000   1.0000   1.0000   1.0000   1.0000
     1.0000   1.0000   1.0000   1.0000   1.0000   1.0000   1.0000   1.0000
     1.0000   1.0000   1.0000   1.0000   1.0000   1.0000   1.0000   1.0000
     1.0000   1.0000   1.0000   1.0000   1.0000   1.0000   1.0000   1.0000
     1.0000   1.0000   1.0000   1.0000   1.0000   1.0000   1.0000   1.0000
     1.0000   1.0000   1.0000   1.0000   1.0000   1.0000   1.0000   1.0000
     1.0000   1.0000   1.0000   1.0000   1.0000   1.0000   1.0000   1.0000
     1.0000   1.0000   1.0000   1.0000   1.0000   1.0000   1.0000   1.0000
     1.0000   1.0000   1.0000   1.0000   1.0000   1.0000   1.0000   1.0000
     1.0000   1.0000   1.0000   1.0000   1.0000   1.0000   1.0000   1.0000
     1.0000   1.0000   1.0000   1.0000   1.0000   1.0000   1.0000   1.0000
     1.0000   1.0000   1.0000   1.0000   1.0000   1.0000   1.0000   1.0000
     1.0000   1.0000   1.0000   1.0000   1.0000   1.0000   1.0000   1.0000
     1.0000   1.0000   1.0000   1.0000   1.0000   1.0000   1.0000   1.0000
     0.0000   0.0000   0.0000   0.0000   0.0000   0.0000   0.0000   0.0000
     0.0000   0.0000   0.0000   0.0000   0.0000   0.0000   0.0000   0.0000

          k = 0.3333 0.0000 0.0000 (303760 PWs)   bands (ev):

   -20.3510 -20.3429 -20.2943 -20.2901 -20.2193 -20.2188 -20.1973 -20.1972
   -20.0136 -20.0132 -19.9848 -19.9846 -19.9182 -19.9179 -19.8995 -19.8993
   -19.8990 -19.8987 -19.8801 -19.8797 -19.8251 -19.8251 -19.8198 -19.8193
   -19.1575 -19.0593 -19.0037 -18.9626 -18.8803 -18.8640 -18.7865 -18.7587
   -18.7377 -18.7264 -18.7245 -18.6491 -18.6321 -18.6295 -18.6185 -18.5960
   -18.5853 -18.5768 -18.5701 -18.5459 -18.4698 -18.4647 -18.4288 -18.3950
   -14.6247 -14.6217 -14.6185 -14.6071 -14.5954 -14.5949 -14.5910 -14.5875
   -14.5808 -14.5793 -14.5724 -14.5720 -14.5701 -14.5672 -14.5665 -14.5664
   -14.5538 -14.5457 -14.5444 -14.5364 -14.5313 -14.5312 -14.5259 -14.5247
   -14.5101 -14.5076 -14.5070 -14.5069 -14.5033 -14.4999 -14.4929 -14.4926
   -14.4904 -14.4889 -14.4835 -14.4831 -14.4825 -14.4705 -14.4666 -14.4655
   -14.4559 -14.4556 -14.4504 -14.4477 -14.4471 -14.4380 -14.4343 -14.4330
   -14.4197 -14.4153 -14.4111 -14.4044 -14.3987 -14.3986 -14.3975 -14.3972
   -14.3958 -14.3757 -14.3743 -14.3738 -14.3700 -14.3675 -14.3628 -14.3628
   -14.3586 -14.3540 -14.3491 -14.3476 -14.3442 -14.3375 -14.3317 -14.3288
   -14.3283 -14.3264 -14.3237 -14.3193 -14.3142 -14.3091 -14.3044 -14.2991
   -14.2987 -14.2960 -14.2923 -14.2863 -14.2848 -14.2825 -14.2804 -14.2739
   -14.2728 -14.2720 -14.2628 -14.2615 -14.2536 -14.2503 -14.2351 -14.2341
   -14.2336 -14.2217 -14.2128 -14.1970 -14.1602 -14.1028 -14.0944 -14.0929
   -14.0755 -13.9937 -13.9780 -13.9283 -13.8184 -13.7982 -13.7948 -13.7468
   -13.6970 -13.6934 -13.6074 -13.6035 -13.5179 -13.4836 -13.4683 -13.4553
    -7.9591  -7.9526  -7.9051  -7.8776  -7.8543  -7.8353  -7.8081  -7.7796
    -7.7054  -7.6946  -7.6477  -7.6218  -7.5002  -7.4962  -7.4941  -7.4315
    -7.2557  -7.1358  -7.0917  -6.9827  -6.9725  -6.9712  -6.9041  -6.8309
    -6.7858  -6.7747  -6.7578  -6.6670  -6.5683  -6.4838  -6.4258  -6.3886
    -6.3171  -6.2208  -6.2157  -6.1854  -6.1536  -6.1041  -6.0828  -6.0476
    -5.7698  -5.7283  -5.6505  -5.6050  -5.4240  -5.3569  -5.3414  -5.2819
    -5.2003  -5.1303  -5.1232  -5.0900  -5.0240  -4.9582  -4.9434  -4.8647
    -4.8428  -4.8204  -4.7528  -4.7501  -4.7393  -4.7386  -4.6555  -4.5253
    -4.5133  -4.4582  -4.4259  -4.3708  -4.2967  -4.2849  -4.2439  -4.1448
    -4.1187  -4.0841  -4.0816  -4.0648  -4.0469  -4.0146  -3.9625  -3.9491
    -3.9290  -3.9134  -3.9118  -3.8964  -3.7500  -3.7407  -3.7249  -3.6992
    -3.6613  -3.6557  -3.6517  -3.6514  -3.6040  -3.5607  -3.4816  -3.4652
    -3.4608  -3.4383  -3.3624  -3.2459  -3.2411  -3.2123  -3.2029  -3.1701
    -3.1250  -3.1192  -3.1067  -3.0522  -3.0337  -3.0193  -2.9696  -2.9476
    -2.9008  -2.8685  -2.8565  -2.7922  -2.7795  -2.7290  -2.6979  -2.6831
    -2.6799  -2.6354  -2.6317  -2.6096  -2.5845  -2.5769  -2.5658  -2.5562
    -2.4986  -2.4926  -2.4871  -2.4423  -2.4394  -2.4382  -2.4019  -2.3653
    -2.3556  -2.3260  -2.2882  -2.2757  -2.2229  -2.1946  -2.1878  -2.1736
     0.1113   1.0652   1.4081   2.0562   2.2633   2.3382   2.5141   2.7163
     2.7371   2.8488   2.8887   2.9915   3.1344   3.1744   3.2231   3.2885

     occupation numbers 
     1.0000   1.0000   1.0000   1.0000   1.0000   1.0000   1.0000   1.0000
     1.0000   1.0000   1.0000   1.0000   1.0000   1.0000   1.0000   1.0000
     1.0000   1.0000   1.0000   1.0000   1.0000   1.0000   1.0000   1.0000
     1.0000   1.0000   1.0000   1.0000   1.0000   1.0000   1.0000   1.0000
     1.0000   1.0000   1.0000   1.0000   1.0000   1.0000   1.0000   1.0000
     1.0000   1.0000   1.0000   1.0000   1.0000   1.0000   1.0000   1.0000
     1.0000   1.0000   1.0000   1.0000   1.0000   1.0000   1.0000   1.0000
     1.0000   1.0000   1.0000   1.0000   1.0000   1.0000   1.0000   1.0000
     1.0000   1.0000   1.0000   1.0000   1.0000   1.0000   1.0000   1.0000
     1.0000   1.0000   1.0000   1.0000   1.0000   1.0000   1.0000   1.0000
     1.0000   1.0000   1.0000   1.0000   1.0000   1.0000   1.0000   1.0000
     1.0000   1.0000   1.0000   1.0000   1.0000   1.0000   1.0000   1.0000
     1.0000   1.0000   1.0000   1.0000   1.0000   1.0000   1.0000   1.0000
     1.0000   1.0000   1.0000   1.0000   1.0000   1.0000   1.0000   1.0000
     1.0000   1.0000   1.0000   1.0000   1.0000   1.0000   1.0000   1.0000
     1.0000   1.0000   1.0000   1.0000   1.0000   1.0000   1.0000   1.0000
     1.0000   1.0000   1.0000   1.0000   1.0000   1.0000   1.0000   1.0000
     1.0000   1.0000   1.0000   1.0000   1.0000   1.0000   1.0000   1.0000
     1.0000   1.0000   1.0000   1.0000   1.0000   1.0000   1.0000   1.0000
     1.0000   1.0000   1.0000   1.0000   1.0000   1.0000   1.0000   1.0000
     1.0000   1.0000   1.0000   1.0000   1.0000   1.0000   1.0000   1.0000
     1.0000   1.0000   1.0000   1.0000   1.0000   1.0000   1.0000   1.0000
     1.0000   1.0000   1.0000   1.0000   1.0000   1.0000   1.0000   1.0000
     1.0000   1.0000   1.0000   1.0000   1.0000   1.0000   1.0000   1.0000
     1.0000   1.0000   1.0000   1.0000   1.0000   1.0000   1.0000   1.0000
     1.0000   1.0000   1.0000   1.0000   1.0000   1.0000   1.0000   1.0000
     1.0000   1.0000   1.0000   1.0000   1.0000   1.0000   1.0000   1.0000
     1.0000   1.0000   1.0000   1.0000   1.0000   1.0000   1.0000   1.0000
     1.0000   1.0000   1.0000   1.0000   1.0000   1.0000   1.0000   1.0000
     1.0000   1.0000   1.0000   1.0000   1.0000   1.0000   1.0000   1.0000
     1.0000   1.0000   1.0000   1.0000   1.0000   1.0000   1.0000   1.0000
     1.0000   1.0000   1.0000   1.0000   1.0000   1.0000   1.0000   1.0000
     1.0000   1.0000   1.0000   1.0000   1.0000   1.0000   1.0000   1.0000
     1.0000   1.0000   1.0000   1.0000   1.0000   1.0000   1.0000   1.0000
     1.0000   1.0000   1.0000   1.0000   1.0000   1.0000   1.0000   1.0000
     1.0000   1.0000   1.0000   1.0000   1.0000   1.0000   1.0000   1.0000
     1.0000   1.0000   1.0000   1.0000   1.0000   1.0000   1.0000   1.0000
     1.0000   1.0000   1.0000   1.0000   1.0000   1.0000   1.0000   1.0000
     1.0000   1.0000   1.0000   1.0000   1.0000   1.0000   1.0000   1.0000
     0.0000   0.0000   0.0000   0.0000   0.0000   0.0000   0.0000   0.0000
     0.0000   0.0000   0.0000   0.0000   0.0000   0.0000   0.0000   0.0000

          k = 0.3333 0.3334 0.0000 (303835 PWs)   bands (ev):

   -20.3250 -20.3188 -20.2744 -20.2715 -20.2620 -20.2595 -20.2270 -20.2262
   -19.9783 -19.9779 -19.9578 -19.9573 -19.9316 -19.9316 -19.9145 -19.9136
   -19.8971 -19.8966 -19.8882 -19.8880 -19.8254 -19.8252 -19.8213 -19.8213
   -19.1320 -19.0638 -19.0417 -18.9985 -18.8387 -18.8040 -18.7994 -18.7629
   -18.7288 -18.7242 -18.7235 -18.6744 -18.6371 -18.6371 -18.6124 -18.6039
   -18.5861 -18.5784 -18.5719 -18.5641 -18.4555 -18.4390 -18.4372 -18.4069
   -14.6244 -14.6204 -14.6171 -14.6136 -14.6041 -14.5990 -14.5945 -14.5867
   -14.5858 -14.5837 -14.5802 -14.5798 -14.5693 -14.5676 -14.5578 -14.5520
   -14.5485 -14.5456 -14.5408 -14.5389 -14.5296 -14.5295 -14.5282 -14.5202
   -14.5113 -14.5087 -14.5056 -14.5043 -14.5008 -14.4982 -14.4961 -14.4935
   -14.4907 -14.4877 -14.4843 -14.4799 -14.4755 -14.4738 -14.4723 -14.4620
   -14.4618 -14.4562 -14.4541 -14.4522 -14.4449 -14.4426 -14.4389 -14.4293
   -14.4247 -14.4187 -14.4048 -14.4024 -14.3982 -14.3977 -14.3915 -14.3890
   -14.3887 -14.3797 -14.3782 -14.3769 -14.3693 -14.3663 -14.3656 -14.3631
   -14.3621 -14.3503 -14.3471 -14.3441 -14.3410 -14.3403 -14.3341 -14.3279
   -14.3243 -14.3234 -14.3196 -14.3186 -14.3154 -14.3063 -14.3061 -14.3006
   -14.2928 -14.2909 -14.2902 -14.2851 -14.2841 -14.2786 -14.2764 -14.2758
   -14.2746 -14.2695 -14.2637 -14.2610 -14.2591 -14.2475 -14.2468 -14.2414
   -14.2286 -14.2123 -14.2110 -14.1900 -14.1579 -14.1066 -14.1053 -14.0762
   -14.0759 -14.0051 -13.9842 -13.9460 -13.8396 -13.8334 -13.7802 -13.7664
   -13.6561 -13.6465 -13.5969 -13.5643 -13.5384 -13.4995 -13.4830 -13.4785
    -7.9548  -7.9372  -7.9280  -7.8973  -7.8583  -7.8376  -7.8357  -7.8121
    -7.6940  -7.6609  -7.6607  -7.6361  -7.4608  -7.4602  -7.4418  -7.4211
    -7.1753  -7.0905  -7.0853  -7.0620  -6.9406  -6.9181  -6.8835  -6.8791
    -6.7957  -6.7642  -6.7536  -6.6739  -6.5956  -6.5708  -6.4195  -6.4066
    -6.3814  -6.3781  -6.2692  -6.2463  -6.2210  -6.1412  -6.1191  -6.0915
    -5.7006  -5.6378  -5.5663  -5.5661  -5.3358  -5.2766  -5.2691  -5.1877
    -5.1094  -5.1075  -5.0804  -5.0547  -5.0412  -5.0204  -4.9259  -4.8578
    -4.8148  -4.7917  -4.7310  -4.7266  -4.6972  -4.6801  -4.6637  -4.5689
    -4.5159  -4.4663  -4.4339  -4.4271  -4.3861  -4.3498  -4.3167  -4.2382
    -4.1703  -4.1547  -4.1207  -4.1184  -4.0448  -4.0131  -3.9613  -3.9396
    -3.8950  -3.8728  -3.8413  -3.8372  -3.7940  -3.7912  -3.7693  -3.7212
    -3.7114  -3.6198  -3.6027  -3.5500  -3.4988  -3.4560  -3.4556  -3.4430
    -3.3671  -3.3322  -3.3140  -3.2819  -3.2756  -3.2573  -3.2542  -3.2135
    -3.1701  -3.1419  -3.0869  -3.0815  -3.0631  -3.0145  -3.0116  -2.9930
    -2.9832  -2.8972  -2.8765  -2.8531  -2.8180  -2.7951  -2.7477  -2.7162
    -2.7156  -2.6885  -2.6581  -2.6505  -2.5778  -2.5678  -2.5625  -2.5295
    -2.4926  -2.4916  -2.4620  -2.4601  -2.4262  -2.4038  -2.4026  -2.3931
    -2.2694  -2.2550  -2.2532  -2.2462  -2.2181  -2.2021  -2.1929  -2.1919
     0.4946   1.3331   1.3374   1.6477   1.9726   2.2287   2.2411   2.5925
     2.7631   3.0897   3.1076   3.1630   3.2106   3.2697   3.3493   3.3993

     occupation numbers 
     1.0000   1.0000   1.0000   1.0000   1.0000   1.0000   1.0000   1.0000
     1.0000   1.0000   1.0000   1.0000   1.0000   1.0000   1.0000   1.0000
     1.0000   1.0000   1.0000   1.0000   1.0000   1.0000   1.0000   1.0000
     1.0000   1.0000   1.0000   1.0000   1.0000   1.0000   1.0000   1.0000
     1.0000   1.0000   1.0000   1.0000   1.0000   1.0000   1.0000   1.0000
     1.0000   1.0000   1.0000   1.0000   1.0000   1.0000   1.0000   1.0000
     1.0000   1.0000   1.0000   1.0000   1.0000   1.0000   1.0000   1.0000
     1.0000   1.0000   1.0000   1.0000   1.0000   1.0000   1.0000   1.0000
     1.0000   1.0000   1.0000   1.0000   1.0000   1.0000   1.0000   1.0000
     1.0000   1.0000   1.0000   1.0000   1.0000   1.0000   1.0000   1.0000
     1.0000   1.0000   1.0000   1.0000   1.0000   1.0000   1.0000   1.0000
     1.0000   1.0000   1.0000   1.0000   1.0000   1.0000   1.0000   1.0000
     1.0000   1.0000   1.0000   1.0000   1.0000   1.0000   1.0000   1.0000
     1.0000   1.0000   1.0000   1.0000   1.0000   1.0000   1.0000   1.0000
     1.0000   1.0000   1.0000   1.0000   1.0000   1.0000   1.0000   1.0000
     1.0000   1.0000   1.0000   1.0000   1.0000   1.0000   1.0000   1.0000
     1.0000   1.0000   1.0000   1.0000   1.0000   1.0000   1.0000   1.0000
     1.0000   1.0000   1.0000   1.0000   1.0000   1.0000   1.0000   1.0000
     1.0000   1.0000   1.0000   1.0000   1.0000   1.0000   1.0000   1.0000
     1.0000   1.0000   1.0000   1.0000   1.0000   1.0000   1.0000   1.0000
     1.0000   1.0000   1.0000   1.0000   1.0000   1.0000   1.0000   1.0000
     1.0000   1.0000   1.0000   1.0000   1.0000   1.0000   1.0000   1.0000
     1.0000   1.0000   1.0000   1.0000   1.0000   1.0000   1.0000   1.0000
     1.0000   1.0000   1.0000   1.0000   1.0000   1.0000   1.0000   1.0000
     1.0000   1.0000   1.0000   1.0000   1.0000   1.0000   1.0000   1.0000
     1.0000   1.0000   1.0000   1.0000   1.0000   1.0000   1.0000   1.0000
     1.0000   1.0000   1.0000   1.0000   1.0000   1.0000   1.0000   1.0000
     1.0000   1.0000   1.0000   1.0000   1.0000   1.0000   1.0000   1.0000
     1.0000   1.0000   1.0000   1.0000   1.0000   1.0000   1.0000   1.0000
     1.0000   1.0000   1.0000   1.0000   1.0000   1.0000   1.0000   1.0000
     1.0000   1.0000   1.0000   1.0000   1.0000   1.0000   1.0000   1.0000
     1.0000   1.0000   1.0000   1.0000   1.0000   1.0000   1.0000   1.0000
     1.0000   1.0000   1.0000   1.0000   1.0000   1.0000   1.0000   1.0000
     1.0000   1.0000   1.0000   1.0000   1.0000   1.0000   1.0000   1.0000
     1.0000   1.0000   1.0000   1.0000   1.0000   1.0000   1.0000   1.0000
     1.0000   1.0000   1.0000   1.0000   1.0000   1.0000   1.0000   1.0000
     1.0000   1.0000   1.0000   1.0000   1.0000   1.0000   1.0000   1.0000
     1.0000   1.0000   1.0000   1.0000   1.0000   1.0000   1.0000   1.0000
     1.0000   1.0000   1.0000   1.0000   1.0000   1.0000   1.0000   1.0000
     0.0000   0.0000   0.0000   0.0000   0.0000   0.0000   0.0000   0.0000
     0.0000   0.0000   0.0000   0.0000   0.0000   0.0000   0.0000   0.0000

     highest occupied, lowest unoccupied level (ev):    -2.1683   -0.3615

!    total energy              =   -4073.90318614 Ry
     estimated scf accuracy    <          3.0E-10 Ry

     convergence has been achieved in  34 iterations

     Using ACE for calculation of exact exchange

     EXX grid:   859245 G-vectors     FFT dimensions: (  80,  80, 270)
     ACE projected onto   328 (nbndproj) and applied to   328 (nbnd) bands

     EXX: now go back to refine exchange calculation

     total cpu time spent up to now is      522.4 secs

     Self-consistent Calculation
[tb_dev] Currently allocated     3.66E-04 Mbytes, locked:    0 /   1
[tb_pin] Currently allocated     0.00E+00 Mbytes, locked:    0 /   0

     iteration #  1     ecut=    80.00 Ry     beta= 0.30
     Davidson diagonalization with overlap

---- Real-time Memory Report at c_bands before calling an iterative solver
         57205 MiB given to the printing process from OS
             0 MiB allocation reported by mallinfo(arena+hblkhd)
        255312 MiB available memory on the node where the printing process lives
     GPU memory used/free/total (MiB): 90286 / 5024 / 95311
------------------
     ethr =  1.64E-13,  avg # of iterations = 21.3

     total cpu time spent up to now is      573.3 secs

     total energy              =   -4057.49159276 Ry
     estimated scf accuracy    <       0.06528996 Ry
[tb_dev] Currently allocated     3.66E-04 Mbytes, locked:    0 /   1
[tb_pin] Currently allocated     0.00E+00 Mbytes, locked:    0 /   0

     iteration #  2     ecut=    80.00 Ry     beta= 0.30
     Davidson diagonalization with overlap

---- Real-time Memory Report at c_bands before calling an iterative solver
         57205 MiB given to the printing process from OS
             0 MiB allocation reported by mallinfo(arena+hblkhd)
        255596 MiB available memory on the node where the printing process lives
     GPU memory used/free/total (MiB): 90298 / 5012 / 95311
------------------
     ethr =  1.05E-05,  avg # of iterations =  3.0

     negative rho (up, down):  4.552E-06 0.000E+00

     total cpu time spent up to now is      583.9 secs

     total energy              =   -4057.46663019 Ry
     estimated scf accuracy    <       0.03880040 Ry
[tb_dev] Currently allocated     3.66E-04 Mbytes, locked:    0 /   1
[tb_pin] Currently allocated     0.00E+00 Mbytes, locked:    0 /   0

     iteration #  3     ecut=    80.00 Ry     beta= 0.30
     Davidson diagonalization with overlap

---- Real-time Memory Report at c_bands before calling an iterative solver
         57205 MiB given to the printing process from OS
             0 MiB allocation reported by mallinfo(arena+hblkhd)
        255517 MiB available memory on the node where the printing process lives
     GPU memory used/free/total (MiB): 90304 / 5006 / 95311
------------------
     ethr =  6.22E-06,  avg # of iterations = 12.0

     total cpu time spent up to now is      602.5 secs

     total energy              =   -4057.47327324 Ry
     estimated scf accuracy    <       0.00206277 Ry
[tb_dev] Currently allocated     3.66E-04 Mbytes, locked:    0 /   1
[tb_pin] Currently allocated     0.00E+00 Mbytes, locked:    0 /   0

     iteration #  4     ecut=    80.00 Ry     beta= 0.30
     Davidson diagonalization with overlap

---- Real-time Memory Report at c_bands before calling an iterative solver
         57205 MiB given to the printing process from OS
             0 MiB allocation reported by mallinfo(arena+hblkhd)
        255658 MiB available memory on the node where the printing process lives
     GPU memory used/free/total (MiB): 90304 / 5006 / 95311
------------------
     ethr =  3.31E-07,  avg # of iterations =  7.0

     total cpu time spent up to now is      616.8 secs

     total energy              =   -4057.47339917 Ry
     estimated scf accuracy    <       0.00024601 Ry
[tb_dev] Currently allocated     3.66E-04 Mbytes, locked:    0 /   1
[tb_pin] Currently allocated     0.00E+00 Mbytes, locked:    0 /   0

     iteration #  5     ecut=    80.00 Ry     beta= 0.30
     Davidson diagonalization with overlap

---- Real-time Memory Report at c_bands before calling an iterative solver
         57205 MiB given to the printing process from OS
             0 MiB allocation reported by mallinfo(arena+hblkhd)
        255546 MiB available memory on the node where the printing process lives
     GPU memory used/free/total (MiB): 90304 / 5006 / 95311
------------------
     ethr =  3.94E-08,  avg # of iterations =  4.0

     total cpu time spent up to now is      629.1 secs

     total energy              =   -4057.47342055 Ry
     estimated scf accuracy    <       0.00006864 Ry
[tb_dev] Currently allocated     3.66E-04 Mbytes, locked:    0 /   1
[tb_pin] Currently allocated     0.00E+00 Mbytes, locked:    0 /   0

     iteration #  6     ecut=    80.00 Ry     beta= 0.30
     Davidson diagonalization with overlap

---- Real-time Memory Report at c_bands before calling an iterative solver
         57205 MiB given to the printing process from OS
             0 MiB allocation reported by mallinfo(arena+hblkhd)
        255490 MiB available memory on the node where the printing process lives
     GPU memory used/free/total (MiB): 90304 / 5006 / 95311
------------------
     ethr =  1.10E-08,  avg # of iterations =  3.8

     total cpu time spent up to now is      640.8 secs

     total energy              =   -4057.47343042 Ry
     estimated scf accuracy    <       0.00005663 Ry
[tb_dev] Currently allocated     3.66E-04 Mbytes, locked:    0 /   1
[tb_pin] Currently allocated     0.00E+00 Mbytes, locked:    0 /   0

     iteration #  7     ecut=    80.00 Ry     beta= 0.30
     Davidson diagonalization with overlap

---- Real-time Memory Report at c_bands before calling an iterative solver
         57205 MiB given to the printing process from OS
             0 MiB allocation reported by mallinfo(arena+hblkhd)
        255377 MiB available memory on the node where the printing process lives
     GPU memory used/free/total (MiB): 90304 / 5006 / 95311
------------------
     ethr =  9.08E-09,  avg # of iterations =  1.5

     total cpu time spent up to now is      650.1 secs

     total energy              =   -4057.47344232 Ry
     estimated scf accuracy    <       0.00002075 Ry
[tb_dev] Currently allocated     3.66E-04 Mbytes, locked:    0 /   1
[tb_pin] Currently allocated     0.00E+00 Mbytes, locked:    0 /   0

     iteration #  8     ecut=    80.00 Ry     beta= 0.30
     Davidson diagonalization with overlap

---- Real-time Memory Report at c_bands before calling an iterative solver
         57205 MiB given to the printing process from OS
             0 MiB allocation reported by mallinfo(arena+hblkhd)
        255271 MiB available memory on the node where the printing process lives
     GPU memory used/free/total (MiB): 90304 / 5006 / 95311
------------------
     ethr =  3.32E-09,  avg # of iterations =  3.8

     total cpu time spent up to now is      661.9 secs

     total energy              =   -4057.47344884 Ry
     estimated scf accuracy    <       0.00000976 Ry
[tb_dev] Currently allocated     3.66E-04 Mbytes, locked:    0 /   1
[tb_pin] Currently allocated     0.00E+00 Mbytes, locked:    0 /   0

     iteration #  9     ecut=    80.00 Ry     beta= 0.30
     Davidson diagonalization with overlap

---- Real-time Memory Report at c_bands before calling an iterative solver
         57205 MiB given to the printing process from OS
             0 MiB allocation reported by mallinfo(arena+hblkhd)
        255193 MiB available memory on the node where the printing process lives
     GPU memory used/free/total (MiB): 90304 / 5006 / 95311
------------------
     ethr =  1.56E-09,  avg # of iterations =  6.5

     total cpu time spent up to now is      675.8 secs

     total energy              =   -4057.47345775 Ry
     estimated scf accuracy    <       0.00000352 Ry
[tb_dev] Currently allocated     3.66E-04 Mbytes, locked:    0 /   1
[tb_pin] Currently allocated     0.00E+00 Mbytes, locked:    0 /   0

     iteration # 10     ecut=    80.00 Ry     beta= 0.30
     Davidson diagonalization with overlap

---- Real-time Memory Report at c_bands before calling an iterative solver
         57205 MiB given to the printing process from OS
             0 MiB allocation reported by mallinfo(arena+hblkhd)
        254832 MiB available memory on the node where the printing process lives
     GPU memory used/free/total (MiB): 90304 / 5006 / 95311
------------------
     ethr =  5.64E-10,  avg # of iterations =  6.5

     total cpu time spent up to now is      690.4 secs

     total energy              =   -4057.47346046 Ry
     estimated scf accuracy    <       0.00000154 Ry
[tb_dev] Currently allocated     3.66E-04 Mbytes, locked:    0 /   1
[tb_pin] Currently allocated     0.00E+00 Mbytes, locked:    0 /   0

     iteration # 11     ecut=    80.00 Ry     beta= 0.30
     Davidson diagonalization with overlap

---- Real-time Memory Report at c_bands before calling an iterative solver
         57205 MiB given to the printing process from OS
             0 MiB allocation reported by mallinfo(arena+hblkhd)
        254814 MiB available memory on the node where the printing process lives
     GPU memory used/free/total (MiB): 90304 / 5006 / 95311
------------------
     ethr =  2.46E-10,  avg # of iterations =  3.0

     total cpu time spent up to now is      702.1 secs

     total energy              =   -4057.47345999 Ry
     estimated scf accuracy    <       0.00000125 Ry
[tb_dev] Currently allocated     3.66E-04 Mbytes, locked:    0 /   1
[tb_pin] Currently allocated     0.00E+00 Mbytes, locked:    0 /   0

     iteration # 12     ecut=    80.00 Ry     beta= 0.30
     Davidson diagonalization with overlap

---- Real-time Memory Report at c_bands before calling an iterative solver
         57205 MiB given to the printing process from OS
             0 MiB allocation reported by mallinfo(arena+hblkhd)
        254852 MiB available memory on the node where the printing process lives
     GPU memory used/free/total (MiB): 90304 / 5006 / 95311
------------------
     ethr =  2.01E-10,  avg # of iterations =  3.0

     total cpu time spent up to now is      713.2 secs

     total energy              =   -4057.47346027 Ry
     estimated scf accuracy    <       0.00000079 Ry
[tb_dev] Currently allocated     3.66E-04 Mbytes, locked:    0 /   1
[tb_pin] Currently allocated     0.00E+00 Mbytes, locked:    0 /   0

     iteration # 13     ecut=    80.00 Ry     beta= 0.30
     Davidson diagonalization with overlap

---- Real-time Memory Report at c_bands before calling an iterative solver
         57205 MiB given to the printing process from OS
             0 MiB allocation reported by mallinfo(arena+hblkhd)
        254867 MiB available memory on the node where the printing process lives
     GPU memory used/free/total (MiB): 90304 / 5006 / 95311
------------------
     ethr =  1.26E-10,  avg # of iterations =  2.8

     negative rho (up, down):  1.667E-07 0.000E+00

     total cpu time spent up to now is      724.0 secs

     total energy              =   -4057.47346083 Ry
     estimated scf accuracy    <       0.00000033 Ry
[tb_dev] Currently allocated     3.66E-04 Mbytes, locked:    0 /   1
[tb_pin] Currently allocated     0.00E+00 Mbytes, locked:    0 /   0

     iteration # 14     ecut=    80.00 Ry     beta= 0.30
     Davidson diagonalization with overlap

---- Real-time Memory Report at c_bands before calling an iterative solver
         57205 MiB given to the printing process from OS
             0 MiB allocation reported by mallinfo(arena+hblkhd)
        254910 MiB available memory on the node where the printing process lives
     GPU memory used/free/total (MiB): 90304 / 5006 / 95311
------------------
     ethr =  5.33E-11,  avg # of iterations =  5.0

     total cpu time spent up to now is      737.6 secs

     total energy              =   -4057.47346076 Ry
     estimated scf accuracy    <       0.00000016 Ry
[tb_dev] Currently allocated     3.66E-04 Mbytes, locked:    0 /   1
[tb_pin] Currently allocated     0.00E+00 Mbytes, locked:    0 /   0

     iteration # 15     ecut=    80.00 Ry     beta= 0.30
     Davidson diagonalization with overlap

---- Real-time Memory Report at c_bands before calling an iterative solver
         57205 MiB given to the printing process from OS
             0 MiB allocation reported by mallinfo(arena+hblkhd)
        254906 MiB available memory on the node where the printing process lives
     GPU memory used/free/total (MiB): 90304 / 5006 / 95311
------------------
     ethr =  2.62E-11,  avg # of iterations =  2.0

     total cpu time spent up to now is      747.9 secs

     total energy              =   -4057.47346098 Ry
     estimated scf accuracy    <       0.00000007 Ry
[tb_dev] Currently allocated     3.66E-04 Mbytes, locked:    0 /   1
[tb_pin] Currently allocated     0.00E+00 Mbytes, locked:    0 /   0

     iteration # 16     ecut=    80.00 Ry     beta= 0.30
     Davidson diagonalization with overlap

---- Real-time Memory Report at c_bands before calling an iterative solver
         57205 MiB given to the printing process from OS
             0 MiB allocation reported by mallinfo(arena+hblkhd)
        254909 MiB available memory on the node where the printing process lives
     GPU memory used/free/total (MiB): 90304 / 5006 / 95311
------------------
     ethr =  1.11E-11,  avg # of iterations =  2.0

     negative rho (up, down):  8.379E-06 0.000E+00

     total cpu time spent up to now is      758.4 secs

     total energy              =   -4057.47346109 Ry
     estimated scf accuracy    <       0.00000003 Ry
[tb_dev] Currently allocated     3.66E-04 Mbytes, locked:    0 /   1
[tb_pin] Currently allocated     0.00E+00 Mbytes, locked:    0 /   0

     iteration # 17     ecut=    80.00 Ry     beta= 0.30
     Davidson diagonalization with overlap

---- Real-time Memory Report at c_bands before calling an iterative solver
         57205 MiB given to the printing process from OS
             0 MiB allocation reported by mallinfo(arena+hblkhd)
        254937 MiB available memory on the node where the printing process lives
     GPU memory used/free/total (MiB): 90306 / 5004 / 95311
------------------
     ethr =  4.17E-12,  avg # of iterations =  2.0

     negative rho (up, down):  1.023E-07 0.000E+00

     total cpu time spent up to now is      768.6 secs

     total energy              =   -4057.47346118 Ry
     estimated scf accuracy    <       0.00000001 Ry
[tb_dev] Currently allocated     3.66E-04 Mbytes, locked:    0 /   1
[tb_pin] Currently allocated     0.00E+00 Mbytes, locked:    0 /   0

     iteration # 18     ecut=    80.00 Ry     beta= 0.30
     Davidson diagonalization with overlap

---- Real-time Memory Report at c_bands before calling an iterative solver
         57205 MiB given to the printing process from OS
             0 MiB allocation reported by mallinfo(arena+hblkhd)
        255023 MiB available memory on the node where the printing process lives
     GPU memory used/free/total (MiB): 90306 / 5004 / 95311
------------------
     ethr =  2.10E-12,  avg # of iterations =  4.5

     negative rho (up, down):  2.267E-06 0.000E+00

     total cpu time spent up to now is      781.0 secs

     total energy              =   -4057.47346128 Ry
     estimated scf accuracy    <          8.6E-09 Ry
[tb_dev] Currently allocated     3.66E-04 Mbytes, locked:    0 /   1
[tb_pin] Currently allocated     0.00E+00 Mbytes, locked:    0 /   0

     iteration # 19     ecut=    80.00 Ry     beta= 0.30
     Davidson diagonalization with overlap

---- Real-time Memory Report at c_bands before calling an iterative solver
         57205 MiB given to the printing process from OS
             0 MiB allocation reported by mallinfo(arena+hblkhd)
        253956 MiB available memory on the node where the printing process lives
     GPU memory used/free/total (MiB): 90306 / 5004 / 95311
------------------
     ethr =  1.37E-12,  avg # of iterations =  3.3

     negative rho (up, down):  3.242E-06 0.000E+00

     total cpu time spent up to now is      792.6 secs

     total energy              =   -4057.47346118 Ry
     estimated scf accuracy    <       0.00000001 Ry
[tb_dev] Currently allocated     3.66E-04 Mbytes, locked:    0 /   1
[tb_pin] Currently allocated     0.00E+00 Mbytes, locked:    0 /   0

     iteration # 20     ecut=    80.00 Ry     beta= 0.30
     Davidson diagonalization with overlap

---- Real-time Memory Report at c_bands before calling an iterative solver
         57205 MiB given to the printing process from OS
             0 MiB allocation reported by mallinfo(arena+hblkhd)
        254141 MiB available memory on the node where the printing process lives
     GPU memory used/free/total (MiB): 90306 / 5004 / 95311
------------------
     ethr =  1.37E-12,  avg # of iterations =  2.0

     negative rho (up, down):  1.049E-05 0.000E+00

     total cpu time spent up to now is      802.7 secs

     total energy              =   -4057.47346080 Ry
     estimated scf accuracy    <          6.0E-09 Ry
[tb_dev] Currently allocated     3.66E-04 Mbytes, locked:    0 /   1
[tb_pin] Currently allocated     0.00E+00 Mbytes, locked:    0 /   0

     iteration # 21     ecut=    80.00 Ry     beta= 0.30
     Davidson diagonalization with overlap

---- Real-time Memory Report at c_bands before calling an iterative solver
         57205 MiB given to the printing process from OS
             0 MiB allocation reported by mallinfo(arena+hblkhd)
        254119 MiB available memory on the node where the printing process lives
     GPU memory used/free/total (MiB): 90306 / 5004 / 95311
------------------
     ethr =  9.69E-13,  avg # of iterations =  2.0

     negative rho (up, down):  1.842E-06 0.000E+00

     total cpu time spent up to now is      813.1 secs

     total energy              =   -4057.47346091 Ry
     estimated scf accuracy    <          1.8E-09 Ry
[tb_dev] Currently allocated     3.66E-04 Mbytes, locked:    0 /   1
[tb_pin] Currently allocated     0.00E+00 Mbytes, locked:    0 /   0

     iteration # 22     ecut=    80.00 Ry     beta= 0.30
     Davidson diagonalization with overlap

---- Real-time Memory Report at c_bands before calling an iterative solver
         57205 MiB given to the printing process from OS
             0 MiB allocation reported by mallinfo(arena+hblkhd)
        254123 MiB available memory on the node where the printing process lives
     GPU memory used/free/total (MiB): 90306 / 5004 / 95311
------------------
     ethr =  2.81E-13,  avg # of iterations =  2.0

     total cpu time spent up to now is      823.4 secs

     total energy              =   -4057.47346105 Ry
     estimated scf accuracy    <          1.1E-09 Ry
[tb_dev] Currently allocated     3.66E-04 Mbytes, locked:    0 /   1
[tb_pin] Currently allocated     0.00E+00 Mbytes, locked:    0 /   0

     iteration # 23     ecut=    80.00 Ry     beta= 0.30
     Davidson diagonalization with overlap

---- Real-time Memory Report at c_bands before calling an iterative solver
         57205 MiB given to the printing process from OS
             0 MiB allocation reported by mallinfo(arena+hblkhd)
        254020 MiB available memory on the node where the printing process lives
     GPU memory used/free/total (MiB): 90306 / 5004 / 95311
------------------
     ethr =  1.70E-13,  avg # of iterations =  2.0

     total cpu time spent up to now is      832.8 secs

     End of self-consistent calculation

          k = 0.0000 0.0000 0.0000 (303775 PWs)   bands (ev):

   -23.1537 -23.1419 -23.0156 -23.0131 -22.9858 -22.9845 -22.9265 -22.9262
   -22.7843 -22.7836 -22.7062 -22.7058 -22.6790 -22.6786 -22.6521 -22.6510
   -22.6357 -22.6350 -22.5898 -22.5894 -22.5450 -22.5440 -22.5397 -22.5397
   -21.9644 -21.7425 -21.6581 -21.6562 -21.6523 -21.5961 -21.5692 -21.4898
   -21.4367 -21.4208 -21.4152 -21.3352 -21.3325 -21.2947 -21.2839 -21.2802
   -21.2399 -21.2358 -21.2018 -21.1750 -21.1215 -21.1213 -21.0999 -21.0569
   -15.6489 -15.6289 -15.6287 -15.6205 -15.6067 -15.6032 -15.6000 -15.5937
   -15.5887 -15.5835 -15.5783 -15.5629 -15.5543 -15.5517 -15.5497 -15.5360
   -15.5352 -15.5194 -15.5164 -15.5123 -15.5056 -15.4960 -15.4839 -15.4835
   -15.4811 -15.4756 -15.4749 -15.4680 -15.4598 -15.4503 -15.4446 -15.4415
   -15.4386 -15.4353 -15.4340 -15.4320 -15.4223 -15.4213 -15.4166 -15.4016
   -15.3799 -15.3794 -15.3757 -15.3632 -15.3610 -15.3593 -15.3544 -15.3538
   -15.3484 -15.3463 -15.3432 -15.3422 -15.3276 -15.3214 -15.3132 -15.3109
   -15.3039 -15.2968 -15.2933 -15.2855 -15.2774 -15.2768 -15.2763 -15.2758
   -15.2732 -15.2705 -15.2700 -15.2558 -15.2529 -15.2517 -15.2482 -15.2419
   -15.2333 -15.2311 -15.2281 -15.2275 -15.2267 -15.2239 -15.2111 -15.2006
   -15.1958 -15.1861 -15.1824 -15.1812 -15.1807 -15.1760 -15.1656 -15.1643
   -15.1643 -15.1573 -15.1571 -15.1422 -15.1419 -15.1374 -15.1330 -15.1280
   -15.1242 -15.1226 -15.1094 -15.1090 -15.1069 -15.0926 -15.0787 -15.0617
   -14.9687 -14.9485 -14.9274 -14.8799 -14.8447 -14.8447 -14.7826 -14.7826
   -14.7438 -14.6572 -14.6271 -14.6078 -14.5722 -14.5019 -14.4851 -14.4429
    -9.4157  -9.3999  -9.2776  -9.2548  -9.2427  -9.2188  -9.2095  -9.1380
    -9.1161  -9.0503  -9.0465  -8.9915  -8.9888  -8.9838  -8.9390  -8.8181
    -8.8104  -8.5175  -8.4907  -8.4287  -8.2963  -8.2514  -8.2354  -8.1404
    -8.1366  -8.1178  -8.0617  -7.9578  -7.9081  -7.8769  -7.8446  -7.8050
    -7.6087  -7.5971  -7.5369  -7.3933  -7.3444  -7.3134  -7.2730  -7.1724
    -7.1340  -7.0510  -7.0057  -6.9164  -6.8990  -6.7706  -6.6933  -6.6714
    -6.6124  -6.5512  -6.4808  -6.4620  -6.3373  -6.2439  -6.2002  -6.1943
    -6.1826  -6.0863  -6.0845  -6.0179  -6.0048  -5.9827  -5.9625  -5.8895
    -5.7692  -5.7103  -5.6427  -5.5125  -5.4616  -5.4108  -5.3991  -5.3797
    -5.3581  -5.3373  -5.3273  -5.2493  -5.2479  -5.1946  -5.1791  -5.1342
    -5.1308  -5.0830  -5.0751  -5.0630  -5.0614  -4.9980  -4.9790  -4.9695
    -4.9566  -4.9187  -4.8820  -4.8401  -4.7620  -4.7377  -4.7058  -4.6706
    -4.6196  -4.5226  -4.4927  -4.4626  -4.4499  -4.4042  -4.3787  -4.3709
    -4.3496  -4.3447  -4.3421  -4.2584  -4.1321  -4.1280  -4.1212  -4.1089
    -4.0966  -3.9881  -3.8862  -3.7892  -3.7761  -3.7462  -3.7433  -3.7409
    -3.6920  -3.6689  -3.6633  -3.6604  -3.6257  -3.6025  -3.5973  -3.5964
    -3.5955  -3.5254  -3.4703  -3.4651  -3.4476  -3.4150  -3.3947  -3.3940
    -3.3887  -3.3788  -3.3774  -3.2945  -3.2904  -3.2879  -3.2401  -3.1775
    -0.1837   1.4400   2.4346   2.4376   2.4561   2.4921   2.6584   3.1569
     3.2654   3.2899   3.3776   3.4664   3.5387   3.5535   3.6361   3.6459

     occupation numbers 
     1.0000   1.0000   1.0000   1.0000   1.0000   1.0000   1.0000   1.0000
     1.0000   1.0000   1.0000   1.0000   1.0000   1.0000   1.0000   1.0000
     1.0000   1.0000   1.0000   1.0000   1.0000   1.0000   1.0000   1.0000
     1.0000   1.0000   1.0000   1.0000   1.0000   1.0000   1.0000   1.0000
     1.0000   1.0000   1.0000   1.0000   1.0000   1.0000   1.0000   1.0000
     1.0000   1.0000   1.0000   1.0000   1.0000   1.0000   1.0000   1.0000
     1.0000   1.0000   1.0000   1.0000   1.0000   1.0000   1.0000   1.0000
     1.0000   1.0000   1.0000   1.0000   1.0000   1.0000   1.0000   1.0000
     1.0000   1.0000   1.0000   1.0000   1.0000   1.0000   1.0000   1.0000
     1.0000   1.0000   1.0000   1.0000   1.0000   1.0000   1.0000   1.0000
     1.0000   1.0000   1.0000   1.0000   1.0000   1.0000   1.0000   1.0000
     1.0000   1.0000   1.0000   1.0000   1.0000   1.0000   1.0000   1.0000
     1.0000   1.0000   1.0000   1.0000   1.0000   1.0000   1.0000   1.0000
     1.0000   1.0000   1.0000   1.0000   1.0000   1.0000   1.0000   1.0000
     1.0000   1.0000   1.0000   1.0000   1.0000   1.0000   1.0000   1.0000
     1.0000   1.0000   1.0000   1.0000   1.0000   1.0000   1.0000   1.0000
     1.0000   1.0000   1.0000   1.0000   1.0000   1.0000   1.0000   1.0000
     1.0000   1.0000   1.0000   1.0000   1.0000   1.0000   1.0000   1.0000
     1.0000   1.0000   1.0000   1.0000   1.0000   1.0000   1.0000   1.0000
     1.0000   1.0000   1.0000   1.0000   1.0000   1.0000   1.0000   1.0000
     1.0000   1.0000   1.0000   1.0000   1.0000   1.0000   1.0000   1.0000
     1.0000   1.0000   1.0000   1.0000   1.0000   1.0000   1.0000   1.0000
     1.0000   1.0000   1.0000   1.0000   1.0000   1.0000   1.0000   1.0000
     1.0000   1.0000   1.0000   1.0000   1.0000   1.0000   1.0000   1.0000
     1.0000   1.0000   1.0000   1.0000   1.0000   1.0000   1.0000   1.0000
     1.0000   1.0000   1.0000   1.0000   1.0000   1.0000   1.0000   1.0000
     1.0000   1.0000   1.0000   1.0000   1.0000   1.0000   1.0000   1.0000
     1.0000   1.0000   1.0000   1.0000   1.0000   1.0000   1.0000   1.0000
     1.0000   1.0000   1.0000   1.0000   1.0000   1.0000   1.0000   1.0000
     1.0000   1.0000   1.0000   1.0000   1.0000   1.0000   1.0000   1.0000
     1.0000   1.0000   1.0000   1.0000   1.0000   1.0000   1.0000   1.0000
     1.0000   1.0000   1.0000   1.0000   1.0000   1.0000   1.0000   1.0000
     1.0000   1.0000   1.0000   1.0000   1.0000   1.0000   1.0000   1.0000
     1.0000   1.0000   1.0000   1.0000   1.0000   1.0000   1.0000   1.0000
     1.0000   1.0000   1.0000   1.0000   1.0000   1.0000   1.0000   1.0000
     1.0000   1.0000   1.0000   1.0000   1.0000   1.0000   1.0000   1.0000
     1.0000   1.0000   1.0000   1.0000   1.0000   1.0000   1.0000   1.0000
     1.0000   1.0000   1.0000   1.0000   1.0000   1.0000   1.0000   1.0000
     1.0000   1.0000   1.0000   1.0000   1.0000   1.0000   1.0000   1.0000
     0.0000   0.0000   0.0000   0.0000   0.0000   0.0000   0.0000   0.0000
     0.0000   0.0000   0.0000   0.0000   0.0000   0.0000   0.0000   0.0000

          k = 0.0000 0.3334 0.0000 (303760 PWs)   bands (ev):

   -23.1222 -23.1127 -23.0436 -23.0391 -22.9972 -22.9954 -22.9533 -22.9528
   -22.7432 -22.7429 -22.6984 -22.6983 -22.6851 -22.6842 -22.6449 -22.6437
   -22.6339 -22.6329 -22.6048 -22.6046 -22.5488 -22.5478 -22.5452 -22.5449
   -21.9284 -21.8353 -21.6503 -21.6439 -21.6318 -21.5913 -21.4951 -21.4797
   -21.4579 -21.4006 -21.4000 -21.3766 -21.3213 -21.2942 -21.2885 -21.2876
   -21.2374 -21.2353 -21.2027 -21.2017 -21.1127 -21.1020 -21.0870 -21.0619
   -15.6384 -15.6158 -15.6134 -15.6037 -15.6019 -15.6011 -15.6007 -15.5813
   -15.5809 -15.5796 -15.5767 -15.5726 -15.5638 -15.5545 -15.5395 -15.5346
   -15.5305 -15.5216 -15.5189 -15.5149 -15.5078 -15.5008 -15.4961 -15.4885
   -15.4835 -15.4802 -15.4723 -15.4700 -15.4695 -15.4566 -15.4532 -15.4505
   -15.4410 -15.4379 -15.4376 -15.4323 -15.4251 -15.4237 -15.4140 -15.4092
   -15.3918 -15.3911 -15.3866 -15.3830 -15.3811 -15.3780 -15.3771 -15.3738
   -15.3664 -15.3517 -15.3458 -15.3444 -15.3432 -15.3242 -15.3194 -15.3098
   -15.3041 -15.3002 -15.2959 -15.2872 -15.2799 -15.2778 -15.2698 -15.2653
   -15.2577 -15.2565 -15.2534 -15.2492 -15.2489 -15.2431 -15.2370 -15.2347
   -15.2260 -15.2206 -15.2141 -15.2130 -15.2058 -15.2036 -15.2014 -15.1922
   -15.1911 -15.1897 -15.1851 -15.1821 -15.1797 -15.1784 -15.1691 -15.1678
   -15.1596 -15.1563 -15.1534 -15.1511 -15.1397 -15.1349 -15.1342 -15.1317
   -15.1274 -15.1215 -15.1186 -15.1115 -15.1021 -15.0785 -15.0663 -15.0405
   -15.0225 -14.9292 -14.9067 -14.9058 -14.8223 -14.8105 -14.7865 -14.7734
   -14.7345 -14.6822 -14.6817 -14.6641 -14.5077 -14.4982 -14.4900 -14.4588
    -9.3997  -9.3654  -9.3446  -9.2792  -9.2502  -9.2466  -9.2267  -9.1991
    -9.1140  -9.0696  -9.0269  -9.0151  -8.9058  -8.8927  -8.8473  -8.8081
    -8.6863  -8.4747  -8.4671  -8.4397  -8.3691  -8.3538  -8.3337  -8.1985
    -8.1490  -8.0925  -7.9929  -7.9820  -7.9132  -7.8988  -7.8707  -7.8037
    -7.7366  -7.7048  -7.5559  -7.3506  -7.3393  -7.2531  -7.2308  -7.2011
    -7.1584  -7.1308  -7.0818  -6.9206  -6.7452  -6.6954  -6.6335  -6.5538
    -6.4911  -6.4695  -6.4383  -6.3774  -6.3374  -6.2900  -6.2642  -6.1969
    -6.0687  -6.0558  -6.0227  -6.0178  -5.9237  -5.9149  -5.8261  -5.7919
    -5.7799  -5.7303  -5.7286  -5.7261  -5.6832  -5.6524  -5.6069  -5.4775
    -5.4055  -5.3617  -5.3247  -5.3061  -5.2774  -5.2661  -5.1858  -5.1504
    -5.0990  -5.0611  -5.0558  -5.0018  -4.9803  -4.9577  -4.9524  -4.8886
    -4.8884  -4.8761  -4.8083  -4.7936  -4.7125  -4.6983  -4.6025  -4.5917
    -4.5832  -4.5743  -4.5383  -4.5305  -4.4799  -4.3985  -4.3893  -4.3443
    -4.2884  -4.2534  -4.2105  -4.1822  -4.1376  -4.1220  -4.1080  -4.0925
    -4.0346  -3.9807  -3.9547  -3.9342  -3.9138  -3.8736  -3.7737  -3.7512
    -3.7432  -3.6896  -3.6785  -3.6314  -3.6307  -3.6039  -3.5669  -3.5539
    -3.5527  -3.5355  -3.4955  -3.4760  -3.4441  -3.4431  -3.4299  -3.4278
    -3.4093  -3.3925  -3.3354  -3.3295  -3.2549  -3.2542  -3.2218  -3.2017
     0.2900   1.3125   1.7220   2.4060   2.6445   2.6491   2.8551   3.0758
     3.1288   3.3221   3.3921   3.4116   3.4618   3.5680   3.6697   3.7121

     occupation numbers 
     1.0000   1.0000   1.0000   1.0000   1.0000   1.0000   1.0000   1.0000
     1.0000   1.0000   1.0000   1.0000   1.0000   1.0000   1.0000   1.0000
     1.0000   1.0000   1.0000   1.0000   1.0000   1.0000   1.0000   1.0000
     1.0000   1.0000   1.0000   1.0000   1.0000   1.0000   1.0000   1.0000
     1.0000   1.0000   1.0000   1.0000   1.0000   1.0000   1.0000   1.0000
     1.0000   1.0000   1.0000   1.0000   1.0000   1.0000   1.0000   1.0000
     1.0000   1.0000   1.0000   1.0000   1.0000   1.0000   1.0000   1.0000
     1.0000   1.0000   1.0000   1.0000   1.0000   1.0000   1.0000   1.0000
     1.0000   1.0000   1.0000   1.0000   1.0000   1.0000   1.0000   1.0000
     1.0000   1.0000   1.0000   1.0000   1.0000   1.0000   1.0000   1.0000
     1.0000   1.0000   1.0000   1.0000   1.0000   1.0000   1.0000   1.0000
     1.0000   1.0000   1.0000   1.0000   1.0000   1.0000   1.0000   1.0000
     1.0000   1.0000   1.0000   1.0000   1.0000   1.0000   1.0000   1.0000
     1.0000   1.0000   1.0000   1.0000   1.0000   1.0000   1.0000   1.0000
     1.0000   1.0000   1.0000   1.0000   1.0000   1.0000   1.0000   1.0000
     1.0000   1.0000   1.0000   1.0000   1.0000   1.0000   1.0000   1.0000
     1.0000   1.0000   1.0000   1.0000   1.0000   1.0000   1.0000   1.0000
     1.0000   1.0000   1.0000   1.0000   1.0000   1.0000   1.0000   1.0000
     1.0000   1.0000   1.0000   1.0000   1.0000   1.0000   1.0000   1.0000
     1.0000   1.0000   1.0000   1.0000   1.0000   1.0000   1.0000   1.0000
     1.0000   1.0000   1.0000   1.0000   1.0000   1.0000   1.0000   1.0000
     1.0000   1.0000   1.0000   1.0000   1.0000   1.0000   1.0000   1.0000
     1.0000   1.0000   1.0000   1.0000   1.0000   1.0000   1.0000   1.0000
     1.0000   1.0000   1.0000   1.0000   1.0000   1.0000   1.0000   1.0000
     1.0000   1.0000   1.0000   1.0000   1.0000   1.0000   1.0000   1.0000
     1.0000   1.0000   1.0000   1.0000   1.0000   1.0000   1.0000   1.0000
     1.0000   1.0000   1.0000   1.0000   1.0000   1.0000   1.0000   1.0000
     1.0000   1.0000   1.0000   1.0000   1.0000   1.0000   1.0000   1.0000
     1.0000   1.0000   1.0000   1.0000   1.0000   1.0000   1.0000   1.0000
     1.0000   1.0000   1.0000   1.0000   1.0000   1.0000   1.0000   1.0000
     1.0000   1.0000   1.0000   1.0000   1.0000   1.0000   1.0000   1.0000
     1.0000   1.0000   1.0000   1.0000   1.0000   1.0000   1.0000   1.0000
     1.0000   1.0000   1.0000   1.0000   1.0000   1.0000   1.0000   1.0000
     1.0000   1.0000   1.0000   1.0000   1.0000   1.0000   1.0000   1.0000
     1.0000   1.0000   1.0000   1.0000   1.0000   1.0000   1.0000   1.0000
     1.0000   1.0000   1.0000   1.0000   1.0000   1.0000   1.0000   1.0000
     1.0000   1.0000   1.0000   1.0000   1.0000   1.0000   1.0000   1.0000
     1.0000   1.0000   1.0000   1.0000   1.0000   1.0000   1.0000   1.0000
     1.0000   1.0000   1.0000   1.0000   1.0000   1.0000   1.0000   1.0000
     0.0000   0.0000   0.0000   0.0000   0.0000   0.0000   0.0000   0.0000
     0.0000   0.0000   0.0000   0.0000   0.0000   0.0000   0.0000   0.0000

          k = 0.3333 0.0000 0.0000 (303760 PWs)   bands (ev):

   -23.1260 -23.1164 -23.0598 -23.0547 -22.9721 -22.9712 -22.9417 -22.9415
   -22.7635 -22.7627 -22.7272 -22.7267 -22.6575 -22.6572 -22.6355 -22.6352
   -22.6310 -22.6301 -22.6084 -22.6080 -22.5471 -22.5470 -22.5454 -22.5449
   -21.9233 -21.8128 -21.7229 -21.6825 -21.5891 -21.5731 -21.4971 -21.4629
   -21.4433 -21.4237 -21.4048 -21.3264 -21.3119 -21.3091 -21.2815 -21.2731
   -21.2596 -21.2395 -21.2338 -21.1991 -21.1133 -21.1121 -21.0760 -21.0572
   -15.6380 -15.6272 -15.6175 -15.6076 -15.6001 -15.5947 -15.5946 -15.5914
   -15.5726 -15.5710 -15.5645 -15.5628 -15.5618 -15.5608 -15.5585 -15.5412
   -15.5411 -15.5332 -15.5259 -15.5138 -15.5090 -15.5066 -15.4985 -15.4936
   -15.4925 -15.4854 -15.4658 -15.4631 -15.4590 -15.4503 -15.4436 -15.4433
   -15.4410 -15.4402 -15.4332 -15.4306 -15.4204 -15.4179 -15.4167 -15.4103
   -15.4037 -15.4000 -15.3853 -15.3819 -15.3677 -15.3659 -15.3641 -15.3606
   -15.3532 -15.3515 -15.3481 -15.3472 -15.3242 -15.3205 -15.3202 -15.3144
   -15.3090 -15.2926 -15.2881 -15.2837 -15.2758 -15.2758 -15.2734 -15.2703
   -15.2646 -15.2646 -15.2639 -15.2637 -15.2494 -15.2485 -15.2389 -15.2366
   -15.2335 -15.2319 -15.2191 -15.2100 -15.2062 -15.2000 -15.1971 -15.1871
   -15.1847 -15.1843 -15.1831 -15.1811 -15.1753 -15.1723 -15.1700 -15.1673
   -15.1648 -15.1588 -15.1587 -15.1477 -15.1444 -15.1401 -15.1367 -15.1322
   -15.1229 -15.1158 -15.1154 -15.1067 -15.0828 -15.0760 -15.0748 -15.0515
   -15.0345 -14.9839 -14.9498 -14.9117 -14.8153 -14.7962 -14.7952 -14.7425
   -14.7077 -14.7060 -14.6301 -14.6172 -14.5404 -14.5048 -14.4935 -14.4788
    -9.3816  -9.3717  -9.3044  -9.2967  -9.2525  -9.2442  -9.2077  -9.1839
    -9.1246  -9.1043  -9.0365  -9.0064  -8.9064  -8.9049  -8.9002  -8.8177
    -8.6569  -8.5256  -8.4670  -8.3490  -8.3476  -8.3355  -8.2698  -8.1913
    -8.1562  -8.1416  -8.1347  -8.0220  -7.9226  -7.8325  -7.7643  -7.7126
    -7.6565  -7.5770  -7.5557  -7.4975  -7.4862  -7.4365  -7.3940  -7.3585
    -7.0760  -7.0391  -6.9406  -6.8834  -6.7300  -6.6594  -6.6500  -6.5859
    -6.5141  -6.4379  -6.4035  -6.3892  -6.3046  -6.2699  -6.2127  -6.1756
    -6.1433  -6.0926  -6.0363  -6.0305  -6.0292  -6.0232  -5.9335  -5.7712
    -5.7516  -5.7093  -5.6817  -5.5901  -5.5516  -5.5179  -5.4915  -5.3810
    -5.3697  -5.3424  -5.3184  -5.2705  -5.2541  -5.2494  -5.1973  -5.1779
    -5.1529  -5.1309  -5.1140  -5.0887  -4.9275  -4.9275  -4.9194  -4.8578
    -4.8575  -4.8514  -4.8292  -4.8227  -4.8003  -4.7534  -4.6565  -4.6504
    -4.6244  -4.6053  -4.5480  -4.4471  -4.4307  -4.4221  -4.4161  -4.3673
    -4.3168  -4.2954  -4.2733  -4.2404  -4.1893  -4.1720  -4.0802  -4.0580
    -3.9991  -3.9802  -3.9501  -3.8972  -3.8691  -3.8416  -3.7434  -3.7432
    -3.7423  -3.7033  -3.6702  -3.6661  -3.6268  -3.5972  -3.5893  -3.5861
    -3.5518  -3.5129  -3.4906  -3.4765  -3.4581  -3.4519  -3.4405  -3.3983
    -3.3817  -3.3722  -3.3355  -3.3248  -3.3019  -3.2204  -3.2038  -3.1905
     0.2883   1.3043   1.7222   2.4112   2.6355   2.7198   2.8352   3.1394
     3.1574   3.2653   3.2807   3.4108   3.4414   3.5854   3.6714   3.7104

     occupation numbers 
     1.0000   1.0000   1.0000   1.0000   1.0000   1.0000   1.0000   1.0000
     1.0000   1.0000   1.0000   1.0000   1.0000   1.0000   1.0000   1.0000
     1.0000   1.0000   1.0000   1.0000   1.0000   1.0000   1.0000   1.0000
     1.0000   1.0000   1.0000   1.0000   1.0000   1.0000   1.0000   1.0000
     1.0000   1.0000   1.0000   1.0000   1.0000   1.0000   1.0000   1.0000
     1.0000   1.0000   1.0000   1.0000   1.0000   1.0000   1.0000   1.0000
     1.0000   1.0000   1.0000   1.0000   1.0000   1.0000   1.0000   1.0000
     1.0000   1.0000   1.0000   1.0000   1.0000   1.0000   1.0000   1.0000
     1.0000   1.0000   1.0000   1.0000   1.0000   1.0000   1.0000   1.0000
     1.0000   1.0000   1.0000   1.0000   1.0000   1.0000   1.0000   1.0000
     1.0000   1.0000   1.0000   1.0000   1.0000   1.0000   1.0000   1.0000
     1.0000   1.0000   1.0000   1.0000   1.0000   1.0000   1.0000   1.0000
     1.0000   1.0000   1.0000   1.0000   1.0000   1.0000   1.0000   1.0000
     1.0000   1.0000   1.0000   1.0000   1.0000   1.0000   1.0000   1.0000
     1.0000   1.0000   1.0000   1.0000   1.0000   1.0000   1.0000   1.0000
     1.0000   1.0000   1.0000   1.0000   1.0000   1.0000   1.0000   1.0000
     1.0000   1.0000   1.0000   1.0000   1.0000   1.0000   1.0000   1.0000
     1.0000   1.0000   1.0000   1.0000   1.0000   1.0000   1.0000   1.0000
     1.0000   1.0000   1.0000   1.0000   1.0000   1.0000   1.0000   1.0000
     1.0000   1.0000   1.0000   1.0000   1.0000   1.0000   1.0000   1.0000
     1.0000   1.0000   1.0000   1.0000   1.0000   1.0000   1.0000   1.0000
     1.0000   1.0000   1.0000   1.0000   1.0000   1.0000   1.0000   1.0000
     1.0000   1.0000   1.0000   1.0000   1.0000   1.0000   1.0000   1.0000
     1.0000   1.0000   1.0000   1.0000   1.0000   1.0000   1.0000   1.0000
     1.0000   1.0000   1.0000   1.0000   1.0000   1.0000   1.0000   1.0000
     1.0000   1.0000   1.0000   1.0000   1.0000   1.0000   1.0000   1.0000
     1.0000   1.0000   1.0000   1.0000   1.0000   1.0000   1.0000   1.0000
     1.0000   1.0000   1.0000   1.0000   1.0000   1.0000   1.0000   1.0000
     1.0000   1.0000   1.0000   1.0000   1.0000   1.0000   1.0000   1.0000
     1.0000   1.0000   1.0000   1.0000   1.0000   1.0000   1.0000   1.0000
     1.0000   1.0000   1.0000   1.0000   1.0000   1.0000   1.0000   1.0000
     1.0000   1.0000   1.0000   1.0000   1.0000   1.0000   1.0000   1.0000
     1.0000   1.0000   1.0000   1.0000   1.0000   1.0000   1.0000   1.0000
     1.0000   1.0000   1.0000   1.0000   1.0000   1.0000   1.0000   1.0000
     1.0000   1.0000   1.0000   1.0000   1.0000   1.0000   1.0000   1.0000
     1.0000   1.0000   1.0000   1.0000   1.0000   1.0000   1.0000   1.0000
     1.0000   1.0000   1.0000   1.0000   1.0000   1.0000   1.0000   1.0000
     1.0000   1.0000   1.0000   1.0000   1.0000   1.0000   1.0000   1.0000
     1.0000   1.0000   1.0000   1.0000   1.0000   1.0000   1.0000   1.0000
     0.0000   0.0000   0.0000   0.0000   0.0000   0.0000   0.0000   0.0000
     0.0000   0.0000   0.0000   0.0000   0.0000   0.0000   0.0000   0.0000

          k = 0.3333 0.3334 0.0000 (303835 PWs)   bands (ev):

   -23.0967 -23.0890 -23.0364 -23.0325 -23.0239 -23.0205 -22.9795 -22.9780
   -22.7215 -22.7213 -22.6934 -22.6929 -22.6706 -22.6701 -22.6432 -22.6427
   -22.6329 -22.6326 -22.6236 -22.6235 -22.5499 -22.5497 -22.5477 -22.5477
   -21.8904 -21.8045 -21.7868 -21.7254 -21.5388 -21.5135 -21.5060 -21.4636
   -21.4357 -21.4004 -21.3898 -21.3561 -21.3172 -21.3095 -21.2880 -21.2826
   -21.2587 -21.2481 -21.2285 -21.2182 -21.0996 -21.0874 -21.0817 -21.0636
   -15.6353 -15.6239 -15.6225 -15.6182 -15.6071 -15.6049 -15.5983 -15.5840
   -15.5794 -15.5793 -15.5760 -15.5708 -15.5614 -15.5595 -15.5485 -15.5395
   -15.5321 -15.5262 -15.5225 -15.5183 -15.5070 -15.4995 -15.4914 -15.4840
   -15.4771 -15.4745 -15.4652 -15.4646 -15.4605 -15.4577 -15.4436 -15.4434
   -15.4415 -15.4374 -15.4313 -15.4278 -15.4180 -15.4134 -15.4125 -15.4043
   -15.4021 -15.3999 -15.3977 -15.3919 -15.3828 -15.3807 -15.3768 -15.3758
   -15.3580 -15.3497 -15.3363 -15.3326 -15.3216 -15.3188 -15.3142 -15.3050
   -15.3038 -15.2965 -15.2889 -15.2863 -15.2808 -15.2753 -15.2718 -15.2653
   -15.2627 -15.2617 -15.2583 -15.2523 -15.2508 -15.2430 -15.2410 -15.2316
   -15.2258 -15.2237 -15.2229 -15.2198 -15.2149 -15.2040 -15.2031 -15.1989
   -15.1935 -15.1862 -15.1801 -15.1797 -15.1728 -15.1714 -15.1680 -15.1655
   -15.1618 -15.1606 -15.1528 -15.1524 -15.1452 -15.1451 -15.1401 -15.1370
   -15.1266 -15.1152 -15.1123 -15.1120 -15.0855 -15.0801 -15.0563 -15.0334
   -15.0261 -14.9825 -14.9631 -14.9355 -14.8374 -14.8319 -14.7824 -14.7693
   -14.6627 -14.6618 -14.6156 -14.5859 -14.5536 -14.5236 -14.5095 -14.4985
    -9.3738  -9.3513  -9.3382  -9.3121  -9.2668  -9.2517  -9.2494  -9.2234
    -9.0963  -9.0572  -9.0492  -9.0269  -8.8619  -8.8576  -8.8385  -8.8084
    -8.5657  -8.4758  -8.4669  -8.4411  -8.3026  -8.2903  -8.2501  -8.2430
    -8.1741  -8.1338  -8.1168  -8.0333  -7.9462  -7.9262  -7.7664  -7.7464
    -7.7323  -7.7100  -7.6053  -7.5792  -7.5441  -7.4573  -7.4401  -7.4072
    -7.0166  -6.9673  -6.8878  -6.8848  -6.6399  -6.5708  -6.5586  -6.4455
    -6.3952  -6.3924  -6.3665  -6.3551  -6.3438  -6.2895  -6.2018  -6.1509
    -6.0901  -6.0627  -6.0237  -5.9985  -5.9778  -5.9452  -5.9264  -5.8209
    -5.7683  -5.7236  -5.6892  -5.6889  -5.6108  -5.6100  -5.5651  -5.4697
    -5.3975  -5.3779  -5.3545  -5.3519  -5.3023  -5.2313  -5.1743  -5.1445
    -5.1234  -5.0972  -5.0606  -5.0326  -4.9970  -4.9869  -4.9709  -4.9280
    -4.9121  -4.8131  -4.7814  -4.7293  -4.6674  -4.6557  -4.6444  -4.6006
    -4.5549  -4.5068  -4.4902  -4.4897  -4.4562  -4.4282  -4.4148  -4.3646
    -4.3263  -4.2990  -4.2559  -4.2489  -4.2172  -4.1519  -4.1358  -4.1192
    -4.0884  -3.9857  -3.9678  -3.9496  -3.8846  -3.8582  -3.8088  -3.7807
    -3.7734  -3.7516  -3.7296  -3.7028  -3.6240  -3.6155  -3.6104  -3.5631
    -3.5443  -3.5184  -3.4779  -3.4768  -3.4601  -3.4347  -3.4226  -3.3975
    -3.3850  -3.3222  -3.3216  -3.3108  -3.2415  -3.2151  -3.1821  -3.1760
     0.6898   1.5964   1.6030   1.9748   2.3035   2.5992   2.6150   2.9609
     3.1355   3.4725   3.4760   3.5503   3.6260   3.6623   3.8049   3.8287

     occupation numbers 
     1.0000   1.0000   1.0000   1.0000   1.0000   1.0000   1.0000   1.0000
     1.0000   1.0000   1.0000   1.0000   1.0000   1.0000   1.0000   1.0000
     1.0000   1.0000   1.0000   1.0000   1.0000   1.0000   1.0000   1.0000
     1.0000   1.0000   1.0000   1.0000   1.0000   1.0000   1.0000   1.0000
     1.0000   1.0000   1.0000   1.0000   1.0000   1.0000   1.0000   1.0000
     1.0000   1.0000   1.0000   1.0000   1.0000   1.0000   1.0000   1.0000
     1.0000   1.0000   1.0000   1.0000   1.0000   1.0000   1.0000   1.0000
     1.0000   1.0000   1.0000   1.0000   1.0000   1.0000   1.0000   1.0000
     1.0000   1.0000   1.0000   1.0000   1.0000   1.0000   1.0000   1.0000
     1.0000   1.0000   1.0000   1.0000   1.0000   1.0000   1.0000   1.0000
     1.0000   1.0000   1.0000   1.0000   1.0000   1.0000   1.0000   1.0000
     1.0000   1.0000   1.0000   1.0000   1.0000   1.0000   1.0000   1.0000
     1.0000   1.0000   1.0000   1.0000   1.0000   1.0000   1.0000   1.0000
     1.0000   1.0000   1.0000   1.0000   1.0000   1.0000   1.0000   1.0000
     1.0000   1.0000   1.0000   1.0000   1.0000   1.0000   1.0000   1.0000
     1.0000   1.0000   1.0000   1.0000   1.0000   1.0000   1.0000   1.0000
     1.0000   1.0000   1.0000   1.0000   1.0000   1.0000   1.0000   1.0000
     1.0000   1.0000   1.0000   1.0000   1.0000   1.0000   1.0000   1.0000
     1.0000   1.0000   1.0000   1.0000   1.0000   1.0000   1.0000   1.0000
     1.0000   1.0000   1.0000   1.0000   1.0000   1.0000   1.0000   1.0000
     1.0000   1.0000   1.0000   1.0000   1.0000   1.0000   1.0000   1.0000
     1.0000   1.0000   1.0000   1.0000   1.0000   1.0000   1.0000   1.0000
     1.0000   1.0000   1.0000   1.0000   1.0000   1.0000   1.0000   1.0000
     1.0000   1.0000   1.0000   1.0000   1.0000   1.0000   1.0000   1.0000
     1.0000   1.0000   1.0000   1.0000   1.0000   1.0000   1.0000   1.0000
     1.0000   1.0000   1.0000   1.0000   1.0000   1.0000   1.0000   1.0000
     1.0000   1.0000   1.0000   1.0000   1.0000   1.0000   1.0000   1.0000
     1.0000   1.0000   1.0000   1.0000   1.0000   1.0000   1.0000   1.0000
     1.0000   1.0000   1.0000   1.0000   1.0000   1.0000   1.0000   1.0000
     1.0000   1.0000   1.0000   1.0000   1.0000   1.0000   1.0000   1.0000
     1.0000   1.0000   1.0000   1.0000   1.0000   1.0000   1.0000   1.0000
     1.0000   1.0000   1.0000   1.0000   1.0000   1.0000   1.0000   1.0000
     1.0000   1.0000   1.0000   1.0000   1.0000   1.0000   1.0000   1.0000
     1.0000   1.0000   1.0000   1.0000   1.0000   1.0000   1.0000   1.0000
     1.0000   1.0000   1.0000   1.0000   1.0000   1.0000   1.0000   1.0000
     1.0000   1.0000   1.0000   1.0000   1.0000   1.0000   1.0000   1.0000
     1.0000   1.0000   1.0000   1.0000   1.0000   1.0000   1.0000   1.0000
     1.0000   1.0000   1.0000   1.0000   1.0000   1.0000   1.0000   1.0000
     1.0000   1.0000   1.0000   1.0000   1.0000   1.0000   1.0000   1.0000
     0.0000   0.0000   0.0000   0.0000   0.0000   0.0000   0.0000   0.0000
     0.0000   0.0000   0.0000   0.0000   0.0000   0.0000   0.0000   0.0000

     highest occupied, lowest unoccupied level (ev):    -3.1760   -0.1837

!    total energy              =   -4057.47346112 Ry
     estimated scf accuracy    <          7.2E-10 Ry

     convergence has been achieved in  23 iterations

     Using ACE for calculation of exact exchange
     ACE projected onto   328 (nbndproj) and applied to   328 (nbnd) bands

     total energy              =   -4057.48679513 Ry
     Harris-Foulkes estimate   =   -4057.48679505 Ry
     est. exchange err (dexx)  =       0.01333401 Ry
     - averaged Fock potential =     252.12328158 Ry
     + Fock energy (ACE)       =    -126.11869902 Ry

     EXX: now go back to refine exchange calculation

     total cpu time spent up to now is     1039.9 secs

     Self-consistent Calculation
[tb_dev] Currently allocated     3.66E-04 Mbytes, locked:    0 /   1
[tb_pin] Currently allocated     0.00E+00 Mbytes, locked:    0 /   0

     iteration #  1     ecut=    80.00 Ry     beta= 0.30
     Davidson diagonalization with overlap

---- Real-time Memory Report at c_bands before calling an iterative solver
         57243 MiB given to the printing process from OS
             0 MiB allocation reported by mallinfo(arena+hblkhd)
        255588 MiB available memory on the node where the printing process lives
     GPU memory used/free/total (MiB): 90306 / 5004 / 95311
------------------
     ethr =  1.70E-13,  avg # of iterations = 17.0

     total cpu time spent up to now is     1079.2 secs

     total energy              =   -4057.48854755 Ry
     estimated scf accuracy    <       0.00055438 Ry
[tb_dev] Currently allocated     3.66E-04 Mbytes, locked:    0 /   1
[tb_pin] Currently allocated     0.00E+00 Mbytes, locked:    0 /   0

     iteration #  2     ecut=    80.00 Ry     beta= 0.30
     Davidson diagonalization with overlap

---- Real-time Memory Report at c_bands before calling an iterative solver
         57243 MiB given to the printing process from OS
             0 MiB allocation reported by mallinfo(arena+hblkhd)
        254723 MiB available memory on the node where the printing process lives
     GPU memory used/free/total (MiB): 90306 / 5004 / 95311
------------------
     ethr =  8.88E-08,  avg # of iterations =  1.0

     total cpu time spent up to now is     1088.3 secs

     total energy              =   -4057.48837785 Ry
     estimated scf accuracy    <       0.00031199 Ry
[tb_dev] Currently allocated     3.66E-04 Mbytes, locked:    0 /   1
[tb_pin] Currently allocated     0.00E+00 Mbytes, locked:    0 /   0

     iteration #  3     ecut=    80.00 Ry     beta= 0.30
     Davidson diagonalization with overlap

---- Real-time Memory Report at c_bands before calling an iterative solver
         57243 MiB given to the printing process from OS
             0 MiB allocation reported by mallinfo(arena+hblkhd)
        254079 MiB available memory on the node where the printing process lives
     GPU memory used/free/total (MiB): 90306 / 5004 / 95311
------------------
     ethr =  5.00E-08,  avg # of iterations =  6.0

     total cpu time spent up to now is     1102.7 secs

     total energy              =   -4057.48841621 Ry
     estimated scf accuracy    <       0.00002518 Ry
[tb_dev] Currently allocated     3.66E-04 Mbytes, locked:    0 /   1
[tb_pin] Currently allocated     0.00E+00 Mbytes, locked:    0 /   0

     iteration #  4     ecut=    80.00 Ry     beta= 0.30
     Davidson diagonalization with overlap

---- Real-time Memory Report at c_bands before calling an iterative solver
         57243 MiB given to the printing process from OS
             0 MiB allocation reported by mallinfo(arena+hblkhd)
        253688 MiB available memory on the node where the printing process lives
     GPU memory used/free/total (MiB): 90306 / 5004 / 95311
------------------
     ethr =  4.03E-09,  avg # of iterations =  2.3

     total cpu time spent up to now is     1114.3 secs

     total energy              =   -4057.48842110 Ry
     estimated scf accuracy    <       0.00001514 Ry
[tb_dev] Currently allocated     3.66E-04 Mbytes, locked:    0 /   1
[tb_pin] Currently allocated     0.00E+00 Mbytes, locked:    0 /   0

     iteration #  5     ecut=    80.00 Ry     beta= 0.30
     Davidson diagonalization with overlap

---- Real-time Memory Report at c_bands before calling an iterative solver
         57243 MiB given to the printing process from OS
             0 MiB allocation reported by mallinfo(arena+hblkhd)
        253914 MiB available memory on the node where the printing process lives
     GPU memory used/free/total (MiB): 90306 / 5004 / 95311
------------------
     ethr =  2.43E-09,  avg # of iterations =  2.0

     total cpu time spent up to now is     1125.1 secs

     total energy              =   -4057.48842303 Ry
     estimated scf accuracy    <       0.00000125 Ry
[tb_dev] Currently allocated     3.66E-04 Mbytes, locked:    0 /   1
[tb_pin] Currently allocated     0.00E+00 Mbytes, locked:    0 /   0

     iteration #  6     ecut=    80.00 Ry     beta= 0.30
     Davidson diagonalization with overlap

---- Real-time Memory Report at c_bands before calling an iterative solver
         57243 MiB given to the printing process from OS
             0 MiB allocation reported by mallinfo(arena+hblkhd)
        253662 MiB available memory on the node where the printing process lives
     GPU memory used/free/total (MiB): 90306 / 5004 / 95311
------------------
     ethr =  2.00E-10,  avg # of iterations =  3.0

     total cpu time spent up to now is     1136.7 secs

     total energy              =   -4057.48842352 Ry
     estimated scf accuracy    <       0.00000120 Ry
[tb_dev] Currently allocated     3.66E-04 Mbytes, locked:    0 /   1
[tb_pin] Currently allocated     0.00E+00 Mbytes, locked:    0 /   0

     iteration #  7     ecut=    80.00 Ry     beta= 0.30
     Davidson diagonalization with overlap

---- Real-time Memory Report at c_bands before calling an iterative solver
         57243 MiB given to the printing process from OS
             0 MiB allocation reported by mallinfo(arena+hblkhd)
        251300 MiB available memory on the node where the printing process lives
     GPU memory used/free/total (MiB): 90306 / 5004 / 95311
------------------
     ethr =  1.92E-10,  avg # of iterations =  2.0

     total cpu time spent up to now is     1147.2 secs

     total energy              =   -4057.48842407 Ry
     estimated scf accuracy    <       0.00000012 Ry
[tb_dev] Currently allocated     3.66E-04 Mbytes, locked:    0 /   1
[tb_pin] Currently allocated     0.00E+00 Mbytes, locked:    0 /   0

     iteration #  8     ecut=    80.00 Ry     beta= 0.30
     Davidson diagonalization with overlap

---- Real-time Memory Report at c_bands before calling an iterative solver
         57243 MiB given to the printing process from OS
             0 MiB allocation reported by mallinfo(arena+hblkhd)
        253208 MiB available memory on the node where the printing process lives
     GPU memory used/free/total (MiB): 90306 / 5004 / 95311
------------------
     ethr =  1.92E-11,  avg # of iterations =  2.0

     total cpu time spent up to now is     1157.7 secs

     total energy              =   -4057.48842429 Ry
     estimated scf accuracy    <       0.00000013 Ry
[tb_dev] Currently allocated     3.66E-04 Mbytes, locked:    0 /   1
[tb_pin] Currently allocated     0.00E+00 Mbytes, locked:    0 /   0

     iteration #  9     ecut=    80.00 Ry     beta= 0.30
     Davidson diagonalization with overlap

---- Real-time Memory Report at c_bands before calling an iterative solver
         57243 MiB given to the printing process from OS
             0 MiB allocation reported by mallinfo(arena+hblkhd)
        253132 MiB available memory on the node where the printing process lives
     GPU memory used/free/total (MiB): 90306 / 5004 / 95311
------------------
     ethr =  1.92E-11,  avg # of iterations =  2.5

     total cpu time spent up to now is     1168.9 secs

     total energy              =   -4057.48842460 Ry
     estimated scf accuracy    <       0.00000005 Ry
[tb_dev] Currently allocated     3.66E-04 Mbytes, locked:    0 /   1
[tb_pin] Currently allocated     0.00E+00 Mbytes, locked:    0 /   0

     iteration # 10     ecut=    80.00 Ry     beta= 0.30
     Davidson diagonalization with overlap

---- Real-time Memory Report at c_bands before calling an iterative solver
         57243 MiB given to the printing process from OS
             0 MiB allocation reported by mallinfo(arena+hblkhd)
        253071 MiB available memory on the node where the printing process lives
     GPU memory used/free/total (MiB): 90306 / 5004 / 95311
------------------
     ethr =  8.39E-12,  avg # of iterations =  2.0

     total cpu time spent up to now is     1178.8 secs

     total energy              =   -4057.48842461 Ry
     estimated scf accuracy    <       0.00000002 Ry
[tb_dev] Currently allocated     3.66E-04 Mbytes, locked:    0 /   1
[tb_pin] Currently allocated     0.00E+00 Mbytes, locked:    0 /   0

     iteration # 11     ecut=    80.00 Ry     beta= 0.30
     Davidson diagonalization with overlap

---- Real-time Memory Report at c_bands before calling an iterative solver
         57243 MiB given to the printing process from OS
             0 MiB allocation reported by mallinfo(arena+hblkhd)
        253251 MiB available memory on the node where the printing process lives
     GPU memory used/free/total (MiB): 90306 / 5004 / 95311
------------------
     ethr =  3.13E-12,  avg # of iterations =  2.0

     total cpu time spent up to now is     1189.0 secs

     total energy              =   -4057.48842460 Ry
     estimated scf accuracy    <          7.1E-09 Ry
[tb_dev] Currently allocated     3.66E-04 Mbytes, locked:    0 /   1
[tb_pin] Currently allocated     0.00E+00 Mbytes, locked:    0 /   0

     iteration # 12     ecut=    80.00 Ry     beta= 0.30
     Davidson diagonalization with overlap

---- Real-time Memory Report at c_bands before calling an iterative solver
         57243 MiB given to the printing process from OS
             0 MiB allocation reported by mallinfo(arena+hblkhd)
        253291 MiB available memory on the node where the printing process lives
     GPU memory used/free/total (MiB): 90306 / 5004 / 95311
------------------
     ethr =  1.14E-12,  avg # of iterations =  2.0

     negative rho (up, down):  2.786E-06 0.000E+00

     total cpu time spent up to now is     1199.5 secs

     total energy              =   -4057.48842462 Ry
     estimated scf accuracy    <          2.0E-09 Ry
[tb_dev] Currently allocated     3.66E-04 Mbytes, locked:    0 /   1
[tb_pin] Currently allocated     0.00E+00 Mbytes, locked:    0 /   0

     iteration # 13     ecut=    80.00 Ry     beta= 0.30
     Davidson diagonalization with overlap

---- Real-time Memory Report at c_bands before calling an iterative solver
         57243 MiB given to the printing process from OS
             0 MiB allocation reported by mallinfo(arena+hblkhd)
        253339 MiB available memory on the node where the printing process lives
     GPU memory used/free/total (MiB): 90306 / 5004 / 95311
------------------
     ethr =  3.26E-13,  avg # of iterations =  2.0

     negative rho (up, down):  9.247E-06 0.000E+00

     total cpu time spent up to now is     1210.3 secs

     total energy              =   -4057.48842459 Ry
     estimated scf accuracy    <          1.8E-09 Ry
[tb_dev] Currently allocated     3.66E-04 Mbytes, locked:    0 /   1
[tb_pin] Currently allocated     0.00E+00 Mbytes, locked:    0 /   0

     iteration # 14     ecut=    80.00 Ry     beta= 0.30
     Davidson diagonalization with overlap

---- Real-time Memory Report at c_bands before calling an iterative solver
         57243 MiB given to the printing process from OS
             0 MiB allocation reported by mallinfo(arena+hblkhd)
        249456 MiB available memory on the node where the printing process lives
     GPU memory used/free/total (MiB): 90306 / 5004 / 95311
------------------
     ethr =  2.90E-13,  avg # of iterations =  2.0

     total cpu time spent up to now is     1220.4 secs

     End of self-consistent calculation

          k = 0.0000 0.0000 0.0000 (303775 PWs)   bands (ev):

   -23.1462 -23.1345 -23.0086 -23.0061 -22.9789 -22.9775 -22.9202 -22.9199
   -22.7780 -22.7774 -22.7003 -22.6999 -22.6738 -22.6734 -22.6466 -22.6455
   -22.6305 -22.6298 -22.5844 -22.5840 -22.5396 -22.5386 -22.5349 -22.5348
   -21.9567 -21.7363 -21.6512 -21.6496 -21.6455 -21.5898 -21.5633 -21.4830
   -21.4309 -21.4148 -21.4091 -21.3292 -21.3267 -21.2887 -21.2779 -21.2744
   -21.2341 -21.2298 -21.1961 -21.1694 -21.1161 -21.1157 -21.0942 -21.0505
   -15.6534 -15.6325 -15.6324 -15.6239 -15.6118 -15.6080 -15.6044 -15.5979
   -15.5932 -15.5881 -15.5834 -15.5666 -15.5583 -15.5555 -15.5536 -15.5402
   -15.5389 -15.5220 -15.5202 -15.5138 -15.5092 -15.4980 -15.4858 -15.4857
   -15.4848 -15.4798 -15.4782 -15.4715 -15.4626 -15.4510 -15.4466 -15.4446
   -15.4408 -15.4375 -15.4352 -15.4347 -15.4248 -15.4225 -15.4186 -15.4052
   -15.3810 -15.3807 -15.3778 -15.3654 -15.3636 -15.3620 -15.3564 -15.3562
   -15.3497 -15.3485 -15.3447 -15.3442 -15.3292 -15.3240 -15.3152 -15.3139
   -15.3069 -15.2993 -15.2956 -15.2874 -15.2793 -15.2786 -15.2778 -15.2778
   -15.2749 -15.2735 -15.2729 -15.2579 -15.2554 -15.2540 -15.2498 -15.2447
   -15.2357 -15.2336 -15.2299 -15.2294 -15.2285 -15.2263 -15.2135 -15.2025
   -15.1978 -15.1876 -15.1847 -15.1829 -15.1826 -15.1783 -15.1684 -15.1666
   -15.1664 -15.1594 -15.1586 -15.1444 -15.1434 -15.1389 -15.1359 -15.1306
   -15.1263 -15.1247 -15.1110 -15.1108 -15.1082 -15.0943 -15.0813 -15.0644
   -14.9713 -14.9511 -14.9310 -14.8830 -14.8477 -14.8476 -14.7857 -14.7857
   -14.7468 -14.6594 -14.6294 -14.6102 -14.5746 -14.5040 -14.4872 -14.4449
    -9.4035  -9.3874  -9.2660  -9.2430  -9.2311  -9.2072  -9.1973  -9.1261
    -9.1045  -9.0399  -9.0352  -8.9814  -8.9794  -8.9735  -8.9294  -8.8075
    -8.8001  -8.5072  -8.4826  -8.4190  -8.2889  -8.2439  -8.2272  -8.1319
    -8.1280  -8.1094  -8.0533  -7.9482  -7.8981  -7.8679  -7.8344  -7.7957
    -7.5953  -7.5884  -7.5275  -7.3840  -7.3356  -7.3036  -7.2624  -7.1646
    -7.1228  -7.0424  -6.9939  -6.9033  -6.8875  -6.7613  -6.6862  -6.6677
    -6.6081  -6.5483  -6.4772  -6.4599  -6.3348  -6.2413  -6.1953  -6.1933
    -6.1797  -6.0829  -6.0803  -6.0136  -6.0015  -5.9815  -5.9594  -5.8868
    -5.7662  -5.7080  -5.6419  -5.5118  -5.4604  -5.4099  -5.3969  -5.3779
    -5.3582  -5.3350  -5.3248  -5.2491  -5.2477  -5.1919  -5.1776  -5.1341
    -5.1300  -5.0827  -5.0753  -5.0624  -5.0623  -5.0006  -4.9798  -4.9691
    -4.9596  -4.9189  -4.8845  -4.8420  -4.7652  -4.7390  -4.7077  -4.6720
    -4.6182  -4.5236  -4.4933  -4.4641  -4.4506  -4.4042  -4.3841  -4.3726
    -4.3530  -4.3473  -4.3442  -4.2617  -4.1344  -4.1287  -4.1223  -4.1104
    -4.0992  -3.9905  -3.8868  -3.7933  -3.7757  -3.7484  -3.7475  -3.7392
    -3.6914  -3.6680  -3.6623  -3.6601  -3.6271  -3.6028  -3.6000  -3.5963
    -3.5959  -3.5232  -3.4697  -3.4632  -3.4474  -3.4148  -3.3935  -3.3933
    -3.3896  -3.3789  -3.3763  -3.2934  -3.2896  -3.2889  -3.2419  -3.1771
    -0.1355   1.4717   2.4653   2.4681   2.4865   2.5225   2.6753   3.1817
     3.2778   3.3130   3.4023   3.4881   3.5285   3.5657   3.6605   3.6733

     occupation numbers 
     1.0000   1.0000   1.0000   1.0000   1.0000   1.0000   1.0000   1.0000
     1.0000   1.0000   1.0000   1.0000   1.0000   1.0000   1.0000   1.0000
     1.0000   1.0000   1.0000   1.0000   1.0000   1.0000   1.0000   1.0000
     1.0000   1.0000   1.0000   1.0000   1.0000   1.0000   1.0000   1.0000
     1.0000   1.0000   1.0000   1.0000   1.0000   1.0000   1.0000   1.0000
     1.0000   1.0000   1.0000   1.0000   1.0000   1.0000   1.0000   1.0000
     1.0000   1.0000   1.0000   1.0000   1.0000   1.0000   1.0000   1.0000
     1.0000   1.0000   1.0000   1.0000   1.0000   1.0000   1.0000   1.0000
     1.0000   1.0000   1.0000   1.0000   1.0000   1.0000   1.0000   1.0000
     1.0000   1.0000   1.0000   1.0000   1.0000   1.0000   1.0000   1.0000
     1.0000   1.0000   1.0000   1.0000   1.0000   1.0000   1.0000   1.0000
     1.0000   1.0000   1.0000   1.0000   1.0000   1.0000   1.0000   1.0000
     1.0000   1.0000   1.0000   1.0000   1.0000   1.0000   1.0000   1.0000
     1.0000   1.0000   1.0000   1.0000   1.0000   1.0000   1.0000   1.0000
     1.0000   1.0000   1.0000   1.0000   1.0000   1.0000   1.0000   1.0000
     1.0000   1.0000   1.0000   1.0000   1.0000   1.0000   1.0000   1.0000
     1.0000   1.0000   1.0000   1.0000   1.0000   1.0000   1.0000   1.0000
     1.0000   1.0000   1.0000   1.0000   1.0000   1.0000   1.0000   1.0000
     1.0000   1.0000   1.0000   1.0000   1.0000   1.0000   1.0000   1.0000
     1.0000   1.0000   1.0000   1.0000   1.0000   1.0000   1.0000   1.0000
     1.0000   1.0000   1.0000   1.0000   1.0000   1.0000   1.0000   1.0000
     1.0000   1.0000   1.0000   1.0000   1.0000   1.0000   1.0000   1.0000
     1.0000   1.0000   1.0000   1.0000   1.0000   1.0000   1.0000   1.0000
     1.0000   1.0000   1.0000   1.0000   1.0000   1.0000   1.0000   1.0000
     1.0000   1.0000   1.0000   1.0000   1.0000   1.0000   1.0000   1.0000
     1.0000   1.0000   1.0000   1.0000   1.0000   1.0000   1.0000   1.0000
     1.0000   1.0000   1.0000   1.0000   1.0000   1.0000   1.0000   1.0000
     1.0000   1.0000   1.0000   1.0000   1.0000   1.0000   1.0000   1.0000
     1.0000   1.0000   1.0000   1.0000   1.0000   1.0000   1.0000   1.0000
     1.0000   1.0000   1.0000   1.0000   1.0000   1.0000   1.0000   1.0000
     1.0000   1.0000   1.0000   1.0000   1.0000   1.0000   1.0000   1.0000
     1.0000   1.0000   1.0000   1.0000   1.0000   1.0000   1.0000   1.0000
     1.0000   1.0000   1.0000   1.0000   1.0000   1.0000   1.0000   1.0000
     1.0000   1.0000   1.0000   1.0000   1.0000   1.0000   1.0000   1.0000
     1.0000   1.0000   1.0000   1.0000   1.0000   1.0000   1.0000   1.0000
     1.0000   1.0000   1.0000   1.0000   1.0000   1.0000   1.0000   1.0000
     1.0000   1.0000   1.0000   1.0000   1.0000   1.0000   1.0000   1.0000
     1.0000   1.0000   1.0000   1.0000   1.0000   1.0000   1.0000   1.0000
     1.0000   1.0000   1.0000   1.0000   1.0000   1.0000   1.0000   1.0000
     0.0000   0.0000   0.0000   0.0000   0.0000   0.0000   0.0000   0.0000
     0.0000   0.0000   0.0000   0.0000   0.0000   0.0000   0.0000   0.0000

          k = 0.0000 0.3334 0.0000 (303760 PWs)   bands (ev):

   -23.1147 -23.1053 -23.0363 -23.0318 -22.9901 -22.9883 -22.9465 -22.9460
   -22.7370 -22.7367 -22.6927 -22.6926 -22.6790 -22.6781 -22.6389 -22.6377
   -22.6281 -22.6271 -22.5993 -22.5991 -22.5435 -22.5425 -22.5402 -22.5399
   -21.9211 -21.8283 -21.6438 -21.6379 -21.6253 -21.5853 -21.4890 -21.4731
   -21.4516 -21.3949 -21.3944 -21.3707 -21.3156 -21.2885 -21.2829 -21.2821
   -21.2314 -21.2293 -21.1974 -21.1965 -21.1072 -21.0966 -21.0812 -21.0556
   -15.6428 -15.6198 -15.6170 -15.6075 -15.6062 -15.6055 -15.6052 -15.5860
   -15.5847 -15.5838 -15.5802 -15.5770 -15.5685 -15.5583 -15.5446 -15.5380
   -15.5348 -15.5256 -15.5223 -15.5167 -15.5110 -15.5036 -15.5004 -15.4921
   -15.4877 -15.4820 -15.4756 -15.4741 -15.4720 -15.4586 -15.4561 -15.4522
   -15.4445 -15.4392 -15.4391 -15.4345 -15.4274 -15.4248 -15.4159 -15.4121
   -15.3944 -15.3940 -15.3888 -15.3847 -15.3835 -15.3804 -15.3790 -15.3755
   -15.3686 -15.3527 -15.3482 -15.3466 -15.3452 -15.3260 -15.3214 -15.3120
   -15.3057 -15.3018 -15.2980 -15.2889 -15.2825 -15.2795 -15.2712 -15.2674
   -15.2601 -15.2592 -15.2555 -15.2507 -15.2503 -15.2451 -15.2395 -15.2364
   -15.2279 -15.2230 -15.2165 -15.2154 -15.2078 -15.2058 -15.2038 -15.1945
   -15.1927 -15.1917 -15.1872 -15.1843 -15.1814 -15.1805 -15.1712 -15.1696
   -15.1616 -15.1578 -15.1552 -15.1528 -15.1412 -15.1368 -15.1367 -15.1332
   -15.1297 -15.1252 -15.1206 -15.1129 -15.1039 -15.0812 -15.0694 -15.0432
   -15.0254 -14.9320 -14.9098 -14.9089 -14.8253 -14.8135 -14.7895 -14.7764
   -14.7373 -14.6848 -14.6842 -14.6665 -14.5099 -14.5003 -14.4921 -14.4609
    -9.3874  -9.3531  -9.3326  -9.2669  -9.2384  -9.2348  -9.2149  -9.1872
    -9.1029  -9.0588  -9.0165  -9.0042  -8.8962  -8.8829  -8.8373  -8.7978
    -8.6765  -8.4648  -8.4582  -8.4309  -8.3602  -8.3447  -8.3240  -8.1895
    -8.1409  -8.0843  -7.9845  -7.9739  -7.9036  -7.8900  -7.8606  -7.7947
    -7.7252  -7.6940  -7.5470  -7.3411  -7.3291  -7.2456  -7.2220  -7.1917
    -7.1481  -7.1200  -7.0714  -6.9120  -6.7395  -6.6900  -6.6284  -6.5494
    -6.4870  -6.4641  -6.4343  -6.3728  -6.3327  -6.2876  -6.2615  -6.1921
    -6.0678  -6.0545  -6.0204  -6.0134  -5.9196  -5.9135  -5.8246  -5.7894
    -5.7787  -5.7265  -5.7259  -5.7232  -5.6820  -5.6515  -5.6052  -5.4756
    -5.4044  -5.3610  -5.3245  -5.3058  -5.2765  -5.2668  -5.1868  -5.1512
    -5.0985  -5.0613  -5.0569  -5.0020  -4.9809  -4.9583  -4.9519  -4.8900
    -4.8885  -4.8766  -4.8095  -4.7942  -4.7128  -4.7010  -4.6006  -4.5950
    -4.5860  -4.5775  -4.5391  -4.5303  -4.4818  -4.4006  -4.3893  -4.3467
    -4.2905  -4.2569  -4.2120  -4.1842  -4.1400  -4.1236  -4.1098  -4.0927
    -4.0350  -3.9825  -3.9568  -3.9354  -3.9142  -3.8755  -3.7732  -3.7499
    -3.7433  -3.6878  -3.6779  -3.6325  -3.6309  -3.6035  -3.5663  -3.5547
    -3.5543  -3.5371  -3.4968  -3.4753  -3.4457  -3.4430  -3.4304  -3.4263
    -3.4090  -3.3914  -3.3388  -3.3321  -3.2552  -3.2539  -3.2226  -3.2010
     0.3335   1.3506   1.7527   2.4337   2.6741   2.6798   2.8723   3.1051
     3.1566   3.3437   3.4132   3.4260   3.4831   3.5926   3.6858   3.6938

     occupation numbers 
     1.0000   1.0000   1.0000   1.0000   1.0000   1.0000   1.0000   1.0000
     1.0000   1.0000   1.0000   1.0000   1.0000   1.0000   1.0000   1.0000
     1.0000   1.0000   1.0000   1.0000   1.0000   1.0000   1.0000   1.0000
     1.0000   1.0000   1.0000   1.0000   1.0000   1.0000   1.0000   1.0000
     1.0000   1.0000   1.0000   1.0000   1.0000   1.0000   1.0000   1.0000
     1.0000   1.0000   1.0000   1.0000   1.0000   1.0000   1.0000   1.0000
     1.0000   1.0000   1.0000   1.0000   1.0000   1.0000   1.0000   1.0000
     1.0000   1.0000   1.0000   1.0000   1.0000   1.0000   1.0000   1.0000
     1.0000   1.0000   1.0000   1.0000   1.0000   1.0000   1.0000   1.0000
     1.0000   1.0000   1.0000   1.0000   1.0000   1.0000   1.0000   1.0000
     1.0000   1.0000   1.0000   1.0000   1.0000   1.0000   1.0000   1.0000
     1.0000   1.0000   1.0000   1.0000   1.0000   1.0000   1.0000   1.0000
     1.0000   1.0000   1.0000   1.0000   1.0000   1.0000   1.0000   1.0000
     1.0000   1.0000   1.0000   1.0000   1.0000   1.0000   1.0000   1.0000
     1.0000   1.0000   1.0000   1.0000   1.0000   1.0000   1.0000   1.0000
     1.0000   1.0000   1.0000   1.0000   1.0000   1.0000   1.0000   1.0000
     1.0000   1.0000   1.0000   1.0000   1.0000   1.0000   1.0000   1.0000
     1.0000   1.0000   1.0000   1.0000   1.0000   1.0000   1.0000   1.0000
     1.0000   1.0000   1.0000   1.0000   1.0000   1.0000   1.0000   1.0000
     1.0000   1.0000   1.0000   1.0000   1.0000   1.0000   1.0000   1.0000
     1.0000   1.0000   1.0000   1.0000   1.0000   1.0000   1.0000   1.0000
     1.0000   1.0000   1.0000   1.0000   1.0000   1.0000   1.0000   1.0000
     1.0000   1.0000   1.0000   1.0000   1.0000   1.0000   1.0000   1.0000
     1.0000   1.0000   1.0000   1.0000   1.0000   1.0000   1.0000   1.0000
     1.0000   1.0000   1.0000   1.0000   1.0000   1.0000   1.0000   1.0000
     1.0000   1.0000   1.0000   1.0000   1.0000   1.0000   1.0000   1.0000
     1.0000   1.0000   1.0000   1.0000   1.0000   1.0000   1.0000   1.0000
     1.0000   1.0000   1.0000   1.0000   1.0000   1.0000   1.0000   1.0000
     1.0000   1.0000   1.0000   1.0000   1.0000   1.0000   1.0000   1.0000
     1.0000   1.0000   1.0000   1.0000   1.0000   1.0000   1.0000   1.0000
     1.0000   1.0000   1.0000   1.0000   1.0000   1.0000   1.0000   1.0000
     1.0000   1.0000   1.0000   1.0000   1.0000   1.0000   1.0000   1.0000
     1.0000   1.0000   1.0000   1.0000   1.0000   1.0000   1.0000   1.0000
     1.0000   1.0000   1.0000   1.0000   1.0000   1.0000   1.0000   1.0000
     1.0000   1.0000   1.0000   1.0000   1.0000   1.0000   1.0000   1.0000
     1.0000   1.0000   1.0000   1.0000   1.0000   1.0000   1.0000   1.0000
     1.0000   1.0000   1.0000   1.0000   1.0000   1.0000   1.0000   1.0000
     1.0000   1.0000   1.0000   1.0000   1.0000   1.0000   1.0000   1.0000
     1.0000   1.0000   1.0000   1.0000   1.0000   1.0000   1.0000   1.0000
     0.0000   0.0000   0.0000   0.0000   0.0000   0.0000   0.0000   0.0000
     0.0000   0.0000   0.0000   0.0000   0.0000   0.0000   0.0000   0.0000

          k = 0.3333 0.0000 0.0000 (303760 PWs)   bands (ev):

   -23.1185 -23.1089 -23.0525 -23.0473 -22.9650 -22.9641 -22.9349 -22.9348
   -22.7570 -22.7561 -22.7209 -22.7203 -22.6523 -22.6520 -22.6294 -22.6290
   -22.6257 -22.6249 -22.6024 -22.6020 -22.5418 -22.5417 -22.5403 -22.5398
   -21.9159 -21.8057 -21.7169 -21.6763 -21.5828 -21.5668 -21.4907 -21.4565
   -21.4374 -21.4175 -21.3991 -21.3206 -21.3062 -21.3034 -21.2758 -21.2674
   -21.2541 -21.2338 -21.2284 -21.1935 -21.1081 -21.1068 -21.0702 -21.0510
   -15.6424 -15.6311 -15.6212 -15.6116 -15.6047 -15.5991 -15.5988 -15.5959
   -15.5771 -15.5753 -15.5688 -15.5661 -15.5657 -15.5656 -15.5626 -15.5448
   -15.5435 -15.5378 -15.5295 -15.5177 -15.5127 -15.5100 -15.5020 -15.4965
   -15.4958 -15.4893 -15.4683 -15.4651 -15.4615 -15.4516 -15.4465 -15.4455
   -15.4436 -15.4427 -15.4355 -15.4335 -15.4221 -15.4195 -15.4182 -15.4121
   -15.4065 -15.4017 -15.3878 -15.3837 -15.3703 -15.3673 -15.3656 -15.3625
   -15.3556 -15.3538 -15.3503 -15.3499 -15.3261 -15.3231 -15.3222 -15.3159
   -15.3107 -15.2947 -15.2906 -15.2862 -15.2776 -15.2773 -15.2758 -15.2725
   -15.2665 -15.2664 -15.2663 -15.2660 -15.2518 -15.2505 -15.2408 -15.2391
   -15.2357 -15.2341 -15.2215 -15.2119 -15.2083 -15.2021 -15.1990 -15.1890
   -15.1867 -15.1865 -15.1850 -15.1832 -15.1767 -15.1742 -15.1720 -15.1692
   -15.1666 -15.1609 -15.1606 -15.1495 -15.1460 -15.1423 -15.1393 -15.1335
   -15.1252 -15.1172 -15.1169 -15.1085 -15.0852 -15.0790 -15.0782 -15.0547
   -15.0371 -14.9874 -14.9526 -14.9148 -14.8181 -14.7993 -14.7984 -14.7452
   -14.7105 -14.7087 -14.6325 -14.6198 -14.5426 -14.5069 -14.4956 -14.4810
    -9.3695  -9.3593  -9.2924  -9.2848  -9.2406  -9.2323  -9.1957  -9.1720
    -9.1131  -9.0933  -9.0253  -8.9956  -8.8969  -8.8951  -8.8906  -8.8077
    -8.6471  -8.5163  -8.4568  -8.3406  -8.3381  -8.3265  -8.2596  -8.1829
    -8.1483  -8.1329  -8.1267  -8.0136  -7.9135  -7.8239  -7.7553  -7.7018
    -7.6464  -7.5674  -7.5462  -7.4877  -7.4764  -7.4271  -7.3838  -7.3486
    -7.0663  -7.0306  -6.9298  -6.8720  -6.7229  -6.6552  -6.6455  -6.5791
    -6.5109  -6.4352  -6.3993  -6.3851  -6.3003  -6.2673  -6.2093  -6.1747
    -6.1406  -6.0885  -6.0350  -6.0285  -6.0271  -6.0218  -5.9297  -5.7672
    -5.7479  -5.7083  -5.6808  -5.5889  -5.5496  -5.5163  -5.4904  -5.3797
    -5.3687  -5.3424  -5.3189  -5.2701  -5.2529  -5.2481  -5.1975  -5.1776
    -5.1548  -5.1299  -5.1133  -5.0896  -4.9274  -4.9266  -4.9196  -4.8581
    -4.8569  -4.8534  -4.8294  -4.8228  -4.8015  -4.7551  -4.6583  -4.6527
    -4.6237  -4.6065  -4.5481  -4.4491  -4.4332  -4.4247  -4.4181  -4.3696
    -4.3214  -4.2987  -4.2763  -4.2419  -4.1914  -4.1742  -4.0817  -4.0586
    -3.9999  -3.9814  -3.9518  -3.9007  -3.8694  -3.8429  -3.7430  -3.7423
    -3.7411  -3.7042  -3.6726  -3.6671  -3.6272  -3.5960  -3.5901  -3.5859
    -3.5508  -3.5113  -3.4909  -3.4755  -3.4562  -3.4510  -3.4408  -3.3984
    -3.3824  -3.3744  -3.3368  -3.3252  -3.3033  -3.2217  -3.2055  -3.1913
     0.3319   1.3424   1.7531   2.4390   2.6660   2.7507   2.8521   3.1686
     3.1864   3.2834   3.3057   3.4230   3.4661   3.6088   3.6863   3.6936

     occupation numbers 
     1.0000   1.0000   1.0000   1.0000   1.0000   1.0000   1.0000   1.0000
     1.0000   1.0000   1.0000   1.0000   1.0000   1.0000   1.0000   1.0000
     1.0000   1.0000   1.0000   1.0000   1.0000   1.0000   1.0000   1.0000
     1.0000   1.0000   1.0000   1.0000   1.0000   1.0000   1.0000   1.0000
     1.0000   1.0000   1.0000   1.0000   1.0000   1.0000   1.0000   1.0000
     1.0000   1.0000   1.0000   1.0000   1.0000   1.0000   1.0000   1.0000
     1.0000   1.0000   1.0000   1.0000   1.0000   1.0000   1.0000   1.0000
     1.0000   1.0000   1.0000   1.0000   1.0000   1.0000   1.0000   1.0000
     1.0000   1.0000   1.0000   1.0000   1.0000   1.0000   1.0000   1.0000
     1.0000   1.0000   1.0000   1.0000   1.0000   1.0000   1.0000   1.0000
     1.0000   1.0000   1.0000   1.0000   1.0000   1.0000   1.0000   1.0000
     1.0000   1.0000   1.0000   1.0000   1.0000   1.0000   1.0000   1.0000
     1.0000   1.0000   1.0000   1.0000   1.0000   1.0000   1.0000   1.0000
     1.0000   1.0000   1.0000   1.0000   1.0000   1.0000   1.0000   1.0000
     1.0000   1.0000   1.0000   1.0000   1.0000   1.0000   1.0000   1.0000
     1.0000   1.0000   1.0000   1.0000   1.0000   1.0000   1.0000   1.0000
     1.0000   1.0000   1.0000   1.0000   1.0000   1.0000   1.0000   1.0000
     1.0000   1.0000   1.0000   1.0000   1.0000   1.0000   1.0000   1.0000
     1.0000   1.0000   1.0000   1.0000   1.0000   1.0000   1.0000   1.0000
     1.0000   1.0000   1.0000   1.0000   1.0000   1.0000   1.0000   1.0000
     1.0000   1.0000   1.0000   1.0000   1.0000   1.0000   1.0000   1.0000
     1.0000   1.0000   1.0000   1.0000   1.0000   1.0000   1.0000   1.0000
     1.0000   1.0000   1.0000   1.0000   1.0000   1.0000   1.0000   1.0000
     1.0000   1.0000   1.0000   1.0000   1.0000   1.0000   1.0000   1.0000
     1.0000   1.0000   1.0000   1.0000   1.0000   1.0000   1.0000   1.0000
     1.0000   1.0000   1.0000   1.0000   1.0000   1.0000   1.0000   1.0000
     1.0000   1.0000   1.0000   1.0000   1.0000   1.0000   1.0000   1.0000
     1.0000   1.0000   1.0000   1.0000   1.0000   1.0000   1.0000   1.0000
     1.0000   1.0000   1.0000   1.0000   1.0000   1.0000   1.0000   1.0000
     1.0000   1.0000   1.0000   1.0000   1.0000   1.0000   1.0000   1.0000
     1.0000   1.0000   1.0000   1.0000   1.0000   1.0000   1.0000   1.0000
     1.0000   1.0000   1.0000   1.0000   1.0000   1.0000   1.0000   1.0000
     1.0000   1.0000   1.0000   1.0000   1.0000   1.0000   1.0000   1.0000
     1.0000   1.0000   1.0000   1.0000   1.0000   1.0000   1.0000   1.0000
     1.0000   1.0000   1.0000   1.0000   1.0000   1.0000   1.0000   1.0000
     1.0000   1.0000   1.0000   1.0000   1.0000   1.0000   1.0000   1.0000
     1.0000   1.0000   1.0000   1.0000   1.0000   1.0000   1.0000   1.0000
     1.0000   1.0000   1.0000   1.0000   1.0000   1.0000   1.0000   1.0000
     1.0000   1.0000   1.0000   1.0000   1.0000   1.0000   1.0000   1.0000
     0.0000   0.0000   0.0000   0.0000   0.0000   0.0000   0.0000   0.0000
     0.0000   0.0000   0.0000   0.0000   0.0000   0.0000   0.0000   0.0000

          k = 0.3333 0.3334 0.0000 (303835 PWs)   bands (ev):

   -23.0891 -23.0814 -23.0290 -23.0250 -23.0166 -23.0131 -22.9723 -22.9708
   -22.7149 -22.7147 -22.6868 -22.6863 -22.6647 -22.6643 -22.6371 -22.6367
   -22.6268 -22.6264 -22.6180 -22.6180 -22.5446 -22.5442 -22.5422 -22.5422
   -21.8832 -21.7978 -21.7799 -21.7190 -21.5328 -21.5073 -21.4998 -21.4574
   -21.4295 -21.3946 -21.3842 -21.3504 -21.3116 -21.3039 -21.2823 -21.2770
   -21.2532 -21.2425 -21.2232 -21.2128 -21.0943 -21.0819 -21.0761 -21.0577
   -15.6397 -15.6281 -15.6268 -15.6225 -15.6114 -15.6095 -15.6029 -15.5882
   -15.5833 -15.5832 -15.5798 -15.5748 -15.5655 -15.5632 -15.5528 -15.5432
   -15.5363 -15.5301 -15.5264 -15.5221 -15.5108 -15.5027 -15.4950 -15.4862
   -15.4804 -15.4780 -15.4679 -15.4675 -15.4630 -15.4598 -15.4464 -15.4452
   -15.4429 -15.4392 -15.4342 -15.4297 -15.4197 -15.4150 -15.4144 -15.4071
   -15.4046 -15.4025 -15.4004 -15.3937 -15.3852 -15.3828 -15.3784 -15.3784
   -15.3597 -15.3522 -15.3385 -15.3346 -15.3238 -15.3210 -15.3165 -15.3074
   -15.3057 -15.2983 -15.2908 -15.2887 -15.2831 -15.2773 -15.2738 -15.2674
   -15.2643 -15.2634 -15.2606 -15.2543 -15.2531 -15.2448 -15.2437 -15.2340
   -15.2279 -15.2261 -15.2251 -15.2221 -15.2169 -15.2064 -15.2050 -15.2014
   -15.1959 -15.1882 -15.1821 -15.1821 -15.1746 -15.1735 -15.1702 -15.1673
   -15.1638 -15.1628 -15.1546 -15.1542 -15.1471 -15.1468 -15.1420 -15.1391
   -15.1283 -15.1173 -15.1145 -15.1136 -15.0879 -15.0833 -15.0590 -15.0360
   -15.0290 -14.9856 -14.9661 -14.9386 -14.8405 -14.8350 -14.7854 -14.7721
   -14.6655 -14.6644 -14.6180 -14.5882 -14.5560 -14.5257 -14.5115 -14.5007
    -9.3617  -9.3390  -9.3262  -9.3001  -9.2550  -9.2399  -9.2374  -9.2115
    -9.0852  -9.0463  -9.0384  -9.0159  -8.8525  -8.8481  -8.8288  -8.7986
    -8.5559  -8.4664  -8.4571  -8.4314  -8.2932  -8.2816  -8.2412  -8.2342
    -8.1648  -8.1250  -8.1072  -8.0244  -7.9363  -7.9172  -7.7567  -7.7351
    -7.7234  -7.6995  -7.5960  -7.5693  -7.5344  -7.4476  -7.4302  -7.3974
    -7.0089  -6.9611  -6.8816  -6.8786  -6.6354  -6.5650  -6.5537  -6.4391
    -6.3917  -6.3867  -6.3622  -6.3514  -6.3398  -6.2846  -6.1976  -6.1481
    -6.0868  -6.0601  -6.0224  -5.9950  -5.9757  -5.9428  -5.9227  -5.8195
    -5.7674  -5.7224  -5.6884  -5.6875  -5.6093  -5.6075  -5.5638  -5.4684
    -5.3968  -5.3768  -5.3548  -5.3511  -5.3016  -5.2306  -5.1744  -5.1445
    -5.1233  -5.0965  -5.0620  -5.0302  -4.9964  -4.9865  -4.9703  -4.9284
    -4.9125  -4.8131  -4.7825  -4.7284  -4.6668  -4.6576  -4.6457  -4.6040
    -4.5554  -4.5082  -4.4923  -4.4910  -4.4579  -4.4293  -4.4168  -4.3668
    -4.3257  -4.3007  -4.2562  -4.2501  -4.2195  -4.1543  -4.1367  -4.1203
    -4.0876  -3.9854  -3.9698  -3.9512  -3.8844  -3.8583  -3.8087  -3.7838
    -3.7727  -3.7508  -3.7289  -3.7028  -3.6234  -3.6154  -3.6102  -3.5633
    -3.5434  -3.5184  -3.4789  -3.4772  -3.4604  -3.4342  -3.4227  -3.3972
    -3.3879  -3.3241  -3.3226  -3.3123  -3.2425  -3.2163  -3.1835  -3.1770
     0.7302   1.6324   1.6389   2.0043   2.3363   2.6263   2.6423   2.9812
     3.1574   3.4887   3.4912   3.5630   3.6508   3.6860   3.8211   3.8547

     occupation numbers 
     1.0000   1.0000   1.0000   1.0000   1.0000   1.0000   1.0000   1.0000
     1.0000   1.0000   1.0000   1.0000   1.0000   1.0000   1.0000   1.0000
     1.0000   1.0000   1.0000   1.0000   1.0000   1.0000   1.0000   1.0000
     1.0000   1.0000   1.0000   1.0000   1.0000   1.0000   1.0000   1.0000
     1.0000   1.0000   1.0000   1.0000   1.0000   1.0000   1.0000   1.0000
     1.0000   1.0000   1.0000   1.0000   1.0000   1.0000   1.0000   1.0000
     1.0000   1.0000   1.0000   1.0000   1.0000   1.0000   1.0000   1.0000
     1.0000   1.0000   1.0000   1.0000   1.0000   1.0000   1.0000   1.0000
     1.0000   1.0000   1.0000   1.0000   1.0000   1.0000   1.0000   1.0000
     1.0000   1.0000   1.0000   1.0000   1.0000   1.0000   1.0000   1.0000
     1.0000   1.0000   1.0000   1.0000   1.0000   1.0000   1.0000   1.0000
     1.0000   1.0000   1.0000   1.0000   1.0000   1.0000   1.0000   1.0000
     1.0000   1.0000   1.0000   1.0000   1.0000   1.0000   1.0000   1.0000
     1.0000   1.0000   1.0000   1.0000   1.0000   1.0000   1.0000   1.0000
     1.0000   1.0000   1.0000   1.0000   1.0000   1.0000   1.0000   1.0000
     1.0000   1.0000   1.0000   1.0000   1.0000   1.0000   1.0000   1.0000
     1.0000   1.0000   1.0000   1.0000   1.0000   1.0000   1.0000   1.0000
     1.0000   1.0000   1.0000   1.0000   1.0000   1.0000   1.0000   1.0000
     1.0000   1.0000   1.0000   1.0000   1.0000   1.0000   1.0000   1.0000
     1.0000   1.0000   1.0000   1.0000   1.0000   1.0000   1.0000   1.0000
     1.0000   1.0000   1.0000   1.0000   1.0000   1.0000   1.0000   1.0000
     1.0000   1.0000   1.0000   1.0000   1.0000   1.0000   1.0000   1.0000
     1.0000   1.0000   1.0000   1.0000   1.0000   1.0000   1.0000   1.0000
     1.0000   1.0000   1.0000   1.0000   1.0000   1.0000   1.0000   1.0000
     1.0000   1.0000   1.0000   1.0000   1.0000   1.0000   1.0000   1.0000
     1.0000   1.0000   1.0000   1.0000   1.0000   1.0000   1.0000   1.0000
     1.0000   1.0000   1.0000   1.0000   1.0000   1.0000   1.0000   1.0000
     1.0000   1.0000   1.0000   1.0000   1.0000   1.0000   1.0000   1.0000
     1.0000   1.0000   1.0000   1.0000   1.0000   1.0000   1.0000   1.0000
     1.0000   1.0000   1.0000   1.0000   1.0000   1.0000   1.0000   1.0000
     1.0000   1.0000   1.0000   1.0000   1.0000   1.0000   1.0000   1.0000
     1.0000   1.0000   1.0000   1.0000   1.0000   1.0000   1.0000   1.0000
     1.0000   1.0000   1.0000   1.0000   1.0000   1.0000   1.0000   1.0000
     1.0000   1.0000   1.0000   1.0000   1.0000   1.0000   1.0000   1.0000
     1.0000   1.0000   1.0000   1.0000   1.0000   1.0000   1.0000   1.0000
     1.0000   1.0000   1.0000   1.0000   1.0000   1.0000   1.0000   1.0000
     1.0000   1.0000   1.0000   1.0000   1.0000   1.0000   1.0000   1.0000
     1.0000   1.0000   1.0000   1.0000   1.0000   1.0000   1.0000   1.0000
     1.0000   1.0000   1.0000   1.0000   1.0000   1.0000   1.0000   1.0000
     0.0000   0.0000   0.0000   0.0000   0.0000   0.0000   0.0000   0.0000
     0.0000   0.0000   0.0000   0.0000   0.0000   0.0000   0.0000   0.0000

     highest occupied, lowest unoccupied level (ev):    -3.1770   -0.1355

!    total energy              =   -4057.48842462 Ry
     estimated scf accuracy    <          4.7E-10 Ry

     convergence has been achieved in  14 iterations

     Using ACE for calculation of exact exchange
     ACE projected onto   328 (nbndproj) and applied to   328 (nbnd) bands

     total energy              =   -4057.48867782 Ry
     Harris-Foulkes estimate   =   -4057.48867780 Ry
     est. exchange err (dexx)  =       0.00025321 Ry
     - averaged Fock potential =     252.25994763 Ry
     + Fock energy (ACE)       =    -126.14150182 Ry

     EXX: now go back to refine exchange calculation

     total cpu time spent up to now is     1425.4 secs

     Self-consistent Calculation
[tb_dev] Currently allocated     3.66E-04 Mbytes, locked:    0 /   1
[tb_pin] Currently allocated     0.00E+00 Mbytes, locked:    0 /   0

     iteration #  1     ecut=    80.00 Ry     beta= 0.30
     Davidson diagonalization with overlap

---- Real-time Memory Report at c_bands before calling an iterative solver
         57245 MiB given to the printing process from OS
             0 MiB allocation reported by mallinfo(arena+hblkhd)
        254213 MiB available memory on the node where the printing process lives
     GPU memory used/free/total (MiB): 90306 / 5004 / 95311
------------------
     ethr =  2.90E-13,  avg # of iterations = 13.5

     total cpu time spent up to now is     1455.2 secs

     total energy              =   -4057.48872546 Ry
     estimated scf accuracy    <       0.00001277 Ry
[tb_dev] Currently allocated     3.66E-04 Mbytes, locked:    0 /   1
[tb_pin] Currently allocated     0.00E+00 Mbytes, locked:    0 /   0

     iteration #  2     ecut=    80.00 Ry     beta= 0.30
     Davidson diagonalization with overlap

---- Real-time Memory Report at c_bands before calling an iterative solver
         57245 MiB given to the printing process from OS
             0 MiB allocation reported by mallinfo(arena+hblkhd)
        254252 MiB available memory on the node where the printing process lives
     GPU memory used/free/total (MiB): 90306 / 5004 / 95311
------------------
     ethr =  2.05E-09,  avg # of iterations =  1.0

     total cpu time spent up to now is     1464.0 secs

     total energy              =   -4057.48872255 Ry
     estimated scf accuracy    <       0.00000624 Ry
[tb_dev] Currently allocated     3.66E-04 Mbytes, locked:    0 /   1
[tb_pin] Currently allocated     0.00E+00 Mbytes, locked:    0 /   0

     iteration #  3     ecut=    80.00 Ry     beta= 0.30
     Davidson diagonalization with overlap

---- Real-time Memory Report at c_bands before calling an iterative solver
         57245 MiB given to the printing process from OS
             0 MiB allocation reported by mallinfo(arena+hblkhd)
        254446 MiB available memory on the node where the printing process lives
     GPU memory used/free/total (MiB): 90306 / 5004 / 95311
------------------
     ethr =  1.00E-09,  avg # of iterations =  2.0

     total cpu time spent up to now is     1474.1 secs

     total energy              =   -4057.48872329 Ry
     estimated scf accuracy    <       0.00000057 Ry
[tb_dev] Currently allocated     3.66E-04 Mbytes, locked:    0 /   1
[tb_pin] Currently allocated     0.00E+00 Mbytes, locked:    0 /   0

     iteration #  4     ecut=    80.00 Ry     beta= 0.30
     Davidson diagonalization with overlap

---- Real-time Memory Report at c_bands before calling an iterative solver
         57245 MiB given to the printing process from OS
             0 MiB allocation reported by mallinfo(arena+hblkhd)
        254338 MiB available memory on the node where the printing process lives
     GPU memory used/free/total (MiB): 90306 / 5004 / 95311
------------------
     ethr =  9.13E-11,  avg # of iterations =  2.0

     total cpu time spent up to now is     1485.1 secs

     total energy              =   -4057.48872337 Ry
     estimated scf accuracy    <       0.00000026 Ry
[tb_dev] Currently allocated     3.66E-04 Mbytes, locked:    0 /   1
[tb_pin] Currently allocated     0.00E+00 Mbytes, locked:    0 /   0

     iteration #  5     ecut=    80.00 Ry     beta= 0.30
     Davidson diagonalization with overlap

---- Real-time Memory Report at c_bands before calling an iterative solver
         57245 MiB given to the printing process from OS
             0 MiB allocation reported by mallinfo(arena+hblkhd)
        254004 MiB available memory on the node where the printing process lives
     GPU memory used/free/total (MiB): 90306 / 5004 / 95311
------------------
     ethr =  4.12E-11,  avg # of iterations =  2.0

     total cpu time spent up to now is     1495.3 secs

     total energy              =   -4057.48872346 Ry
     estimated scf accuracy    <       0.00000002 Ry
[tb_dev] Currently allocated     3.66E-04 Mbytes, locked:    0 /   1
[tb_pin] Currently allocated     0.00E+00 Mbytes, locked:    0 /   0

     iteration #  6     ecut=    80.00 Ry     beta= 0.30
     Davidson diagonalization with overlap

---- Real-time Memory Report at c_bands before calling an iterative solver
         57245 MiB given to the printing process from OS
             0 MiB allocation reported by mallinfo(arena+hblkhd)
        253800 MiB available memory on the node where the printing process lives
     GPU memory used/free/total (MiB): 90306 / 5004 / 95311
------------------
     ethr =  3.53E-12,  avg # of iterations =  4.0

     total cpu time spent up to now is     1507.5 secs

     total energy              =   -4057.48872348 Ry
     estimated scf accuracy    <       0.00000002 Ry
[tb_dev] Currently allocated     3.66E-04 Mbytes, locked:    0 /   1
[tb_pin] Currently allocated     0.00E+00 Mbytes, locked:    0 /   0

     iteration #  7     ecut=    80.00 Ry     beta= 0.30
     Davidson diagonalization with overlap

---- Real-time Memory Report at c_bands before calling an iterative solver
         57245 MiB given to the printing process from OS
             0 MiB allocation reported by mallinfo(arena+hblkhd)
        253840 MiB available memory on the node where the printing process lives
     GPU memory used/free/total (MiB): 90306 / 5004 / 95311
------------------
     ethr =  3.53E-12,  avg # of iterations =  2.0

     total cpu time spent up to now is     1517.7 secs

     total energy              =   -4057.48872349 Ry
     estimated scf accuracy    <          3.9E-09 Ry
[tb_dev] Currently allocated     3.66E-04 Mbytes, locked:    0 /   1
[tb_pin] Currently allocated     0.00E+00 Mbytes, locked:    0 /   0

     iteration #  8     ecut=    80.00 Ry     beta= 0.30
     Davidson diagonalization with overlap

---- Real-time Memory Report at c_bands before calling an iterative solver
         57245 MiB given to the printing process from OS
             0 MiB allocation reported by mallinfo(arena+hblkhd)
        253707 MiB available memory on the node where the printing process lives
     GPU memory used/free/total (MiB): 90306 / 5004 / 95311
------------------
     ethr =  6.19E-13,  avg # of iterations =  1.0

     total cpu time spent up to now is     1526.6 secs

     total energy              =   -4057.48872349 Ry
     estimated scf accuracy    <          3.1E-09 Ry
[tb_dev] Currently allocated     3.66E-04 Mbytes, locked:    0 /   1
[tb_pin] Currently allocated     0.00E+00 Mbytes, locked:    0 /   0

     iteration #  9     ecut=    80.00 Ry     beta= 0.30
     Davidson diagonalization with overlap

---- Real-time Memory Report at c_bands before calling an iterative solver
         57245 MiB given to the printing process from OS
             0 MiB allocation reported by mallinfo(arena+hblkhd)
        253688 MiB available memory on the node where the printing process lives
     GPU memory used/free/total (MiB): 90306 / 5004 / 95311
------------------
     ethr =  4.96E-13,  avg # of iterations =  2.0

     total cpu time spent up to now is     1536.5 secs

     End of self-consistent calculation

          k = 0.0000 0.0000 0.0000 (303775 PWs)   bands (ev):

   -23.1445 -23.1328 -23.0069 -23.0045 -22.9772 -22.9759 -22.9186 -22.9183
   -22.7764 -22.7758 -22.6987 -22.6983 -22.6723 -22.6719 -22.6452 -22.6441
   -22.6291 -22.6284 -22.5830 -22.5825 -22.5382 -22.5372 -22.5336 -22.5335
   -21.9546 -21.7342 -21.6491 -21.6475 -21.6434 -21.5878 -21.5614 -21.4808
   -21.4288 -21.4128 -21.4070 -21.3273 -21.3248 -21.2867 -21.2760 -21.2725
   -21.2322 -21.2279 -21.1942 -21.1674 -21.1142 -21.1138 -21.0923 -21.0485
   -15.6544 -15.6334 -15.6331 -15.6247 -15.6129 -15.6090 -15.6053 -15.5989
   -15.5941 -15.5890 -15.5845 -15.5674 -15.5592 -15.5563 -15.5544 -15.5412
   -15.5397 -15.5227 -15.5211 -15.5143 -15.5101 -15.4987 -15.4866 -15.4865
   -15.4854 -15.4808 -15.4790 -15.4723 -15.4633 -15.4515 -15.4473 -15.4455
   -15.4415 -15.4382 -15.4359 -15.4355 -15.4256 -15.4230 -15.4192 -15.4060
   -15.3816 -15.3813 -15.3786 -15.3661 -15.3644 -15.3628 -15.3570 -15.3569
   -15.3503 -15.3493 -15.3455 -15.3448 -15.3298 -15.3247 -15.3159 -15.3147
   -15.3077 -15.3002 -15.2964 -15.2881 -15.2801 -15.2794 -15.2786 -15.2785
   -15.2757 -15.2745 -15.2738 -15.2587 -15.2564 -15.2548 -15.2505 -15.2456
   -15.2367 -15.2345 -15.2308 -15.2301 -15.2292 -15.2272 -15.2143 -15.2033
   -15.1985 -15.1883 -15.1856 -15.1837 -15.1834 -15.1791 -15.1693 -15.1674
   -15.1671 -15.1602 -15.1593 -15.1451 -15.1441 -15.1396 -15.1367 -15.1314
   -15.1270 -15.1254 -15.1117 -15.1114 -15.1088 -15.0949 -15.0821 -15.0652
   -14.9720 -14.9517 -14.9318 -14.8838 -14.8484 -14.8483 -14.7865 -14.7864
   -14.7475 -14.6599 -14.6299 -14.6107 -14.5751 -14.5045 -14.4877 -14.4454
    -9.4017  -9.3855  -9.2643  -9.2412  -9.2294  -9.2054  -9.1955  -9.1243
    -9.1029  -9.0385  -9.0336  -8.9798  -8.9780  -8.9721  -8.9279  -8.8060
    -8.7984  -8.5056  -8.4813  -8.4176  -8.2878  -8.2427  -8.2259  -8.1305
    -8.1266  -8.1081  -8.0519  -7.9466  -7.8965  -7.8664  -7.8327  -7.7942
    -7.5932  -7.5872  -7.5261  -7.3826  -7.3344  -7.3022  -7.2607  -7.1633
    -7.1213  -7.0411  -6.9923  -6.9014  -6.8860  -6.7597  -6.6851  -6.6669
    -6.6073  -6.5476  -6.4764  -6.4593  -6.3343  -6.2409  -6.1946  -6.1931
    -6.1791  -6.0820  -6.0794  -6.0127  -6.0010  -5.9811  -5.9589  -5.8862
    -5.7657  -5.7072  -5.6418  -5.5117  -5.4602  -5.4094  -5.3965  -5.3775
    -5.3579  -5.3344  -5.3244  -5.2490  -5.2473  -5.1914  -5.1771  -5.1337
    -5.1296  -5.0825  -5.0751  -5.0622  -5.0621  -5.0005  -4.9797  -4.9688
    -4.9595  -4.9189  -4.8848  -4.8420  -4.7654  -4.7391  -4.7080  -4.6722
    -4.6178  -4.5232  -4.4932  -4.4643  -4.4505  -4.4040  -4.3848  -4.3727
    -4.3534  -4.3475  -4.3442  -4.2621  -4.1345  -4.1284  -4.1220  -4.1102
    -4.0992  -3.9906  -3.8864  -3.7934  -3.7754  -3.7486  -3.7476  -3.7388
    -3.6908  -3.6678  -3.6615  -3.6596  -3.6272  -3.6023  -3.6001  -3.5962
    -3.5955  -3.5228  -3.4694  -3.4626  -3.4471  -3.4145  -3.3931  -3.3926
    -3.3893  -3.3784  -3.3756  -3.2928  -3.2891  -3.2887  -3.2415  -3.1765
    -0.1299   1.4754   2.4689   2.4718   2.4905   2.5265   2.6765   3.1846
     3.2772   3.3159   3.4053   3.4908   3.5526   3.5694   3.6633   3.6773

     occupation numbers 
     1.0000   1.0000   1.0000   1.0000   1.0000   1.0000   1.0000   1.0000
     1.0000   1.0000   1.0000   1.0000   1.0000   1.0000   1.0000   1.0000
     1.0000   1.0000   1.0000   1.0000   1.0000   1.0000   1.0000   1.0000
     1.0000   1.0000   1.0000   1.0000   1.0000   1.0000   1.0000   1.0000
     1.0000   1.0000   1.0000   1.0000   1.0000   1.0000   1.0000   1.0000
     1.0000   1.0000   1.0000   1.0000   1.0000   1.0000   1.0000   1.0000
     1.0000   1.0000   1.0000   1.0000   1.0000   1.0000   1.0000   1.0000
     1.0000   1.0000   1.0000   1.0000   1.0000   1.0000   1.0000   1.0000
     1.0000   1.0000   1.0000   1.0000   1.0000   1.0000   1.0000   1.0000
     1.0000   1.0000   1.0000   1.0000   1.0000   1.0000   1.0000   1.0000
     1.0000   1.0000   1.0000   1.0000   1.0000   1.0000   1.0000   1.0000
     1.0000   1.0000   1.0000   1.0000   1.0000   1.0000   1.0000   1.0000
     1.0000   1.0000   1.0000   1.0000   1.0000   1.0000   1.0000   1.0000
     1.0000   1.0000   1.0000   1.0000   1.0000   1.0000   1.0000   1.0000
     1.0000   1.0000   1.0000   1.0000   1.0000   1.0000   1.0000   1.0000
     1.0000   1.0000   1.0000   1.0000   1.0000   1.0000   1.0000   1.0000
     1.0000   1.0000   1.0000   1.0000   1.0000   1.0000   1.0000   1.0000
     1.0000   1.0000   1.0000   1.0000   1.0000   1.0000   1.0000   1.0000
     1.0000   1.0000   1.0000   1.0000   1.0000   1.0000   1.0000   1.0000
     1.0000   1.0000   1.0000   1.0000   1.0000   1.0000   1.0000   1.0000
     1.0000   1.0000   1.0000   1.0000   1.0000   1.0000   1.0000   1.0000
     1.0000   1.0000   1.0000   1.0000   1.0000   1.0000   1.0000   1.0000
     1.0000   1.0000   1.0000   1.0000   1.0000   1.0000   1.0000   1.0000
     1.0000   1.0000   1.0000   1.0000   1.0000   1.0000   1.0000   1.0000
     1.0000   1.0000   1.0000   1.0000   1.0000   1.0000   1.0000   1.0000
     1.0000   1.0000   1.0000   1.0000   1.0000   1.0000   1.0000   1.0000
     1.0000   1.0000   1.0000   1.0000   1.0000   1.0000   1.0000   1.0000
     1.0000   1.0000   1.0000   1.0000   1.0000   1.0000   1.0000   1.0000
     1.0000   1.0000   1.0000   1.0000   1.0000   1.0000   1.0000   1.0000
     1.0000   1.0000   1.0000   1.0000   1.0000   1.0000   1.0000   1.0000
     1.0000   1.0000   1.0000   1.0000   1.0000   1.0000   1.0000   1.0000
     1.0000   1.0000   1.0000   1.0000   1.0000   1.0000   1.0000   1.0000
     1.0000   1.0000   1.0000   1.0000   1.0000   1.0000   1.0000   1.0000
     1.0000   1.0000   1.0000   1.0000   1.0000   1.0000   1.0000   1.0000
     1.0000   1.0000   1.0000   1.0000   1.0000   1.0000   1.0000   1.0000
     1.0000   1.0000   1.0000   1.0000   1.0000   1.0000   1.0000   1.0000
     1.0000   1.0000   1.0000   1.0000   1.0000   1.0000   1.0000   1.0000
     1.0000   1.0000   1.0000   1.0000   1.0000   1.0000   1.0000   1.0000
     1.0000   1.0000   1.0000   1.0000   1.0000   1.0000   1.0000   1.0000
     0.0000   0.0000   0.0000   0.0000   0.0000   0.0000   0.0000   0.0000
     0.0000   0.0000   0.0000   0.0000   0.0000   0.0000   0.0000   0.0000

          k = 0.0000 0.3334 0.0000 (303760 PWs)   bands (ev):

   -23.1130 -23.1035 -23.0346 -23.0301 -22.9884 -22.9866 -22.9448 -22.9443
   -22.7354 -22.7351 -22.6911 -22.6910 -22.6774 -22.6765 -22.6374 -22.6362
   -22.6267 -22.6256 -22.5978 -22.5975 -22.5421 -22.5412 -22.5389 -22.5386
   -21.9190 -21.8263 -21.6418 -21.6359 -21.6234 -21.5833 -21.4871 -21.4710
   -21.4496 -21.3930 -21.3925 -21.3688 -21.3136 -21.2865 -21.2810 -21.2802
   -21.2295 -21.2274 -21.1955 -21.1947 -21.1053 -21.0947 -21.0792 -21.0537
   -15.6437 -15.6206 -15.6178 -15.6083 -15.6072 -15.6064 -15.6062 -15.5870
   -15.5855 -15.5846 -15.5809 -15.5779 -15.5695 -15.5592 -15.5457 -15.5388
   -15.5358 -15.5264 -15.5231 -15.5173 -15.5118 -15.5043 -15.5013 -15.4929
   -15.4886 -15.4826 -15.4764 -15.4750 -15.4728 -15.4593 -15.4568 -15.4527
   -15.4454 -15.4397 -15.4397 -15.4353 -15.4281 -15.4253 -15.4166 -15.4128
   -15.3952 -15.3946 -15.3896 -15.3853 -15.3843 -15.3811 -15.3796 -15.3762
   -15.3694 -15.3532 -15.3489 -15.3473 -15.3460 -15.3267 -15.3223 -15.3128
   -15.3063 -15.3024 -15.2988 -15.2895 -15.2832 -15.2801 -15.2718 -15.2682
   -15.2610 -15.2601 -15.2564 -15.2515 -15.2510 -15.2460 -15.2404 -15.2372
   -15.2287 -15.2239 -15.2175 -15.2162 -15.2086 -15.2067 -15.2046 -15.1954
   -15.1934 -15.1924 -15.1880 -15.1852 -15.1821 -15.1813 -15.1721 -15.1704
   -15.1624 -15.1585 -15.1559 -15.1535 -15.1419 -15.1376 -15.1375 -15.1339
   -15.1304 -15.1261 -15.1213 -15.1135 -15.1045 -15.0819 -15.0703 -15.0440
   -15.0262 -14.9327 -14.9105 -14.9096 -14.8260 -14.8143 -14.7903 -14.7771
   -14.7380 -14.6854 -14.6847 -14.6671 -14.5104 -14.5007 -14.4926 -14.4613
    -9.3856  -9.3512  -9.3308  -9.2651  -9.2367  -9.2331  -9.2132  -9.1855
    -9.1013  -9.0572  -9.0151  -9.0027  -8.8948  -8.8815  -8.8358  -8.7963
    -8.6749  -8.4633  -8.4568  -8.4295  -8.3589  -8.3434  -8.3224  -8.1881
    -8.1396  -8.0830  -7.9831  -7.9725  -7.9021  -7.8887  -7.8591  -7.7932
    -7.7234  -7.6924  -7.5456  -7.3398  -7.3274  -7.2445  -7.2207  -7.1903
    -7.1467  -7.1184  -7.0699  -6.9107  -6.7385  -6.6891  -6.6275  -6.5487
    -6.4863  -6.4631  -6.4336  -6.3721  -6.3320  -6.2871  -6.2609  -6.1914
    -6.0676  -6.0542  -6.0200  -6.0127  -5.9189  -5.9132  -5.8242  -5.7889
    -5.7784  -5.7258  -5.7254  -5.7226  -5.6817  -5.6513  -5.6048  -5.4752
    -5.4041  -5.3607  -5.3243  -5.3055  -5.2762  -5.2667  -5.1866  -5.1513
    -5.0982  -5.0611  -5.0568  -5.0019  -4.9807  -4.9581  -4.9516  -4.8900
    -4.8883  -4.8764  -4.8095  -4.7940  -4.7126  -4.7012  -4.6003  -4.5953
    -4.5863  -4.5777  -4.5391  -4.5302  -4.4819  -4.4005  -4.3892  -4.3469
    -4.2905  -4.2571  -4.2120  -4.1842  -4.1401  -4.1235  -4.1096  -4.0923
    -4.0346  -3.9824  -3.9569  -3.9352  -3.9141  -3.8754  -3.7729  -3.7494
    -3.7430  -3.6873  -3.6775  -3.6325  -3.6306  -3.6031  -3.5658  -3.5547
    -3.5540  -3.5373  -3.4966  -3.4746  -3.4457  -3.4424  -3.4300  -3.4257
    -3.4085  -3.3907  -3.3389  -3.3322  -3.2551  -3.2534  -3.2224  -3.2006
     0.3386   1.3553   1.7563   2.4369   2.6778   2.6837   2.8737   3.1090
     3.1601   3.3460   3.4155   3.4258   3.4854   3.5958   3.6968   3.7092

     occupation numbers 
     1.0000   1.0000   1.0000   1.0000   1.0000   1.0000   1.0000   1.0000
     1.0000   1.0000   1.0000   1.0000   1.0000   1.0000   1.0000   1.0000
     1.0000   1.0000   1.0000   1.0000   1.0000   1.0000   1.0000   1.0000
     1.0000   1.0000   1.0000   1.0000   1.0000   1.0000   1.0000   1.0000
     1.0000   1.0000   1.0000   1.0000   1.0000   1.0000   1.0000   1.0000
     1.0000   1.0000   1.0000   1.0000   1.0000   1.0000   1.0000   1.0000
     1.0000   1.0000   1.0000   1.0000   1.0000   1.0000   1.0000   1.0000
     1.0000   1.0000   1.0000   1.0000   1.0000   1.0000   1.0000   1.0000
     1.0000   1.0000   1.0000   1.0000   1.0000   1.0000   1.0000   1.0000
     1.0000   1.0000   1.0000   1.0000   1.0000   1.0000   1.0000   1.0000
     1.0000   1.0000   1.0000   1.0000   1.0000   1.0000   1.0000   1.0000
     1.0000   1.0000   1.0000   1.0000   1.0000   1.0000   1.0000   1.0000
     1.0000   1.0000   1.0000   1.0000   1.0000   1.0000   1.0000   1.0000
     1.0000   1.0000   1.0000   1.0000   1.0000   1.0000   1.0000   1.0000
     1.0000   1.0000   1.0000   1.0000   1.0000   1.0000   1.0000   1.0000
     1.0000   1.0000   1.0000   1.0000   1.0000   1.0000   1.0000   1.0000
     1.0000   1.0000   1.0000   1.0000   1.0000   1.0000   1.0000   1.0000
     1.0000   1.0000   1.0000   1.0000   1.0000   1.0000   1.0000   1.0000
     1.0000   1.0000   1.0000   1.0000   1.0000   1.0000   1.0000   1.0000
     1.0000   1.0000   1.0000   1.0000   1.0000   1.0000   1.0000   1.0000
     1.0000   1.0000   1.0000   1.0000   1.0000   1.0000   1.0000   1.0000
     1.0000   1.0000   1.0000   1.0000   1.0000   1.0000   1.0000   1.0000
     1.0000   1.0000   1.0000   1.0000   1.0000   1.0000   1.0000   1.0000
     1.0000   1.0000   1.0000   1.0000   1.0000   1.0000   1.0000   1.0000
     1.0000   1.0000   1.0000   1.0000   1.0000   1.0000   1.0000   1.0000
     1.0000   1.0000   1.0000   1.0000   1.0000   1.0000   1.0000   1.0000
     1.0000   1.0000   1.0000   1.0000   1.0000   1.0000   1.0000   1.0000
     1.0000   1.0000   1.0000   1.0000   1.0000   1.0000   1.0000   1.0000
     1.0000   1.0000   1.0000   1.0000   1.0000   1.0000   1.0000   1.0000
     1.0000   1.0000   1.0000   1.0000   1.0000   1.0000   1.0000   1.0000
     1.0000   1.0000   1.0000   1.0000   1.0000   1.0000   1.0000   1.0000
     1.0000   1.0000   1.0000   1.0000   1.0000   1.0000   1.0000   1.0000
     1.0000   1.0000   1.0000   1.0000   1.0000   1.0000   1.0000   1.0000
     1.0000   1.0000   1.0000   1.0000   1.0000   1.0000   1.0000   1.0000
     1.0000   1.0000   1.0000   1.0000   1.0000   1.0000   1.0000   1.0000
     1.0000   1.0000   1.0000   1.0000   1.0000   1.0000   1.0000   1.0000
     1.0000   1.0000   1.0000   1.0000   1.0000   1.0000   1.0000   1.0000
     1.0000   1.0000   1.0000   1.0000   1.0000   1.0000   1.0000   1.0000
     1.0000   1.0000   1.0000   1.0000   1.0000   1.0000   1.0000   1.0000
     0.0000   0.0000   0.0000   0.0000   0.0000   0.0000   0.0000   0.0000
     0.0000   0.0000   0.0000   0.0000   0.0000   0.0000   0.0000   0.0000

          k = 0.3333 0.0000 0.0000 (303760 PWs)   bands (ev):

   -23.1167 -23.1071 -23.0507 -23.0456 -22.9633 -22.9624 -22.9332 -22.9331
   -22.7553 -22.7545 -22.7193 -22.7187 -22.6509 -22.6506 -22.6279 -22.6275
   -22.6244 -22.6235 -22.6007 -22.6004 -22.5404 -22.5403 -22.5390 -22.5385
   -21.9138 -21.8036 -21.7149 -21.6743 -21.5808 -21.5649 -21.4887 -21.4544
   -21.4355 -21.4155 -21.3972 -21.3187 -21.3043 -21.3015 -21.2739 -21.2655
   -21.2523 -21.2319 -21.2266 -21.1916 -21.1063 -21.1050 -21.0683 -21.0491
   -15.6434 -15.6320 -15.6220 -15.6124 -15.6056 -15.6001 -15.5996 -15.5969
   -15.5780 -15.5762 -15.5697 -15.5671 -15.5666 -15.5665 -15.5634 -15.5456
   -15.5441 -15.5387 -15.5303 -15.5186 -15.5135 -15.5108 -15.5028 -15.4974
   -15.4965 -15.4902 -15.4690 -15.4657 -15.4622 -15.4521 -15.4473 -15.4462
   -15.4443 -15.4434 -15.4362 -15.4343 -15.4227 -15.4200 -15.4189 -15.4127
   -15.4072 -15.4024 -15.3887 -15.3844 -15.3710 -15.3678 -15.3661 -15.3633
   -15.3564 -15.3545 -15.3509 -15.3506 -15.3267 -15.3238 -15.3229 -15.3166
   -15.3114 -15.2954 -15.2914 -15.2869 -15.2785 -15.2780 -15.2767 -15.2734
   -15.2674 -15.2672 -15.2671 -15.2665 -15.2526 -15.2513 -15.2415 -15.2400
   -15.2366 -15.2350 -15.2224 -15.2126 -15.2092 -15.2030 -15.1998 -15.1898
   -15.1876 -15.1873 -15.1858 -15.1841 -15.1773 -15.1750 -15.1727 -15.1700
   -15.1674 -15.1618 -15.1614 -15.1502 -15.1467 -15.1430 -15.1401 -15.1340
   -15.1260 -15.1178 -15.1175 -15.1091 -15.0859 -15.0799 -15.0791 -15.0556
   -15.0378 -14.9882 -14.9533 -14.9155 -14.8188 -14.8000 -14.7991 -14.7458
   -14.7112 -14.7093 -14.6330 -14.6203 -14.5430 -14.5074 -14.4960 -14.4815
    -9.3677  -9.3574  -9.2907  -9.2830  -9.2388  -9.2305  -9.1939  -9.1703
    -9.1115  -9.0918  -9.0238  -8.9941  -8.8955  -8.8936  -8.8892  -8.8062
    -8.6455  -8.5149  -8.4552  -8.3393  -8.3365  -8.3251  -8.2580  -8.1815
    -8.1470  -8.1315  -8.1254  -8.0122  -7.9120  -7.8226  -7.7539  -7.7001
    -7.6448  -7.5661  -7.5448  -7.4861  -7.4749  -7.4258  -7.3823  -7.3470
    -7.0649  -7.0293  -6.9283  -6.8703  -6.7219  -6.6545  -6.6447  -6.5780
    -6.5104  -6.4345  -6.3985  -6.3843  -6.2995  -6.2669  -6.2086  -6.1745
    -6.1402  -6.0878  -6.0347  -6.0281  -6.0267  -6.0215  -5.9291  -5.7665
    -5.7474  -5.7079  -5.6805  -5.5886  -5.5493  -5.5159  -5.4900  -5.3793
    -5.3685  -5.3422  -5.3188  -5.2700  -5.2527  -5.2478  -5.1974  -5.1772
    -5.1549  -5.1293  -5.1129  -5.0894  -4.9272  -4.9264  -4.9195  -4.8579
    -4.8567  -4.8533  -4.8293  -4.8227  -4.8015  -4.7550  -4.6584  -4.6529
    -4.6234  -4.6064  -4.5480  -4.4492  -4.4335  -4.4250  -4.4183  -4.3698
    -4.3218  -4.2990  -4.2766  -4.2419  -4.1915  -4.1743  -4.0816  -4.0583
    -3.9997  -3.9812  -3.9516  -3.9009  -3.8693  -3.8428  -3.7426  -3.7420
    -3.7408  -3.7040  -3.6727  -3.6670  -3.6270  -3.5954  -3.5901  -3.5855
    -3.5502  -3.5109  -3.4907  -3.4748  -3.4555  -3.4505  -3.4406  -3.3979
    -3.3820  -3.3745  -3.3365  -3.3248  -3.3032  -3.2216  -3.2056  -3.1912
     0.3370   1.3471   1.7566   2.4422   2.6700   2.7548   2.8533   3.1724
     3.1903   3.2849   3.3088   3.4222   3.4691   3.6115   3.6962   3.7100

     occupation numbers 
     1.0000   1.0000   1.0000   1.0000   1.0000   1.0000   1.0000   1.0000
     1.0000   1.0000   1.0000   1.0000   1.0000   1.0000   1.0000   1.0000
     1.0000   1.0000   1.0000   1.0000   1.0000   1.0000   1.0000   1.0000
     1.0000   1.0000   1.0000   1.0000   1.0000   1.0000   1.0000   1.0000
     1.0000   1.0000   1.0000   1.0000   1.0000   1.0000   1.0000   1.0000
     1.0000   1.0000   1.0000   1.0000   1.0000   1.0000   1.0000   1.0000
     1.0000   1.0000   1.0000   1.0000   1.0000   1.0000   1.0000   1.0000
     1.0000   1.0000   1.0000   1.0000   1.0000   1.0000   1.0000   1.0000
     1.0000   1.0000   1.0000   1.0000   1.0000   1.0000   1.0000   1.0000
     1.0000   1.0000   1.0000   1.0000   1.0000   1.0000   1.0000   1.0000
     1.0000   1.0000   1.0000   1.0000   1.0000   1.0000   1.0000   1.0000
     1.0000   1.0000   1.0000   1.0000   1.0000   1.0000   1.0000   1.0000
     1.0000   1.0000   1.0000   1.0000   1.0000   1.0000   1.0000   1.0000
     1.0000   1.0000   1.0000   1.0000   1.0000   1.0000   1.0000   1.0000
     1.0000   1.0000   1.0000   1.0000   1.0000   1.0000   1.0000   1.0000
     1.0000   1.0000   1.0000   1.0000   1.0000   1.0000   1.0000   1.0000
     1.0000   1.0000   1.0000   1.0000   1.0000   1.0000   1.0000   1.0000
     1.0000   1.0000   1.0000   1.0000   1.0000   1.0000   1.0000   1.0000
     1.0000   1.0000   1.0000   1.0000   1.0000   1.0000   1.0000   1.0000
     1.0000   1.0000   1.0000   1.0000   1.0000   1.0000   1.0000   1.0000
     1.0000   1.0000   1.0000   1.0000   1.0000   1.0000   1.0000   1.0000
     1.0000   1.0000   1.0000   1.0000   1.0000   1.0000   1.0000   1.0000
     1.0000   1.0000   1.0000   1.0000   1.0000   1.0000   1.0000   1.0000
     1.0000   1.0000   1.0000   1.0000   1.0000   1.0000   1.0000   1.0000
     1.0000   1.0000   1.0000   1.0000   1.0000   1.0000   1.0000   1.0000
     1.0000   1.0000   1.0000   1.0000   1.0000   1.0000   1.0000   1.0000
     1.0000   1.0000   1.0000   1.0000   1.0000   1.0000   1.0000   1.0000
     1.0000   1.0000   1.0000   1.0000   1.0000   1.0000   1.0000   1.0000
     1.0000   1.0000   1.0000   1.0000   1.0000   1.0000   1.0000   1.0000
     1.0000   1.0000   1.0000   1.0000   1.0000   1.0000   1.0000   1.0000
     1.0000   1.0000   1.0000   1.0000   1.0000   1.0000   1.0000   1.0000
     1.0000   1.0000   1.0000   1.0000   1.0000   1.0000   1.0000   1.0000
     1.0000   1.0000   1.0000   1.0000   1.0000   1.0000   1.0000   1.0000
     1.0000   1.0000   1.0000   1.0000   1.0000   1.0000   1.0000   1.0000
     1.0000   1.0000   1.0000   1.0000   1.0000   1.0000   1.0000   1.0000
     1.0000   1.0000   1.0000   1.0000   1.0000   1.0000   1.0000   1.0000
     1.0000   1.0000   1.0000   1.0000   1.0000   1.0000   1.0000   1.0000
     1.0000   1.0000   1.0000   1.0000   1.0000   1.0000   1.0000   1.0000
     1.0000   1.0000   1.0000   1.0000   1.0000   1.0000   1.0000   1.0000
     0.0000   0.0000   0.0000   0.0000   0.0000   0.0000   0.0000   0.0000
     0.0000   0.0000   0.0000   0.0000   0.0000   0.0000   0.0000   0.0000

          k = 0.3333 0.3334 0.0000 (303835 PWs)   bands (ev):

   -23.0874 -23.0797 -23.0273 -23.0233 -23.0149 -23.0114 -22.9706 -22.9691
   -22.7133 -22.7131 -22.6852 -22.6847 -22.6633 -22.6628 -22.6357 -22.6352
   -22.6254 -22.6249 -22.6166 -22.6166 -22.5433 -22.5429 -22.5409 -22.5408
   -21.8811 -21.7958 -21.7778 -21.7170 -21.5308 -21.5053 -21.4978 -21.4554
   -21.4275 -21.3927 -21.3823 -21.3485 -21.3096 -21.3020 -21.2803 -21.2750
   -21.2513 -21.2405 -21.2213 -21.2109 -21.0924 -21.0800 -21.0742 -21.0557
   -15.6407 -15.6290 -15.6277 -15.6234 -15.6123 -15.6105 -15.6039 -15.5890
   -15.5842 -15.5840 -15.5807 -15.5756 -15.5664 -15.5640 -15.5537 -15.5440
   -15.5372 -15.5310 -15.5272 -15.5229 -15.5117 -15.5035 -15.4958 -15.4869
   -15.4812 -15.4789 -15.4687 -15.4683 -15.4636 -15.4604 -15.4471 -15.4458
   -15.4434 -15.4398 -15.4350 -15.4303 -15.4203 -15.4157 -15.4150 -15.4079
   -15.4053 -15.4033 -15.4011 -15.3943 -15.3859 -15.3835 -15.3791 -15.3790
   -15.3602 -15.3530 -15.3392 -15.3353 -15.3245 -15.3217 -15.3172 -15.3082
   -15.3064 -15.2990 -15.2915 -15.2895 -15.2839 -15.2780 -15.2745 -15.2682
   -15.2649 -15.2640 -15.2614 -15.2551 -15.2538 -15.2455 -15.2446 -15.2348
   -15.2287 -15.2269 -15.2259 -15.2229 -15.2177 -15.2073 -15.2057 -15.2023
   -15.1967 -15.1891 -15.1829 -15.1828 -15.1753 -15.1743 -15.1710 -15.1680
   -15.1646 -15.1636 -15.1553 -15.1550 -15.1478 -15.1475 -15.1427 -15.1398
   -15.1289 -15.1181 -15.1152 -15.1143 -15.0886 -15.0841 -15.0598 -15.0367
   -15.0298 -14.9864 -14.9669 -14.9394 -14.8412 -14.8357 -14.7861 -14.7727
   -14.6661 -14.6650 -14.6186 -14.5887 -14.5566 -14.5262 -14.5120 -14.5012
    -9.3599  -9.3371  -9.3244  -9.2983  -9.2533  -9.2381  -9.2356  -9.2098
    -9.0836  -9.0447  -9.0368  -9.0143  -8.8511  -8.8467  -8.8274  -8.7971
    -8.5544  -8.4649  -8.4555  -8.4299  -8.2918  -8.2802  -8.2398  -8.2328
    -8.1634  -8.1237  -8.1057  -8.0230  -7.9349  -7.9157  -7.7552  -7.7335
    -7.7221  -7.6979  -7.5946  -7.5678  -7.5329  -7.4461  -7.4287  -7.3959
    -7.0078  -6.9601  -6.8807  -6.8777  -6.6345  -6.5641  -6.5528  -6.4381
    -6.3912  -6.3859  -6.3616  -6.3508  -6.3392  -6.2839  -6.1969  -6.1476
    -6.0863  -6.0596  -6.0222  -5.9944  -5.9752  -5.9424  -5.9220  -5.8191
    -5.7670  -5.7220  -5.6882  -5.6871  -5.6089  -5.6070  -5.5635  -5.4680
    -5.3964  -5.3764  -5.3546  -5.3508  -5.3014  -5.2304  -5.1744  -5.1444
    -5.1231  -5.0962  -5.0621  -5.0298  -4.9962  -4.9863  -4.9702  -4.9284
    -4.9125  -4.8131  -4.7824  -4.7281  -4.6667  -4.6577  -4.6458  -4.6042
    -4.5554  -4.5082  -4.4925  -4.4912  -4.4580  -4.4292  -4.4169  -4.3670
    -4.3255  -4.3006  -4.2562  -4.2501  -4.2194  -4.1544  -4.1366  -4.1202
    -4.0872  -3.9853  -3.9698  -3.9512  -3.8841  -3.8581  -3.8083  -3.7839
    -3.7724  -3.7503  -3.7285  -3.7025  -3.6230  -3.6151  -3.6100  -3.5632
    -3.5429  -3.5180  -3.4787  -3.4769  -3.4601  -3.4338  -3.4223  -3.3967
    -3.3881  -3.3240  -3.3224  -3.3121  -3.2423  -3.2160  -3.1832  -3.1767
     0.7350   1.6369   1.6433   2.0078   2.3405   2.6297   2.6457   2.9831
     3.1598   3.4897   3.4920   3.5626   3.6539   3.6889   3.8213   3.8581

     occupation numbers 
     1.0000   1.0000   1.0000   1.0000   1.0000   1.0000   1.0000   1.0000
     1.0000   1.0000   1.0000   1.0000   1.0000   1.0000   1.0000   1.0000
     1.0000   1.0000   1.0000   1.0000   1.0000   1.0000   1.0000   1.0000
     1.0000   1.0000   1.0000   1.0000   1.0000   1.0000   1.0000   1.0000
     1.0000   1.0000   1.0000   1.0000   1.0000   1.0000   1.0000   1.0000
     1.0000   1.0000   1.0000   1.0000   1.0000   1.0000   1.0000   1.0000
     1.0000   1.0000   1.0000   1.0000   1.0000   1.0000   1.0000   1.0000
     1.0000   1.0000   1.0000   1.0000   1.0000   1.0000   1.0000   1.0000
     1.0000   1.0000   1.0000   1.0000   1.0000   1.0000   1.0000   1.0000
     1.0000   1.0000   1.0000   1.0000   1.0000   1.0000   1.0000   1.0000
     1.0000   1.0000   1.0000   1.0000   1.0000   1.0000   1.0000   1.0000
     1.0000   1.0000   1.0000   1.0000   1.0000   1.0000   1.0000   1.0000
     1.0000   1.0000   1.0000   1.0000   1.0000   1.0000   1.0000   1.0000
     1.0000   1.0000   1.0000   1.0000   1.0000   1.0000   1.0000   1.0000
     1.0000   1.0000   1.0000   1.0000   1.0000   1.0000   1.0000   1.0000
     1.0000   1.0000   1.0000   1.0000   1.0000   1.0000   1.0000   1.0000
     1.0000   1.0000   1.0000   1.0000   1.0000   1.0000   1.0000   1.0000
     1.0000   1.0000   1.0000   1.0000   1.0000   1.0000   1.0000   1.0000
     1.0000   1.0000   1.0000   1.0000   1.0000   1.0000   1.0000   1.0000
     1.0000   1.0000   1.0000   1.0000   1.0000   1.0000   1.0000   1.0000
     1.0000   1.0000   1.0000   1.0000   1.0000   1.0000   1.0000   1.0000
     1.0000   1.0000   1.0000   1.0000   1.0000   1.0000   1.0000   1.0000
     1.0000   1.0000   1.0000   1.0000   1.0000   1.0000   1.0000   1.0000
     1.0000   1.0000   1.0000   1.0000   1.0000   1.0000   1.0000   1.0000
     1.0000   1.0000   1.0000   1.0000   1.0000   1.0000   1.0000   1.0000
     1.0000   1.0000   1.0000   1.0000   1.0000   1.0000   1.0000   1.0000
     1.0000   1.0000   1.0000   1.0000   1.0000   1.0000   1.0000   1.0000
     1.0000   1.0000   1.0000   1.0000   1.0000   1.0000   1.0000   1.0000
     1.0000   1.0000   1.0000   1.0000   1.0000   1.0000   1.0000   1.0000
     1.0000   1.0000   1.0000   1.0000   1.0000   1.0000   1.0000   1.0000
     1.0000   1.0000   1.0000   1.0000   1.0000   1.0000   1.0000   1.0000
     1.0000   1.0000   1.0000   1.0000   1.0000   1.0000   1.0000   1.0000
     1.0000   1.0000   1.0000   1.0000   1.0000   1.0000   1.0000   1.0000
     1.0000   1.0000   1.0000   1.0000   1.0000   1.0000   1.0000   1.0000
     1.0000   1.0000   1.0000   1.0000   1.0000   1.0000   1.0000   1.0000
     1.0000   1.0000   1.0000   1.0000   1.0000   1.0000   1.0000   1.0000
     1.0000   1.0000   1.0000   1.0000   1.0000   1.0000   1.0000   1.0000
     1.0000   1.0000   1.0000   1.0000   1.0000   1.0000   1.0000   1.0000
     1.0000   1.0000   1.0000   1.0000   1.0000   1.0000   1.0000   1.0000
     0.0000   0.0000   0.0000   0.0000   0.0000   0.0000   0.0000   0.0000
     0.0000   0.0000   0.0000   0.0000   0.0000   0.0000   0.0000   0.0000

     highest occupied, lowest unoccupied level (ev):    -3.1765   -0.1299

!    total energy              =   -4057.48872348 Ry
     estimated scf accuracy    <          3.4E-10 Ry

     convergence has been achieved in   9 iterations

     Using ACE for calculation of exact exchange
     ACE projected onto   328 (nbndproj) and applied to   328 (nbnd) bands

     total energy              =   -4057.48873246 Ry
     Harris-Foulkes estimate   =   -4057.48873246 Ry
     est. exchange err (dexx)  =       0.00000897 Ry
     - averaged Fock potential =     252.28752401 Ry
     + Fock energy (ACE)       =    -126.14603117 Ry

     EXX: now go back to refine exchange calculation

     total cpu time spent up to now is     1741.6 secs

     Self-consistent Calculation
[tb_dev] Currently allocated     3.66E-04 Mbytes, locked:    0 /   1
[tb_pin] Currently allocated     0.00E+00 Mbytes, locked:    0 /   0

     iteration #  1     ecut=    80.00 Ry     beta= 0.30
     Davidson diagonalization with overlap

---- Real-time Memory Report at c_bands before calling an iterative solver
         57245 MiB given to the printing process from OS
             0 MiB allocation reported by mallinfo(arena+hblkhd)
        254901 MiB available memory on the node where the printing process lives
     GPU memory used/free/total (MiB): 90306 / 5004 / 95311
------------------
     ethr =  4.96E-13,  avg # of iterations =  9.3

     total cpu time spent up to now is     1763.3 secs

     total energy              =   -4057.48873440 Ry
     estimated scf accuracy    <       0.00000053 Ry
[tb_dev] Currently allocated     3.66E-04 Mbytes, locked:    0 /   1
[tb_pin] Currently allocated     0.00E+00 Mbytes, locked:    0 /   0

     iteration #  2     ecut=    80.00 Ry     beta= 0.30
     Davidson diagonalization with overlap

---- Real-time Memory Report at c_bands before calling an iterative solver
         57245 MiB given to the printing process from OS
             0 MiB allocation reported by mallinfo(arena+hblkhd)
        254254 MiB available memory on the node where the printing process lives
     GPU memory used/free/total (MiB): 90306 / 5004 / 95311
------------------
     ethr =  8.42E-11,  avg # of iterations =  1.0

     total cpu time spent up to now is     1772.1 secs

     total energy              =   -4057.48873431 Ry
     estimated scf accuracy    <       0.00000023 Ry
[tb_dev] Currently allocated     3.66E-04 Mbytes, locked:    0 /   1
[tb_pin] Currently allocated     0.00E+00 Mbytes, locked:    0 /   0

     iteration #  3     ecut=    80.00 Ry     beta= 0.30
     Davidson diagonalization with overlap

---- Real-time Memory Report at c_bands before calling an iterative solver
         57245 MiB given to the printing process from OS
             0 MiB allocation reported by mallinfo(arena+hblkhd)
        254083 MiB available memory on the node where the printing process lives
     GPU memory used/free/total (MiB): 90306 / 5004 / 95311
------------------
     ethr =  3.75E-11,  avg # of iterations =  2.0

     total cpu time spent up to now is     1782.5 secs

     total energy              =   -4057.48873433 Ry
     estimated scf accuracy    <       0.00000002 Ry
[tb_dev] Currently allocated     3.66E-04 Mbytes, locked:    0 /   1
[tb_pin] Currently allocated     0.00E+00 Mbytes, locked:    0 /   0

     iteration #  4     ecut=    80.00 Ry     beta= 0.30
     Davidson diagonalization with overlap

---- Real-time Memory Report at c_bands before calling an iterative solver
         57245 MiB given to the printing process from OS
             0 MiB allocation reported by mallinfo(arena+hblkhd)
        253868 MiB available memory on the node where the printing process lives
     GPU memory used/free/total (MiB): 90306 / 5004 / 95311
------------------
     ethr =  3.22E-12,  avg # of iterations =  2.0

     total cpu time spent up to now is     1792.9 secs

     total energy              =   -4057.48873434 Ry
     estimated scf accuracy    <          5.7E-09 Ry
[tb_dev] Currently allocated     3.66E-04 Mbytes, locked:    0 /   1
[tb_pin] Currently allocated     0.00E+00 Mbytes, locked:    0 /   0

     iteration #  5     ecut=    80.00 Ry     beta= 0.30
     Davidson diagonalization with overlap

---- Real-time Memory Report at c_bands before calling an iterative solver
         57245 MiB given to the printing process from OS
             0 MiB allocation reported by mallinfo(arena+hblkhd)
        254068 MiB available memory on the node where the printing process lives
     GPU memory used/free/total (MiB): 90306 / 5004 / 95311
------------------
     ethr =  9.15E-13,  avg # of iterations =  2.0

     total cpu time spent up to now is     1802.7 secs

     End of self-consistent calculation

          k = 0.0000 0.0000 0.0000 (303775 PWs)   bands (ev):

   -23.1443 -23.1325 -23.0067 -23.0042 -22.9769 -22.9756 -22.9183 -22.9181
   -22.7762 -22.7756 -22.6985 -22.6981 -22.6721 -22.6717 -22.6450 -22.6438
   -22.6289 -22.6282 -22.5827 -22.5823 -22.5379 -22.5370 -22.5334 -22.5333
   -21.9542 -21.7339 -21.6488 -21.6471 -21.6431 -21.5875 -21.5610 -21.4805
   -21.4285 -21.4124 -21.4067 -21.3270 -21.3245 -21.2864 -21.2757 -21.2722
   -21.2318 -21.2275 -21.1939 -21.1671 -21.1139 -21.1135 -21.0920 -21.0481
   -15.6547 -15.6337 -15.6334 -15.6249 -15.6132 -15.6093 -15.6056 -15.5992
   -15.5944 -15.5893 -15.5848 -15.5676 -15.5595 -15.5566 -15.5547 -15.5415
   -15.5400 -15.5230 -15.5214 -15.5146 -15.5104 -15.4989 -15.4869 -15.4868
   -15.4857 -15.4811 -15.4793 -15.4726 -15.4636 -15.4517 -15.4475 -15.4458
   -15.4418 -15.4384 -15.4362 -15.4358 -15.4258 -15.4233 -15.4195 -15.4063
   -15.3818 -15.3815 -15.3789 -15.3663 -15.3646 -15.3630 -15.3573 -15.3572
   -15.3505 -15.3496 -15.3458 -15.3450 -15.3301 -15.3250 -15.3162 -15.3150
   -15.3080 -15.3004 -15.2967 -15.2884 -15.2804 -15.2796 -15.2789 -15.2787
   -15.2759 -15.2748 -15.2741 -15.2590 -15.2567 -15.2551 -15.2507 -15.2459
   -15.2370 -15.2348 -15.2311 -15.2303 -15.2294 -15.2275 -15.2146 -15.2036
   -15.1988 -15.1885 -15.1859 -15.1840 -15.1837 -15.1794 -15.1696 -15.1678
   -15.1674 -15.1605 -15.1596 -15.1454 -15.1444 -15.1399 -15.1370 -15.1317
   -15.1273 -15.1257 -15.1120 -15.1117 -15.1090 -15.0952 -15.0824 -15.0655
   -14.9723 -14.9520 -14.9321 -14.8840 -14.8487 -14.8486 -14.7867 -14.7867
   -14.7477 -14.6601 -14.6301 -14.6110 -14.5753 -14.5047 -14.4879 -14.4456
    -9.4014  -9.3852  -9.2641  -9.2410  -9.2291  -9.2052  -9.1953  -9.1240
    -9.1026  -9.0383  -9.0334  -8.9796  -8.9778  -8.9719  -8.9277  -8.8058
    -8.7982  -8.5054  -8.4811  -8.4174  -8.2876  -8.2426  -8.2257  -8.1303
    -8.1264  -8.1079  -8.0517  -7.9464  -7.8964  -7.8662  -7.8325  -7.7940
    -7.5930  -7.5870  -7.5259  -7.3824  -7.3343  -7.3020  -7.2605  -7.1632
    -7.1211  -7.0410  -6.9922  -6.9011  -6.8858  -6.7595  -6.6850  -6.6669
    -6.6072  -6.5475  -6.4763  -6.4593  -6.3343  -6.2410  -6.1945  -6.1932
    -6.1791  -6.0819  -6.0793  -6.0127  -6.0010  -5.9812  -5.9590  -5.8862
    -5.7658  -5.7072  -5.6419  -5.5118  -5.4603  -5.4094  -5.3965  -5.3775
    -5.3579  -5.3344  -5.3244  -5.2490  -5.2474  -5.1914  -5.1771  -5.1337
    -5.1296  -5.0826  -5.0752  -5.0623  -5.0622  -5.0005  -4.9798  -4.9689
    -4.9596  -4.9190  -4.8849  -4.8421  -4.7655  -4.7392  -4.7082  -4.6724
    -4.6178  -4.5232  -4.4933  -4.4644  -4.4505  -4.4041  -4.3850  -4.3728
    -4.3535  -4.3476  -4.3443  -4.2622  -4.1346  -4.1284  -4.1220  -4.1103
    -4.0992  -3.9907  -3.8864  -3.7935  -3.7755  -3.7487  -3.7476  -3.7389
    -3.6907  -3.6678  -3.6614  -3.6596  -3.6273  -3.6023  -3.6001  -3.5963
    -3.5955  -3.5229  -3.4695  -3.4626  -3.4472  -3.4146  -3.3932  -3.3926
    -3.3894  -3.3783  -3.3755  -3.2928  -3.2892  -3.2887  -3.2415  -3.1765
    -0.1292   1.4759   2.4694   2.4723   2.4910   2.5270   2.6766   3.1849
     3.2763   3.3164   3.4057   3.4912   3.5456   3.5698   3.6635   3.6778

     occupation numbers 
     1.0000   1.0000   1.0000   1.0000   1.0000   1.0000   1.0000   1.0000
     1.0000   1.0000   1.0000   1.0000   1.0000   1.0000   1.0000   1.0000
     1.0000   1.0000   1.0000   1.0000   1.0000   1.0000   1.0000   1.0000
     1.0000   1.0000   1.0000   1.0000   1.0000   1.0000   1.0000   1.0000
     1.0000   1.0000   1.0000   1.0000   1.0000   1.0000   1.0000   1.0000
     1.0000   1.0000   1.0000   1.0000   1.0000   1.0000   1.0000   1.0000
     1.0000   1.0000   1.0000   1.0000   1.0000   1.0000   1.0000   1.0000
     1.0000   1.0000   1.0000   1.0000   1.0000   1.0000   1.0000   1.0000
     1.0000   1.0000   1.0000   1.0000   1.0000   1.0000   1.0000   1.0000
     1.0000   1.0000   1.0000   1.0000   1.0000   1.0000   1.0000   1.0000
     1.0000   1.0000   1.0000   1.0000   1.0000   1.0000   1.0000   1.0000
     1.0000   1.0000   1.0000   1.0000   1.0000   1.0000   1.0000   1.0000
     1.0000   1.0000   1.0000   1.0000   1.0000   1.0000   1.0000   1.0000
     1.0000   1.0000   1.0000   1.0000   1.0000   1.0000   1.0000   1.0000
     1.0000   1.0000   1.0000   1.0000   1.0000   1.0000   1.0000   1.0000
     1.0000   1.0000   1.0000   1.0000   1.0000   1.0000   1.0000   1.0000
     1.0000   1.0000   1.0000   1.0000   1.0000   1.0000   1.0000   1.0000
     1.0000   1.0000   1.0000   1.0000   1.0000   1.0000   1.0000   1.0000
     1.0000   1.0000   1.0000   1.0000   1.0000   1.0000   1.0000   1.0000
     1.0000   1.0000   1.0000   1.0000   1.0000   1.0000   1.0000   1.0000
     1.0000   1.0000   1.0000   1.0000   1.0000   1.0000   1.0000   1.0000
     1.0000   1.0000   1.0000   1.0000   1.0000   1.0000   1.0000   1.0000
     1.0000   1.0000   1.0000   1.0000   1.0000   1.0000   1.0000   1.0000
     1.0000   1.0000   1.0000   1.0000   1.0000   1.0000   1.0000   1.0000
     1.0000   1.0000   1.0000   1.0000   1.0000   1.0000   1.0000   1.0000
     1.0000   1.0000   1.0000   1.0000   1.0000   1.0000   1.0000   1.0000
     1.0000   1.0000   1.0000   1.0000   1.0000   1.0000   1.0000   1.0000
     1.0000   1.0000   1.0000   1.0000   1.0000   1.0000   1.0000   1.0000
     1.0000   1.0000   1.0000   1.0000   1.0000   1.0000   1.0000   1.0000
     1.0000   1.0000   1.0000   1.0000   1.0000   1.0000   1.0000   1.0000
     1.0000   1.0000   1.0000   1.0000   1.0000   1.0000   1.0000   1.0000
     1.0000   1.0000   1.0000   1.0000   1.0000   1.0000   1.0000   1.0000
     1.0000   1.0000   1.0000   1.0000   1.0000   1.0000   1.0000   1.0000
     1.0000   1.0000   1.0000   1.0000   1.0000   1.0000   1.0000   1.0000
     1.0000   1.0000   1.0000   1.0000   1.0000   1.0000   1.0000   1.0000
     1.0000   1.0000   1.0000   1.0000   1.0000   1.0000   1.0000   1.0000
     1.0000   1.0000   1.0000   1.0000   1.0000   1.0000   1.0000   1.0000
     1.0000   1.0000   1.0000   1.0000   1.0000   1.0000   1.0000   1.0000
     1.0000   1.0000   1.0000   1.0000   1.0000   1.0000   1.0000   1.0000
     0.0000   0.0000   0.0000   0.0000   0.0000   0.0000   0.0000   0.0000
     0.0000   0.0000   0.0000   0.0000   0.0000   0.0000   0.0000   0.0000

          k = 0.0000 0.3334 0.0000 (303760 PWs)   bands (ev):

   -23.1127 -23.1032 -23.0343 -23.0298 -22.9881 -22.9863 -22.9445 -22.9440
   -22.7352 -22.7349 -22.6909 -22.6908 -22.6771 -22.6762 -22.6371 -22.6359
   -22.6264 -22.6254 -22.5975 -22.5973 -22.5419 -22.5409 -22.5387 -22.5384
   -21.9187 -21.8260 -21.6414 -21.6356 -21.6230 -21.5830 -21.4868 -21.4707
   -21.4493 -21.3927 -21.3922 -21.3685 -21.3133 -21.2862 -21.2807 -21.2799
   -21.2293 -21.2271 -21.1952 -21.1944 -21.1050 -21.0944 -21.0789 -21.0533
   -15.6440 -15.6209 -15.6181 -15.6086 -15.6074 -15.6067 -15.6065 -15.5873
   -15.5858 -15.5849 -15.5812 -15.5782 -15.5698 -15.5595 -15.5460 -15.5391
   -15.5361 -15.5267 -15.5233 -15.5175 -15.5121 -15.5046 -15.5016 -15.4932
   -15.4889 -15.4829 -15.4767 -15.4753 -15.4731 -15.4596 -15.4570 -15.4530
   -15.4457 -15.4400 -15.4400 -15.4355 -15.4284 -15.4255 -15.4168 -15.4131
   -15.3955 -15.3949 -15.3899 -15.3856 -15.3846 -15.3813 -15.3799 -15.3765
   -15.3696 -15.3534 -15.3492 -15.3476 -15.3462 -15.3270 -15.3226 -15.3131
   -15.3066 -15.3027 -15.2991 -15.2898 -15.2835 -15.2804 -15.2721 -15.2684
   -15.2613 -15.2605 -15.2567 -15.2518 -15.2512 -15.2463 -15.2408 -15.2375
   -15.2290 -15.2242 -15.2178 -15.2165 -15.2089 -15.2071 -15.2049 -15.1957
   -15.1936 -15.1927 -15.1883 -15.1855 -15.1824 -15.1816 -15.1724 -15.1707
   -15.1627 -15.1588 -15.1562 -15.1538 -15.1422 -15.1379 -15.1378 -15.1341
   -15.1307 -15.1264 -15.1216 -15.1138 -15.1048 -15.0822 -15.0706 -15.0442
   -15.0265 -14.9330 -14.9108 -14.9099 -14.8263 -14.8145 -14.7905 -14.7774
   -14.7382 -14.6856 -14.6849 -14.6673 -14.5106 -14.5010 -14.4928 -14.4615
    -9.3853  -9.3509  -9.3306  -9.2649  -9.2364  -9.2328  -9.2129  -9.1852
    -9.1011  -9.0570  -9.0149  -9.0025  -8.8946  -8.8813  -8.8356  -8.7960
    -8.6747  -8.4631  -8.4566  -8.4293  -8.3587  -8.3432  -8.3222  -8.1880
    -8.1394  -8.0828  -7.9829  -7.9724  -7.9019  -7.8886  -7.8589  -7.7931
    -7.7232  -7.6922  -7.5454  -7.3396  -7.3272  -7.2444  -7.2205  -7.1901
    -7.1465  -7.1183  -7.0697  -6.9105  -6.7385  -6.6890  -6.6274  -6.5487
    -6.4863  -6.4630  -6.4336  -6.3721  -6.3320  -6.2870  -6.2609  -6.1913
    -6.0676  -6.0542  -6.0200  -6.0126  -5.9189  -5.9132  -5.8242  -5.7889
    -5.7784  -5.7258  -5.7254  -5.7226  -5.6817  -5.6514  -5.6049  -5.4752
    -5.4042  -5.3608  -5.3243  -5.3056  -5.2763  -5.2668  -5.1866  -5.1514
    -5.0983  -5.0612  -5.0569  -5.0019  -4.9808  -4.9582  -4.9516  -4.8901
    -4.8883  -4.8765  -4.8096  -4.7941  -4.7126  -4.7013  -4.6003  -4.5955
    -4.5864  -4.5779  -4.5392  -4.5303  -4.4821  -4.4006  -4.3893  -4.3470
    -4.2906  -4.2572  -4.2121  -4.1843  -4.1402  -4.1236  -4.1097  -4.0924
    -4.0346  -3.9825  -3.9571  -3.9353  -3.9142  -3.8755  -3.7729  -3.7494
    -3.7430  -3.6873  -3.6774  -3.6326  -3.6306  -3.6031  -3.5658  -3.5548
    -3.5540  -3.5374  -3.4967  -3.4746  -3.4458  -3.4424  -3.4300  -3.4257
    -3.4086  -3.3907  -3.3389  -3.3322  -3.2552  -3.2534  -3.2225  -3.2006
     0.3393   1.3559   1.7567   2.4373   2.6783   2.6843   2.8738   3.1095
     3.1606   3.3462   3.4157   3.4249   3.4855   3.5961   3.6971   3.7021

     occupation numbers 
     1.0000   1.0000   1.0000   1.0000   1.0000   1.0000   1.0000   1.0000
     1.0000   1.0000   1.0000   1.0000   1.0000   1.0000   1.0000   1.0000
     1.0000   1.0000   1.0000   1.0000   1.0000   1.0000   1.0000   1.0000
     1.0000   1.0000   1.0000   1.0000   1.0000   1.0000   1.0000   1.0000
     1.0000   1.0000   1.0000   1.0000   1.0000   1.0000   1.0000   1.0000
     1.0000   1.0000   1.0000   1.0000   1.0000   1.0000   1.0000   1.0000
     1.0000   1.0000   1.0000   1.0000   1.0000   1.0000   1.0000   1.0000
     1.0000   1.0000   1.0000   1.0000   1.0000   1.0000   1.0000   1.0000
     1.0000   1.0000   1.0000   1.0000   1.0000   1.0000   1.0000   1.0000
     1.0000   1.0000   1.0000   1.0000   1.0000   1.0000   1.0000   1.0000
     1.0000   1.0000   1.0000   1.0000   1.0000   1.0000   1.0000   1.0000
     1.0000   1.0000   1.0000   1.0000   1.0000   1.0000   1.0000   1.0000
     1.0000   1.0000   1.0000   1.0000   1.0000   1.0000   1.0000   1.0000
     1.0000   1.0000   1.0000   1.0000   1.0000   1.0000   1.0000   1.0000
     1.0000   1.0000   1.0000   1.0000   1.0000   1.0000   1.0000   1.0000
     1.0000   1.0000   1.0000   1.0000   1.0000   1.0000   1.0000   1.0000
     1.0000   1.0000   1.0000   1.0000   1.0000   1.0000   1.0000   1.0000
     1.0000   1.0000   1.0000   1.0000   1.0000   1.0000   1.0000   1.0000
     1.0000   1.0000   1.0000   1.0000   1.0000   1.0000   1.0000   1.0000
     1.0000   1.0000   1.0000   1.0000   1.0000   1.0000   1.0000   1.0000
     1.0000   1.0000   1.0000   1.0000   1.0000   1.0000   1.0000   1.0000
     1.0000   1.0000   1.0000   1.0000   1.0000   1.0000   1.0000   1.0000
     1.0000   1.0000   1.0000   1.0000   1.0000   1.0000   1.0000   1.0000
     1.0000   1.0000   1.0000   1.0000   1.0000   1.0000   1.0000   1.0000
     1.0000   1.0000   1.0000   1.0000   1.0000   1.0000   1.0000   1.0000
     1.0000   1.0000   1.0000   1.0000   1.0000   1.0000   1.0000   1.0000
     1.0000   1.0000   1.0000   1.0000   1.0000   1.0000   1.0000   1.0000
     1.0000   1.0000   1.0000   1.0000   1.0000   1.0000   1.0000   1.0000
     1.0000   1.0000   1.0000   1.0000   1.0000   1.0000   1.0000   1.0000
     1.0000   1.0000   1.0000   1.0000   1.0000   1.0000   1.0000   1.0000
     1.0000   1.0000   1.0000   1.0000   1.0000   1.0000   1.0000   1.0000
     1.0000   1.0000   1.0000   1.0000   1.0000   1.0000   1.0000   1.0000
     1.0000   1.0000   1.0000   1.0000   1.0000   1.0000   1.0000   1.0000
     1.0000   1.0000   1.0000   1.0000   1.0000   1.0000   1.0000   1.0000
     1.0000   1.0000   1.0000   1.0000   1.0000   1.0000   1.0000   1.0000
     1.0000   1.0000   1.0000   1.0000   1.0000   1.0000   1.0000   1.0000
     1.0000   1.0000   1.0000   1.0000   1.0000   1.0000   1.0000   1.0000
     1.0000   1.0000   1.0000   1.0000   1.0000   1.0000   1.0000   1.0000
     1.0000   1.0000   1.0000   1.0000   1.0000   1.0000   1.0000   1.0000
     0.0000   0.0000   0.0000   0.0000   0.0000   0.0000   0.0000   0.0000
     0.0000   0.0000   0.0000   0.0000   0.0000   0.0000   0.0000   0.0000

          k = 0.3333 0.0000 0.0000 (303760 PWs)   bands (ev):

   -23.1165 -23.1068 -23.0504 -23.0453 -22.9630 -22.9621 -22.9330 -22.9328
   -22.7550 -22.7542 -22.7190 -22.7184 -22.6506 -22.6503 -22.6276 -22.6272
   -22.6241 -22.6233 -22.6005 -22.6001 -22.5402 -22.5401 -22.5388 -22.5383
   -21.9135 -21.8033 -21.7146 -21.6740 -21.5805 -21.5646 -21.4884 -21.4541
   -21.4352 -21.4152 -21.3969 -21.3184 -21.3040 -21.3012 -21.2736 -21.2652
   -21.2520 -21.2316 -21.2263 -21.1914 -21.1060 -21.1047 -21.0680 -21.0488
   -15.6436 -15.6323 -15.6223 -15.6127 -15.6059 -15.6004 -15.5999 -15.5971
   -15.5783 -15.5765 -15.5700 -15.5674 -15.5669 -15.5667 -15.5637 -15.5459
   -15.5443 -15.5390 -15.5306 -15.5189 -15.5138 -15.5111 -15.5031 -15.4976
   -15.4967 -15.4905 -15.4693 -15.4660 -15.4624 -15.4523 -15.4476 -15.4464
   -15.4446 -15.4436 -15.4364 -15.4346 -15.4229 -15.4203 -15.4191 -15.4129
   -15.4074 -15.4026 -15.3890 -15.3847 -15.3713 -15.3681 -15.3663 -15.3635
   -15.3567 -15.3548 -15.3512 -15.3509 -15.3270 -15.3241 -15.3232 -15.3169
   -15.3117 -15.2956 -15.2917 -15.2872 -15.2787 -15.2782 -15.2771 -15.2737
   -15.2677 -15.2675 -15.2673 -15.2668 -15.2529 -15.2516 -15.2418 -15.2403
   -15.2369 -15.2353 -15.2228 -15.2129 -15.2095 -15.2033 -15.2001 -15.1901
   -15.1879 -15.1876 -15.1861 -15.1844 -15.1775 -15.1753 -15.1730 -15.1703
   -15.1677 -15.1621 -15.1617 -15.1505 -15.1470 -15.1433 -15.1404 -15.1343
   -15.1263 -15.1180 -15.1178 -15.1094 -15.0862 -15.0801 -15.0794 -15.0559
   -15.0381 -14.9885 -14.9536 -14.9158 -14.8191 -14.8003 -14.7994 -14.7460
   -14.7114 -14.7095 -14.6332 -14.6206 -14.5432 -14.5076 -14.4962 -14.4817
    -9.3674  -9.3571  -9.2904  -9.2828  -9.2386  -9.2303  -9.1936  -9.1700
    -9.1113  -9.0916  -9.0236  -8.9939  -8.8953  -8.8934  -8.8890  -8.8060
    -8.6452  -8.5147  -8.4550  -8.3391  -8.3363  -8.3249  -8.2577  -8.1814
    -8.1469  -8.1313  -8.1252  -8.0121  -7.9118  -7.8224  -7.7538  -7.6999
    -7.6446  -7.5660  -7.5446  -7.4859  -7.4748  -7.4256  -7.3821  -7.3467
    -7.0647  -7.0292  -6.9281  -6.8700  -6.7218  -6.6544  -6.6447  -6.5779
    -6.5104  -6.4345  -6.3985  -6.3843  -6.2994  -6.2669  -6.2086  -6.1746
    -6.1402  -6.0877  -6.0347  -6.0281  -6.0267  -6.0215  -5.9290  -5.7665
    -5.7474  -5.7080  -5.6806  -5.5886  -5.5493  -5.5160  -5.4900  -5.3794
    -5.3686  -5.3423  -5.3189  -5.2701  -5.2528  -5.2478  -5.1975  -5.1772
    -5.1550  -5.1293  -5.1129  -5.0894  -4.9273  -4.9264  -4.9196  -4.8580
    -4.8567  -4.8534  -4.8294  -4.8228  -4.8016  -4.7551  -4.6586  -4.6530
    -4.6235  -4.6065  -4.5481  -4.4493  -4.4337  -4.4251  -4.4184  -4.3699
    -4.3219  -4.2992  -4.2767  -4.2420  -4.1916  -4.1744  -4.0817  -4.0583
    -3.9998  -3.9812  -3.9516  -3.9010  -3.8694  -3.8429  -3.7426  -3.7421
    -3.7409  -3.7041  -3.6728  -3.6671  -3.6271  -3.5953  -3.5902  -3.5855
    -3.5502  -3.5109  -3.4907  -3.4747  -3.4555  -3.4504  -3.4406  -3.3979
    -3.3820  -3.3746  -3.3365  -3.3248  -3.3033  -3.2218  -3.2058  -3.1913
     0.3377   1.3477   1.7570   2.4426   2.6705   2.7553   2.8533   3.1730
     3.1908   3.2850   3.3092   3.4211   3.4695   3.6118   3.6966   3.7029

     occupation numbers 
     1.0000   1.0000   1.0000   1.0000   1.0000   1.0000   1.0000   1.0000
     1.0000   1.0000   1.0000   1.0000   1.0000   1.0000   1.0000   1.0000
     1.0000   1.0000   1.0000   1.0000   1.0000   1.0000   1.0000   1.0000
     1.0000   1.0000   1.0000   1.0000   1.0000   1.0000   1.0000   1.0000
     1.0000   1.0000   1.0000   1.0000   1.0000   1.0000   1.0000   1.0000
     1.0000   1.0000   1.0000   1.0000   1.0000   1.0000   1.0000   1.0000
     1.0000   1.0000   1.0000   1.0000   1.0000   1.0000   1.0000   1.0000
     1.0000   1.0000   1.0000   1.0000   1.0000   1.0000   1.0000   1.0000
     1.0000   1.0000   1.0000   1.0000   1.0000   1.0000   1.0000   1.0000
     1.0000   1.0000   1.0000   1.0000   1.0000   1.0000   1.0000   1.0000
     1.0000   1.0000   1.0000   1.0000   1.0000   1.0000   1.0000   1.0000
     1.0000   1.0000   1.0000   1.0000   1.0000   1.0000   1.0000   1.0000
     1.0000   1.0000   1.0000   1.0000   1.0000   1.0000   1.0000   1.0000
     1.0000   1.0000   1.0000   1.0000   1.0000   1.0000   1.0000   1.0000
     1.0000   1.0000   1.0000   1.0000   1.0000   1.0000   1.0000   1.0000
     1.0000   1.0000   1.0000   1.0000   1.0000   1.0000   1.0000   1.0000
     1.0000   1.0000   1.0000   1.0000   1.0000   1.0000   1.0000   1.0000
     1.0000   1.0000   1.0000   1.0000   1.0000   1.0000   1.0000   1.0000
     1.0000   1.0000   1.0000   1.0000   1.0000   1.0000   1.0000   1.0000
     1.0000   1.0000   1.0000   1.0000   1.0000   1.0000   1.0000   1.0000
     1.0000   1.0000   1.0000   1.0000   1.0000   1.0000   1.0000   1.0000
     1.0000   1.0000   1.0000   1.0000   1.0000   1.0000   1.0000   1.0000
     1.0000   1.0000   1.0000   1.0000   1.0000   1.0000   1.0000   1.0000
     1.0000   1.0000   1.0000   1.0000   1.0000   1.0000   1.0000   1.0000
     1.0000   1.0000   1.0000   1.0000   1.0000   1.0000   1.0000   1.0000
     1.0000   1.0000   1.0000   1.0000   1.0000   1.0000   1.0000   1.0000
     1.0000   1.0000   1.0000   1.0000   1.0000   1.0000   1.0000   1.0000
     1.0000   1.0000   1.0000   1.0000   1.0000   1.0000   1.0000   1.0000
     1.0000   1.0000   1.0000   1.0000   1.0000   1.0000   1.0000   1.0000
     1.0000   1.0000   1.0000   1.0000   1.0000   1.0000   1.0000   1.0000
     1.0000   1.0000   1.0000   1.0000   1.0000   1.0000   1.0000   1.0000
     1.0000   1.0000   1.0000   1.0000   1.0000   1.0000   1.0000   1.0000
     1.0000   1.0000   1.0000   1.0000   1.0000   1.0000   1.0000   1.0000
     1.0000   1.0000   1.0000   1.0000   1.0000   1.0000   1.0000   1.0000
     1.0000   1.0000   1.0000   1.0000   1.0000   1.0000   1.0000   1.0000
     1.0000   1.0000   1.0000   1.0000   1.0000   1.0000   1.0000   1.0000
     1.0000   1.0000   1.0000   1.0000   1.0000   1.0000   1.0000   1.0000
     1.0000   1.0000   1.0000   1.0000   1.0000   1.0000   1.0000   1.0000
     1.0000   1.0000   1.0000   1.0000   1.0000   1.0000   1.0000   1.0000
     0.0000   0.0000   0.0000   0.0000   0.0000   0.0000   0.0000   0.0000
     0.0000   0.0000   0.0000   0.0000   0.0000   0.0000   0.0000   0.0000

          k = 0.3333 0.3334 0.0000 (303835 PWs)   bands (ev):

   -23.0871 -23.0794 -23.0270 -23.0231 -23.0146 -23.0112 -22.9704 -22.9689
   -22.7130 -22.7129 -22.6850 -22.6845 -22.6630 -22.6626 -22.6355 -22.6350
   -22.6252 -22.6247 -22.6164 -22.6164 -22.5431 -22.5427 -22.5407 -22.5406
   -21.8807 -21.7954 -21.7775 -21.7167 -21.5305 -21.5049 -21.4975 -21.4550
   -21.4272 -21.3924 -21.3820 -21.3482 -21.3093 -21.3017 -21.2800 -21.2747
   -21.2510 -21.2402 -21.2210 -21.2106 -21.0921 -21.0797 -21.0739 -21.0554
   -15.6410 -15.6293 -15.6280 -15.6236 -15.6126 -15.6107 -15.6042 -15.5893
   -15.5844 -15.5843 -15.5809 -15.5759 -15.5667 -15.5643 -15.5540 -15.5443
   -15.5375 -15.5313 -15.5275 -15.5232 -15.5120 -15.5037 -15.4961 -15.4872
   -15.4815 -15.4791 -15.4690 -15.4686 -15.4639 -15.4607 -15.4474 -15.4460
   -15.4437 -15.4400 -15.4352 -15.4306 -15.4206 -15.4159 -15.4153 -15.4081
   -15.4055 -15.4035 -15.4014 -15.3946 -15.3862 -15.3837 -15.3794 -15.3792
   -15.3605 -15.3532 -15.3395 -15.3355 -15.3248 -15.3220 -15.3175 -15.3084
   -15.3067 -15.2992 -15.2918 -15.2898 -15.2842 -15.2783 -15.2748 -15.2685
   -15.2652 -15.2643 -15.2617 -15.2554 -15.2541 -15.2458 -15.2449 -15.2351
   -15.2290 -15.2272 -15.2262 -15.2232 -15.2180 -15.2076 -15.2060 -15.2026
   -15.1969 -15.1893 -15.1832 -15.1831 -15.1756 -15.1746 -15.1713 -15.1683
   -15.1649 -15.1639 -15.1556 -15.1552 -15.1481 -15.1478 -15.1430 -15.1401
   -15.1292 -15.1184 -15.1155 -15.1146 -15.0889 -15.0844 -15.0600 -15.0370
   -15.0300 -14.9866 -14.9671 -14.9397 -14.8415 -14.8360 -14.7864 -14.7730
   -14.6663 -14.6652 -14.6188 -14.5889 -14.5568 -14.5264 -14.5122 -14.5014
    -9.3596  -9.3368  -9.3241  -9.2980  -9.2530  -9.2378  -9.2353  -9.2095
    -9.0834  -9.0445  -9.0366  -9.0141  -8.8509  -8.8465  -8.8272  -8.7969
    -8.5542  -8.4647  -8.4553  -8.4297  -8.2916  -8.2800  -8.2396  -8.2326
    -8.1632  -8.1235  -8.1055  -8.0228  -7.9347  -7.9156  -7.7551  -7.7334
    -7.7220  -7.6977  -7.5945  -7.5677  -7.5328  -7.4460  -7.4285  -7.3958
    -7.0077  -6.9601  -6.8806  -6.8777  -6.6344  -6.5640  -6.5527  -6.4380
    -6.3913  -6.3858  -6.3616  -6.3508  -6.3392  -6.2839  -6.1969  -6.1477
    -6.0864  -6.0596  -6.0223  -5.9944  -5.9752  -5.9424  -5.9220  -5.8191
    -5.7670  -5.7221  -5.6882  -5.6871  -5.6090  -5.6070  -5.5635  -5.4680
    -5.3964  -5.3764  -5.3547  -5.3508  -5.3015  -5.2305  -5.1745  -5.1445
    -5.1232  -5.0962  -5.0623  -5.0298  -4.9963  -4.9864  -4.9703  -4.9285
    -4.9126  -4.8132  -4.7824  -4.7281  -4.6668  -4.6578  -4.6459  -4.6044
    -4.5555  -4.5084  -4.4926  -4.4914  -4.4581  -4.4293  -4.4170  -4.3671
    -4.3256  -4.3007  -4.2563  -4.2502  -4.2194  -4.1545  -4.1366  -4.1202
    -4.0872  -3.9854  -3.9699  -3.9512  -3.8842  -3.8582  -3.8084  -3.7840
    -3.7724  -3.7503  -3.7285  -3.7026  -3.6231  -3.6152  -3.6101  -3.5633
    -3.5428  -3.5181  -3.4788  -3.4769  -3.4602  -3.4337  -3.4223  -3.3967
    -3.3882  -3.3241  -3.3225  -3.3122  -3.2424  -3.2161  -3.1833  -3.1767
     0.7357   1.6375   1.6439   2.0083   2.3410   2.6302   2.6462   2.9833
     3.1600   3.4896   3.4919   3.5618   3.6543   3.6892   3.8205   3.8585

     occupation numbers 
     1.0000   1.0000   1.0000   1.0000   1.0000   1.0000   1.0000   1.0000
     1.0000   1.0000   1.0000   1.0000   1.0000   1.0000   1.0000   1.0000
     1.0000   1.0000   1.0000   1.0000   1.0000   1.0000   1.0000   1.0000
     1.0000   1.0000   1.0000   1.0000   1.0000   1.0000   1.0000   1.0000
     1.0000   1.0000   1.0000   1.0000   1.0000   1.0000   1.0000   1.0000
     1.0000   1.0000   1.0000   1.0000   1.0000   1.0000   1.0000   1.0000
     1.0000   1.0000   1.0000   1.0000   1.0000   1.0000   1.0000   1.0000
     1.0000   1.0000   1.0000   1.0000   1.0000   1.0000   1.0000   1.0000
     1.0000   1.0000   1.0000   1.0000   1.0000   1.0000   1.0000   1.0000
     1.0000   1.0000   1.0000   1.0000   1.0000   1.0000   1.0000   1.0000
     1.0000   1.0000   1.0000   1.0000   1.0000   1.0000   1.0000   1.0000
     1.0000   1.0000   1.0000   1.0000   1.0000   1.0000   1.0000   1.0000
     1.0000   1.0000   1.0000   1.0000   1.0000   1.0000   1.0000   1.0000
     1.0000   1.0000   1.0000   1.0000   1.0000   1.0000   1.0000   1.0000
     1.0000   1.0000   1.0000   1.0000   1.0000   1.0000   1.0000   1.0000
     1.0000   1.0000   1.0000   1.0000   1.0000   1.0000   1.0000   1.0000
     1.0000   1.0000   1.0000   1.0000   1.0000   1.0000   1.0000   1.0000
     1.0000   1.0000   1.0000   1.0000   1.0000   1.0000   1.0000   1.0000
     1.0000   1.0000   1.0000   1.0000   1.0000   1.0000   1.0000   1.0000
     1.0000   1.0000   1.0000   1.0000   1.0000   1.0000   1.0000   1.0000
     1.0000   1.0000   1.0000   1.0000   1.0000   1.0000   1.0000   1.0000
     1.0000   1.0000   1.0000   1.0000   1.0000   1.0000   1.0000   1.0000
     1.0000   1.0000   1.0000   1.0000   1.0000   1.0000   1.0000   1.0000
     1.0000   1.0000   1.0000   1.0000   1.0000   1.0000   1.0000   1.0000
     1.0000   1.0000   1.0000   1.0000   1.0000   1.0000   1.0000   1.0000
     1.0000   1.0000   1.0000   1.0000   1.0000   1.0000   1.0000   1.0000
     1.0000   1.0000   1.0000   1.0000   1.0000   1.0000   1.0000   1.0000
     1.0000   1.0000   1.0000   1.0000   1.0000   1.0000   1.0000   1.0000
     1.0000   1.0000   1.0000   1.0000   1.0000   1.0000   1.0000   1.0000
     1.0000   1.0000   1.0000   1.0000   1.0000   1.0000   1.0000   1.0000
     1.0000   1.0000   1.0000   1.0000   1.0000   1.0000   1.0000   1.0000
     1.0000   1.0000   1.0000   1.0000   1.0000   1.0000   1.0000   1.0000
     1.0000   1.0000   1.0000   1.0000   1.0000   1.0000   1.0000   1.0000
     1.0000   1.0000   1.0000   1.0000   1.0000   1.0000   1.0000   1.0000
     1.0000   1.0000   1.0000   1.0000   1.0000   1.0000   1.0000   1.0000
     1.0000   1.0000   1.0000   1.0000   1.0000   1.0000   1.0000   1.0000
     1.0000   1.0000   1.0000   1.0000   1.0000   1.0000   1.0000   1.0000
     1.0000   1.0000   1.0000   1.0000   1.0000   1.0000   1.0000   1.0000
     1.0000   1.0000   1.0000   1.0000   1.0000   1.0000   1.0000   1.0000
     0.0000   0.0000   0.0000   0.0000   0.0000   0.0000   0.0000   0.0000
     0.0000   0.0000   0.0000   0.0000   0.0000   0.0000   0.0000   0.0000

     highest occupied, lowest unoccupied level (ev):    -3.1765   -0.1292

!    total energy              =   -4057.48873434 Ry
     estimated scf accuracy    <          6.5E-10 Ry

     convergence has been achieved in   5 iterations

     Using ACE for calculation of exact exchange
     ACE projected onto   328 (nbndproj) and applied to   328 (nbnd) bands

     total energy              =   -4057.48873475 Ry
     Harris-Foulkes estimate   =   -4057.48873474 Ry
     est. exchange err (dexx)  =       0.00000041 Ry
     - averaged Fock potential =     252.29299085 Ry
     + Fock energy (ACE)       =    -126.14696008 Ry

     EXX: now go back to refine exchange calculation

     total cpu time spent up to now is     2008.1 secs

     Self-consistent Calculation
[tb_dev] Currently allocated     3.66E-04 Mbytes, locked:    0 /   1
[tb_pin] Currently allocated     0.00E+00 Mbytes, locked:    0 /   0

     iteration #  1     ecut=    80.00 Ry     beta= 0.30
     Davidson diagonalization with overlap

---- Real-time Memory Report at c_bands before calling an iterative solver
         57246 MiB given to the printing process from OS
             0 MiB allocation reported by mallinfo(arena+hblkhd)
        253420 MiB available memory on the node where the printing process lives
     GPU memory used/free/total (MiB): 90306 / 5004 / 95311
------------------
     ethr =  9.15E-13,  avg # of iterations =  7.0

     total cpu time spent up to now is     2025.0 secs

     total energy              =   -4057.48873484 Ry
     estimated scf accuracy    <       0.00000002 Ry
[tb_dev] Currently allocated     3.66E-04 Mbytes, locked:    0 /   1
[tb_pin] Currently allocated     0.00E+00 Mbytes, locked:    0 /   0

     iteration #  2     ecut=    80.00 Ry     beta= 0.30
     Davidson diagonalization with overlap

---- Real-time Memory Report at c_bands before calling an iterative solver
         57246 MiB given to the printing process from OS
             0 MiB allocation reported by mallinfo(arena+hblkhd)
        253365 MiB available memory on the node where the printing process lives
     GPU memory used/free/total (MiB): 90306 / 5004 / 95311
------------------
     ethr =  2.79E-12,  avg # of iterations =  1.0

     total cpu time spent up to now is     2033.7 secs

     total energy              =   -4057.48873484 Ry
     estimated scf accuracy    <          8.1E-09 Ry
[tb_dev] Currently allocated     3.66E-04 Mbytes, locked:    0 /   1
[tb_pin] Currently allocated     0.00E+00 Mbytes, locked:    0 /   0

     iteration #  3     ecut=    80.00 Ry     beta= 0.30
     Davidson diagonalization with overlap

---- Real-time Memory Report at c_bands before calling an iterative solver
         57246 MiB given to the printing process from OS
             0 MiB allocation reported by mallinfo(arena+hblkhd)
        253269 MiB available memory on the node where the printing process lives
     GPU memory used/free/total (MiB): 90306 / 5004 / 95311
------------------
     ethr =  1.30E-12,  avg # of iterations =  2.0

     total cpu time spent up to now is     2043.6 secs

     End of self-consistent calculation

          k = 0.0000 0.0000 0.0000 (303775 PWs)   bands (ev):

   -23.1442 -23.1325 -23.0066 -23.0041 -22.9769 -22.9755 -22.9183 -22.9180
   -22.7761 -22.7755 -22.6984 -22.6980 -22.6720 -22.6716 -22.6450 -22.6438
   -22.6289 -22.6281 -22.5827 -22.5822 -22.5379 -22.5369 -22.5333 -22.5333
   -21.9541 -21.7338 -21.6486 -21.6470 -21.6430 -21.5874 -21.5609 -21.4803
   -21.4284 -21.4123 -21.4065 -21.3268 -21.3243 -21.2863 -21.2756 -21.2720
   -21.2317 -21.2274 -21.1937 -21.1670 -21.1137 -21.1133 -21.0919 -21.0480
   -15.6547 -15.6337 -15.6334 -15.6250 -15.6132 -15.6093 -15.6056 -15.5992
   -15.5945 -15.5893 -15.5849 -15.5676 -15.5595 -15.5566 -15.5546 -15.5415
   -15.5400 -15.5230 -15.5214 -15.5146 -15.5104 -15.4990 -15.4870 -15.4868
   -15.4857 -15.4811 -15.4793 -15.4726 -15.4636 -15.4517 -15.4476 -15.4458
   -15.4418 -15.4385 -15.4362 -15.4358 -15.4259 -15.4233 -15.4195 -15.4063
   -15.3818 -15.3815 -15.3789 -15.3664 -15.3646 -15.3631 -15.3573 -15.3572
   -15.3505 -15.3496 -15.3458 -15.3450 -15.3301 -15.3251 -15.3162 -15.3150
   -15.3080 -15.3005 -15.2967 -15.2885 -15.2804 -15.2797 -15.2789 -15.2788
   -15.2760 -15.2748 -15.2741 -15.2590 -15.2567 -15.2552 -15.2508 -15.2459
   -15.2370 -15.2349 -15.2311 -15.2304 -15.2294 -15.2276 -15.2146 -15.2036
   -15.1988 -15.1886 -15.1860 -15.1840 -15.1838 -15.1794 -15.1697 -15.1678
   -15.1675 -15.1606 -15.1596 -15.1454 -15.1445 -15.1399 -15.1370 -15.1317
   -15.1273 -15.1257 -15.1120 -15.1117 -15.1090 -15.0952 -15.0825 -15.0656
   -14.9723 -14.9520 -14.9321 -14.8840 -14.8487 -14.8486 -14.7868 -14.7867
   -14.7478 -14.6601 -14.6301 -14.6110 -14.5753 -14.5047 -14.4879 -14.4456
    -9.4013  -9.3851  -9.2640  -9.2409  -9.2290  -9.2051  -9.1952  -9.1240
    -9.1026  -9.0382  -9.0334  -8.9796  -8.9777  -8.9719  -8.9276  -8.8057
    -8.7981  -8.5053  -8.4810  -8.4173  -8.2876  -8.2425  -8.2256  -8.1302
    -8.1263  -8.1078  -8.0516  -7.9463  -7.8963  -7.8662  -7.8324  -7.7939
    -7.5928  -7.5870  -7.5259  -7.3823  -7.3343  -7.3020  -7.2604  -7.1631
    -7.1210  -7.0409  -6.9922  -6.9010  -6.8858  -6.7594  -6.6850  -6.6669
    -6.6071  -6.5475  -6.4763  -6.4593  -6.3342  -6.2409  -6.1945  -6.1932
    -6.1790  -6.0819  -6.0792  -6.0126  -6.0010  -5.9811  -5.9590  -5.8861
    -5.7657  -5.7071  -5.6419  -5.5117  -5.4603  -5.4094  -5.3965  -5.3775
    -5.3579  -5.3344  -5.3243  -5.2490  -5.2474  -5.1914  -5.1770  -5.1337
    -5.1295  -5.0826  -5.0752  -5.0622  -5.0622  -5.0005  -4.9798  -4.9689
    -4.9596  -4.9190  -4.8849  -4.8420  -4.7655  -4.7392  -4.7082  -4.6724
    -4.6178  -4.5232  -4.4933  -4.4644  -4.4505  -4.4040  -4.3850  -4.3728
    -4.3536  -4.3476  -4.3443  -4.2622  -4.1346  -4.1283  -4.1219  -4.1103
    -4.0992  -3.9907  -3.8864  -3.7935  -3.7755  -3.7487  -3.7476  -3.7388
    -3.6907  -3.6678  -3.6613  -3.6596  -3.6273  -3.6022  -3.6001  -3.5963
    -3.5954  -3.5229  -3.4694  -3.4626  -3.4472  -3.4146  -3.3932  -3.3925
    -3.3893  -3.3783  -3.3754  -3.2927  -3.2891  -3.2887  -3.2415  -3.1764
    -0.1290   1.4760   2.4695   2.4724   2.4912   2.5272   2.6767   3.1850
     3.2769   3.3165   3.4058   3.4913   3.5460   3.5700   3.6635   3.6780

     occupation numbers 
     1.0000   1.0000   1.0000   1.0000   1.0000   1.0000   1.0000   1.0000
     1.0000   1.0000   1.0000   1.0000   1.0000   1.0000   1.0000   1.0000
     1.0000   1.0000   1.0000   1.0000   1.0000   1.0000   1.0000   1.0000
     1.0000   1.0000   1.0000   1.0000   1.0000   1.0000   1.0000   1.0000
     1.0000   1.0000   1.0000   1.0000   1.0000   1.0000   1.0000   1.0000
     1.0000   1.0000   1.0000   1.0000   1.0000   1.0000   1.0000   1.0000
     1.0000   1.0000   1.0000   1.0000   1.0000   1.0000   1.0000   1.0000
     1.0000   1.0000   1.0000   1.0000   1.0000   1.0000   1.0000   1.0000
     1.0000   1.0000   1.0000   1.0000   1.0000   1.0000   1.0000   1.0000
     1.0000   1.0000   1.0000   1.0000   1.0000   1.0000   1.0000   1.0000
     1.0000   1.0000   1.0000   1.0000   1.0000   1.0000   1.0000   1.0000
     1.0000   1.0000   1.0000   1.0000   1.0000   1.0000   1.0000   1.0000
     1.0000   1.0000   1.0000   1.0000   1.0000   1.0000   1.0000   1.0000
     1.0000   1.0000   1.0000   1.0000   1.0000   1.0000   1.0000   1.0000
     1.0000   1.0000   1.0000   1.0000   1.0000   1.0000   1.0000   1.0000
     1.0000   1.0000   1.0000   1.0000   1.0000   1.0000   1.0000   1.0000
     1.0000   1.0000   1.0000   1.0000   1.0000   1.0000   1.0000   1.0000
     1.0000   1.0000   1.0000   1.0000   1.0000   1.0000   1.0000   1.0000
     1.0000   1.0000   1.0000   1.0000   1.0000   1.0000   1.0000   1.0000
     1.0000   1.0000   1.0000   1.0000   1.0000   1.0000   1.0000   1.0000
     1.0000   1.0000   1.0000   1.0000   1.0000   1.0000   1.0000   1.0000
     1.0000   1.0000   1.0000   1.0000   1.0000   1.0000   1.0000   1.0000
     1.0000   1.0000   1.0000   1.0000   1.0000   1.0000   1.0000   1.0000
     1.0000   1.0000   1.0000   1.0000   1.0000   1.0000   1.0000   1.0000
     1.0000   1.0000   1.0000   1.0000   1.0000   1.0000   1.0000   1.0000
     1.0000   1.0000   1.0000   1.0000   1.0000   1.0000   1.0000   1.0000
     1.0000   1.0000   1.0000   1.0000   1.0000   1.0000   1.0000   1.0000
     1.0000   1.0000   1.0000   1.0000   1.0000   1.0000   1.0000   1.0000
     1.0000   1.0000   1.0000   1.0000   1.0000   1.0000   1.0000   1.0000
     1.0000   1.0000   1.0000   1.0000   1.0000   1.0000   1.0000   1.0000
     1.0000   1.0000   1.0000   1.0000   1.0000   1.0000   1.0000   1.0000
     1.0000   1.0000   1.0000   1.0000   1.0000   1.0000   1.0000   1.0000
     1.0000   1.0000   1.0000   1.0000   1.0000   1.0000   1.0000   1.0000
     1.0000   1.0000   1.0000   1.0000   1.0000   1.0000   1.0000   1.0000
     1.0000   1.0000   1.0000   1.0000   1.0000   1.0000   1.0000   1.0000
     1.0000   1.0000   1.0000   1.0000   1.0000   1.0000   1.0000   1.0000
     1.0000   1.0000   1.0000   1.0000   1.0000   1.0000   1.0000   1.0000
     1.0000   1.0000   1.0000   1.0000   1.0000   1.0000   1.0000   1.0000
     1.0000   1.0000   1.0000   1.0000   1.0000   1.0000   1.0000   1.0000
     0.0000   0.0000   0.0000   0.0000   0.0000   0.0000   0.0000   0.0000
     0.0000   0.0000   0.0000   0.0000   0.0000   0.0000   0.0000   0.0000

          k = 0.0000 0.3334 0.0000 (303760 PWs)   bands (ev):

   -23.1126 -23.1032 -23.0342 -23.0297 -22.9880 -22.9862 -22.9444 -22.9440
   -22.7351 -22.7348 -22.6908 -22.6907 -22.6770 -22.6762 -22.6371 -22.6359
   -22.6264 -22.6253 -22.5974 -22.5972 -22.5419 -22.5409 -22.5387 -22.5383
   -21.9185 -21.8258 -21.6413 -21.6355 -21.6229 -21.5829 -21.4866 -21.4706
   -21.4492 -21.3926 -21.3920 -21.3684 -21.3132 -21.2861 -21.2806 -21.2797
   -21.2291 -21.2270 -21.1951 -21.1943 -21.1049 -21.0943 -21.0788 -21.0532
   -15.6440 -15.6209 -15.6181 -15.6086 -15.6075 -15.6068 -15.6065 -15.5873
   -15.5858 -15.5849 -15.5812 -15.5782 -15.5698 -15.5595 -15.5460 -15.5391
   -15.5361 -15.5267 -15.5233 -15.5176 -15.5121 -15.5046 -15.5017 -15.4933
   -15.4889 -15.4829 -15.4767 -15.4753 -15.4731 -15.4596 -15.4570 -15.4530
   -15.4457 -15.4400 -15.4400 -15.4356 -15.4284 -15.4256 -15.4169 -15.4131
   -15.3955 -15.3949 -15.3899 -15.3856 -15.3846 -15.3813 -15.3799 -15.3765
   -15.3697 -15.3534 -15.3492 -15.3476 -15.3463 -15.3270 -15.3226 -15.3131
   -15.3066 -15.3027 -15.2991 -15.2898 -15.2836 -15.2804 -15.2721 -15.2685
   -15.2614 -15.2605 -15.2567 -15.2519 -15.2512 -15.2463 -15.2408 -15.2376
   -15.2290 -15.2243 -15.2178 -15.2165 -15.2090 -15.2071 -15.2050 -15.1958
   -15.1937 -15.1927 -15.1883 -15.1855 -15.1824 -15.1816 -15.1724 -15.1707
   -15.1627 -15.1588 -15.1563 -15.1538 -15.1422 -15.1379 -15.1378 -15.1341
   -15.1307 -15.1265 -15.1216 -15.1138 -15.1048 -15.0822 -15.0706 -15.0443
   -15.0265 -14.9330 -14.9108 -14.9099 -14.8263 -14.8145 -14.7905 -14.7774
   -14.7382 -14.6856 -14.6849 -14.6673 -14.5106 -14.5009 -14.4928 -14.4615
    -9.3853  -9.3508  -9.3305  -9.2648  -9.2364  -9.2327  -9.2128  -9.1852
    -9.1010  -9.0569  -9.0148  -9.0024  -8.8946  -8.8812  -8.8356  -8.7960
    -8.6746  -8.4631  -8.4566  -8.4292  -8.3586  -8.3432  -8.3221  -8.1879
    -8.1393  -8.0828  -7.9828  -7.9723  -7.9018  -7.8885  -7.8588  -7.7930
    -7.7231  -7.6921  -7.5453  -7.3396  -7.3271  -7.2444  -7.2205  -7.1901
    -7.1464  -7.1182  -7.0696  -6.9105  -6.7384  -6.6890  -6.6274  -6.5486
    -6.4862  -6.4629  -6.4336  -6.3720  -6.3319  -6.2870  -6.2609  -6.1913
    -6.0676  -6.0542  -6.0199  -6.0126  -5.9189  -5.9132  -5.8242  -5.7889
    -5.7784  -5.7258  -5.7254  -5.7225  -5.6817  -5.6514  -5.6049  -5.4752
    -5.4042  -5.3607  -5.3243  -5.3055  -5.2762  -5.2668  -5.1866  -5.1514
    -5.0982  -5.0612  -5.0568  -5.0019  -4.9808  -4.9582  -4.9516  -4.8901
    -4.8883  -4.8765  -4.8096  -4.7940  -4.7126  -4.7013  -4.6003  -4.5955
    -4.5864  -4.5779  -4.5392  -4.5303  -4.4821  -4.4006  -4.3892  -4.3470
    -4.2906  -4.2571  -4.2121  -4.1843  -4.1401  -4.1235  -4.1096  -4.0923
    -4.0346  -3.9824  -3.9570  -3.9353  -3.9142  -3.8755  -3.7729  -3.7493
    -3.7429  -3.6873  -3.6774  -3.6326  -3.6305  -3.6031  -3.5657  -3.5548
    -3.5540  -3.5374  -3.4967  -3.4745  -3.4458  -3.4424  -3.4300  -3.4257
    -3.4085  -3.3906  -3.3389  -3.3322  -3.2552  -3.2534  -3.2225  -3.2006
     0.3395   1.3560   1.7569   2.4374   2.6784   2.6844   2.8740   3.1096
     3.1608   3.3464   3.4158   3.4253   3.4857   3.5962   3.6972   3.7024

     occupation numbers 
     1.0000   1.0000   1.0000   1.0000   1.0000   1.0000   1.0000   1.0000
     1.0000   1.0000   1.0000   1.0000   1.0000   1.0000   1.0000   1.0000
     1.0000   1.0000   1.0000   1.0000   1.0000   1.0000   1.0000   1.0000
     1.0000   1.0000   1.0000   1.0000   1.0000   1.0000   1.0000   1.0000
     1.0000   1.0000   1.0000   1.0000   1.0000   1.0000   1.0000   1.0000
     1.0000   1.0000   1.0000   1.0000   1.0000   1.0000   1.0000   1.0000
     1.0000   1.0000   1.0000   1.0000   1.0000   1.0000   1.0000   1.0000
     1.0000   1.0000   1.0000   1.0000   1.0000   1.0000   1.0000   1.0000
     1.0000   1.0000   1.0000   1.0000   1.0000   1.0000   1.0000   1.0000
     1.0000   1.0000   1.0000   1.0000   1.0000   1.0000   1.0000   1.0000
     1.0000   1.0000   1.0000   1.0000   1.0000   1.0000   1.0000   1.0000
     1.0000   1.0000   1.0000   1.0000   1.0000   1.0000   1.0000   1.0000
     1.0000   1.0000   1.0000   1.0000   1.0000   1.0000   1.0000   1.0000
     1.0000   1.0000   1.0000   1.0000   1.0000   1.0000   1.0000   1.0000
     1.0000   1.0000   1.0000   1.0000   1.0000   1.0000   1.0000   1.0000
     1.0000   1.0000   1.0000   1.0000   1.0000   1.0000   1.0000   1.0000
     1.0000   1.0000   1.0000   1.0000   1.0000   1.0000   1.0000   1.0000
     1.0000   1.0000   1.0000   1.0000   1.0000   1.0000   1.0000   1.0000
     1.0000   1.0000   1.0000   1.0000   1.0000   1.0000   1.0000   1.0000
     1.0000   1.0000   1.0000   1.0000   1.0000   1.0000   1.0000   1.0000
     1.0000   1.0000   1.0000   1.0000   1.0000   1.0000   1.0000   1.0000
     1.0000   1.0000   1.0000   1.0000   1.0000   1.0000   1.0000   1.0000
     1.0000   1.0000   1.0000   1.0000   1.0000   1.0000   1.0000   1.0000
     1.0000   1.0000   1.0000   1.0000   1.0000   1.0000   1.0000   1.0000
     1.0000   1.0000   1.0000   1.0000   1.0000   1.0000   1.0000   1.0000
     1.0000   1.0000   1.0000   1.0000   1.0000   1.0000   1.0000   1.0000
     1.0000   1.0000   1.0000   1.0000   1.0000   1.0000   1.0000   1.0000
     1.0000   1.0000   1.0000   1.0000   1.0000   1.0000   1.0000   1.0000
     1.0000   1.0000   1.0000   1.0000   1.0000   1.0000   1.0000   1.0000
     1.0000   1.0000   1.0000   1.0000   1.0000   1.0000   1.0000   1.0000
     1.0000   1.0000   1.0000   1.0000   1.0000   1.0000   1.0000   1.0000
     1.0000   1.0000   1.0000   1.0000   1.0000   1.0000   1.0000   1.0000
     1.0000   1.0000   1.0000   1.0000   1.0000   1.0000   1.0000   1.0000
     1.0000   1.0000   1.0000   1.0000   1.0000   1.0000   1.0000   1.0000
     1.0000   1.0000   1.0000   1.0000   1.0000   1.0000   1.0000   1.0000
     1.0000   1.0000   1.0000   1.0000   1.0000   1.0000   1.0000   1.0000
     1.0000   1.0000   1.0000   1.0000   1.0000   1.0000   1.0000   1.0000
     1.0000   1.0000   1.0000   1.0000   1.0000   1.0000   1.0000   1.0000
     1.0000   1.0000   1.0000   1.0000   1.0000   1.0000   1.0000   1.0000
     0.0000   0.0000   0.0000   0.0000   0.0000   0.0000   0.0000   0.0000
     0.0000   0.0000   0.0000   0.0000   0.0000   0.0000   0.0000   0.0000

          k = 0.3333 0.0000 0.0000 (303760 PWs)   bands (ev):

   -23.1164 -23.1068 -23.0504 -23.0452 -22.9630 -22.9621 -22.9329 -22.9328
   -22.7550 -22.7541 -22.7189 -22.7184 -22.6506 -22.6503 -22.6276 -22.6272
   -22.6241 -22.6232 -22.6004 -22.6000 -22.5401 -22.5400 -22.5387 -22.5382
   -21.9134 -21.8032 -21.7145 -21.6739 -21.5804 -21.5644 -21.4882 -21.4540
   -21.4350 -21.4151 -21.3967 -21.3183 -21.3039 -21.3011 -21.2735 -21.2651
   -21.2519 -21.2315 -21.2262 -21.1912 -21.1059 -21.1046 -21.0679 -21.0486
   -15.6437 -15.6323 -15.6223 -15.6127 -15.6059 -15.6004 -15.5999 -15.5972
   -15.5783 -15.5765 -15.5700 -15.5674 -15.5669 -15.5667 -15.5637 -15.5459
   -15.5443 -15.5391 -15.5306 -15.5190 -15.5138 -15.5111 -15.5031 -15.4977
   -15.4967 -15.4905 -15.4693 -15.4660 -15.4625 -15.4523 -15.4476 -15.4464
   -15.4446 -15.4437 -15.4364 -15.4346 -15.4230 -15.4203 -15.4192 -15.4130
   -15.4074 -15.4026 -15.3890 -15.3847 -15.3713 -15.3681 -15.3663 -15.3636
   -15.3568 -15.3548 -15.3512 -15.3509 -15.3270 -15.3241 -15.3232 -15.3169
   -15.3117 -15.2957 -15.2918 -15.2872 -15.2788 -15.2783 -15.2771 -15.2738
   -15.2678 -15.2675 -15.2674 -15.2668 -15.2530 -15.2516 -15.2418 -15.2404
   -15.2369 -15.2353 -15.2228 -15.2130 -15.2095 -15.2033 -15.2001 -15.1901
   -15.1879 -15.1876 -15.1861 -15.1844 -15.1775 -15.1753 -15.1731 -15.1703
   -15.1677 -15.1621 -15.1617 -15.1505 -15.1470 -15.1433 -15.1405 -15.1342
   -15.1263 -15.1180 -15.1178 -15.1094 -15.0862 -15.0802 -15.0794 -15.0559
   -15.0381 -14.9886 -14.9536 -14.9158 -14.8191 -14.8003 -14.7994 -14.7460
   -14.7114 -14.7095 -14.6332 -14.6206 -14.5432 -14.5076 -14.4962 -14.4817
    -9.3673  -9.3570  -9.2904  -9.2827  -9.2385  -9.2302  -9.1935  -9.1699
    -9.1112  -9.0915  -9.0235  -8.9939  -8.8953  -8.8934  -8.8890  -8.8060
    -8.6451  -8.5146  -8.4550  -8.3390  -8.3362  -8.3248  -8.2576  -8.1813
    -8.1468  -8.1312  -8.1252  -8.0120  -7.9118  -7.8223  -7.7537  -7.6998
    -7.6445  -7.5659  -7.5446  -7.4859  -7.4747  -7.4256  -7.3820  -7.3466
    -7.0647  -7.0291  -6.9280  -6.8700  -6.7217  -6.6544  -6.6446  -6.5778
    -6.5104  -6.4344  -6.3984  -6.3842  -6.2994  -6.2669  -6.2086  -6.1746
    -6.1402  -6.0877  -6.0347  -6.0280  -6.0266  -6.0215  -5.9290  -5.7665
    -5.7473  -5.7079  -5.6805  -5.5886  -5.5493  -5.5160  -5.4899  -5.3793
    -5.3686  -5.3423  -5.3188  -5.2701  -5.2527  -5.2478  -5.1975  -5.1771
    -5.1550  -5.1292  -5.1129  -5.0894  -4.9273  -4.9264  -4.9196  -4.8580
    -4.8567  -4.8534  -4.8294  -4.8228  -4.8016  -4.7551  -4.6586  -4.6530
    -4.6235  -4.6065  -4.5481  -4.4493  -4.4337  -4.4251  -4.4184  -4.3700
    -4.3219  -4.2992  -4.2767  -4.2420  -4.1916  -4.1744  -4.0817  -4.0583
    -3.9998  -3.9812  -3.9516  -3.9010  -3.8694  -3.8429  -3.7426  -3.7420
    -3.7409  -3.7040  -3.6728  -3.6671  -3.6271  -3.5953  -3.5902  -3.5854
    -3.5501  -3.5109  -3.4907  -3.4746  -3.4554  -3.4504  -3.4406  -3.3979
    -3.3820  -3.3746  -3.3365  -3.3248  -3.3033  -3.2217  -3.2058  -3.1912
     0.3378   1.3478   1.7572   2.4427   2.6707   2.7555   2.8535   3.1731
     3.1910   3.2851   3.3093   3.4215   3.4696   3.6119   3.6967   3.7031

     occupation numbers 
     1.0000   1.0000   1.0000   1.0000   1.0000   1.0000   1.0000   1.0000
     1.0000   1.0000   1.0000   1.0000   1.0000   1.0000   1.0000   1.0000
     1.0000   1.0000   1.0000   1.0000   1.0000   1.0000   1.0000   1.0000
     1.0000   1.0000   1.0000   1.0000   1.0000   1.0000   1.0000   1.0000
     1.0000   1.0000   1.0000   1.0000   1.0000   1.0000   1.0000   1.0000
     1.0000   1.0000   1.0000   1.0000   1.0000   1.0000   1.0000   1.0000
     1.0000   1.0000   1.0000   1.0000   1.0000   1.0000   1.0000   1.0000
     1.0000   1.0000   1.0000   1.0000   1.0000   1.0000   1.0000   1.0000
     1.0000   1.0000   1.0000   1.0000   1.0000   1.0000   1.0000   1.0000
     1.0000   1.0000   1.0000   1.0000   1.0000   1.0000   1.0000   1.0000
     1.0000   1.0000   1.0000   1.0000   1.0000   1.0000   1.0000   1.0000
     1.0000   1.0000   1.0000   1.0000   1.0000   1.0000   1.0000   1.0000
     1.0000   1.0000   1.0000   1.0000   1.0000   1.0000   1.0000   1.0000
     1.0000   1.0000   1.0000   1.0000   1.0000   1.0000   1.0000   1.0000
     1.0000   1.0000   1.0000   1.0000   1.0000   1.0000   1.0000   1.0000
     1.0000   1.0000   1.0000   1.0000   1.0000   1.0000   1.0000   1.0000
     1.0000   1.0000   1.0000   1.0000   1.0000   1.0000   1.0000   1.0000
     1.0000   1.0000   1.0000   1.0000   1.0000   1.0000   1.0000   1.0000
     1.0000   1.0000   1.0000   1.0000   1.0000   1.0000   1.0000   1.0000
     1.0000   1.0000   1.0000   1.0000   1.0000   1.0000   1.0000   1.0000
     1.0000   1.0000   1.0000   1.0000   1.0000   1.0000   1.0000   1.0000
     1.0000   1.0000   1.0000   1.0000   1.0000   1.0000   1.0000   1.0000
     1.0000   1.0000   1.0000   1.0000   1.0000   1.0000   1.0000   1.0000
     1.0000   1.0000   1.0000   1.0000   1.0000   1.0000   1.0000   1.0000
     1.0000   1.0000   1.0000   1.0000   1.0000   1.0000   1.0000   1.0000
     1.0000   1.0000   1.0000   1.0000   1.0000   1.0000   1.0000   1.0000
     1.0000   1.0000   1.0000   1.0000   1.0000   1.0000   1.0000   1.0000
     1.0000   1.0000   1.0000   1.0000   1.0000   1.0000   1.0000   1.0000
     1.0000   1.0000   1.0000   1.0000   1.0000   1.0000   1.0000   1.0000
     1.0000   1.0000   1.0000   1.0000   1.0000   1.0000   1.0000   1.0000
     1.0000   1.0000   1.0000   1.0000   1.0000   1.0000   1.0000   1.0000
     1.0000   1.0000   1.0000   1.0000   1.0000   1.0000   1.0000   1.0000
     1.0000   1.0000   1.0000   1.0000   1.0000   1.0000   1.0000   1.0000
     1.0000   1.0000   1.0000   1.0000   1.0000   1.0000   1.0000   1.0000
     1.0000   1.0000   1.0000   1.0000   1.0000   1.0000   1.0000   1.0000
     1.0000   1.0000   1.0000   1.0000   1.0000   1.0000   1.0000   1.0000
     1.0000   1.0000   1.0000   1.0000   1.0000   1.0000   1.0000   1.0000
     1.0000   1.0000   1.0000   1.0000   1.0000   1.0000   1.0000   1.0000
     1.0000   1.0000   1.0000   1.0000   1.0000   1.0000   1.0000   1.0000
     0.0000   0.0000   0.0000   0.0000   0.0000   0.0000   0.0000   0.0000
     0.0000   0.0000   0.0000   0.0000   0.0000   0.0000   0.0000   0.0000

          k = 0.3333 0.3334 0.0000 (303835 PWs)   bands (ev):

   -23.0870 -23.0794 -23.0269 -23.0230 -23.0146 -23.0111 -22.9703 -22.9688
   -22.7130 -22.7128 -22.6849 -22.6844 -22.6630 -22.6625 -22.6354 -22.6350
   -22.6251 -22.6247 -22.6163 -22.6163 -22.5430 -22.5427 -22.5407 -22.5406
   -21.8806 -21.7953 -21.7774 -21.7165 -21.5304 -21.5048 -21.4973 -21.4549
   -21.4270 -21.3922 -21.3818 -21.3480 -21.3091 -21.3015 -21.2798 -21.2746
   -21.2509 -21.2401 -21.2208 -21.2105 -21.0920 -21.0795 -21.0737 -21.0552
   -15.6410 -15.6293 -15.6280 -15.6237 -15.6126 -15.6108 -15.6042 -15.5893
   -15.5844 -15.5843 -15.5810 -15.5759 -15.5667 -15.5643 -15.5541 -15.5443
   -15.5375 -15.5313 -15.5275 -15.5233 -15.5120 -15.5038 -15.4961 -15.4872
   -15.4815 -15.4792 -15.4690 -15.4686 -15.4639 -15.4607 -15.4474 -15.4460
   -15.4437 -15.4400 -15.4353 -15.4306 -15.4206 -15.4159 -15.4153 -15.4082
   -15.4055 -15.4036 -15.4014 -15.3946 -15.3862 -15.3838 -15.3794 -15.3793
   -15.3605 -15.3532 -15.3395 -15.3356 -15.3249 -15.3220 -15.3175 -15.3085
   -15.3067 -15.2993 -15.2918 -15.2898 -15.2843 -15.2783 -15.2748 -15.2686
   -15.2652 -15.2643 -15.2617 -15.2554 -15.2542 -15.2458 -15.2449 -15.2352
   -15.2290 -15.2272 -15.2262 -15.2232 -15.2180 -15.2077 -15.2060 -15.2027
   -15.1970 -15.1894 -15.1833 -15.1832 -15.1756 -15.1747 -15.1714 -15.1684
   -15.1649 -15.1640 -15.1556 -15.1553 -15.1481 -15.1478 -15.1430 -15.1402
   -15.1293 -15.1184 -15.1155 -15.1146 -15.0889 -15.0845 -15.0601 -15.0370
   -15.0301 -14.9867 -14.9671 -14.9397 -14.8415 -14.8360 -14.7864 -14.7730
   -14.6664 -14.6652 -14.6188 -14.5889 -14.5568 -14.5264 -14.5122 -14.5014
    -9.3595  -9.3367  -9.3240  -9.2979  -9.2529  -9.2378  -9.2353  -9.2094
    -9.0833  -9.0445  -9.0365  -9.0141  -8.8509  -8.8465  -8.8271  -8.7969
    -8.5541  -8.4646  -8.4553  -8.4296  -8.2915  -8.2800  -8.2395  -8.2326
    -8.1631  -8.1234  -8.1054  -8.0228  -7.9346  -7.9155  -7.7550  -7.7333
    -7.7219  -7.6976  -7.5944  -7.5676  -7.5327  -7.4459  -7.4285  -7.3957
    -7.0077  -6.9600  -6.8806  -6.8776  -6.6344  -6.5639  -6.5527  -6.4379
    -6.3912  -6.3858  -6.3615  -6.3508  -6.3391  -6.2839  -6.1968  -6.1476
    -6.0863  -6.0596  -6.0222  -5.9943  -5.9751  -5.9424  -5.9220  -5.8191
    -5.7669  -5.7220  -5.6882  -5.6871  -5.6090  -5.6069  -5.5634  -5.4679
    -5.3964  -5.3764  -5.3547  -5.3507  -5.3015  -5.2305  -5.1745  -5.1444
    -5.1232  -5.0962  -5.0623  -5.0298  -4.9963  -4.9863  -4.9703  -4.9284
    -4.9126  -4.8132  -4.7824  -4.7281  -4.6668  -4.6578  -4.6459  -4.6043
    -4.5555  -4.5084  -4.4926  -4.4914  -4.4581  -4.4293  -4.4170  -4.3671
    -4.3256  -4.3007  -4.2563  -4.2502  -4.2194  -4.1545  -4.1366  -4.1202
    -4.0872  -3.9853  -3.9699  -3.9512  -3.8842  -3.8581  -3.8083  -3.7840
    -3.7724  -3.7503  -3.7284  -3.7026  -3.6230  -3.6151  -3.6100  -3.5633
    -3.5428  -3.5180  -3.4788  -3.4768  -3.4602  -3.4337  -3.4223  -3.3966
    -3.3881  -3.3241  -3.3225  -3.3121  -3.2424  -3.2160  -3.1832  -3.1767
     0.7359   1.6376   1.6441   2.0084   2.3412   2.6303   2.6463   2.9834
     3.1601   3.4897   3.4920   3.5622   3.6544   3.6892   3.8201   3.8587

     occupation numbers 
     1.0000   1.0000   1.0000   1.0000   1.0000   1.0000   1.0000   1.0000
     1.0000   1.0000   1.0000   1.0000   1.0000   1.0000   1.0000   1.0000
     1.0000   1.0000   1.0000   1.0000   1.0000   1.0000   1.0000   1.0000
     1.0000   1.0000   1.0000   1.0000   1.0000   1.0000   1.0000   1.0000
     1.0000   1.0000   1.0000   1.0000   1.0000   1.0000   1.0000   1.0000
     1.0000   1.0000   1.0000   1.0000   1.0000   1.0000   1.0000   1.0000
     1.0000   1.0000   1.0000   1.0000   1.0000   1.0000   1.0000   1.0000
     1.0000   1.0000   1.0000   1.0000   1.0000   1.0000   1.0000   1.0000
     1.0000   1.0000   1.0000   1.0000   1.0000   1.0000   1.0000   1.0000
     1.0000   1.0000   1.0000   1.0000   1.0000   1.0000   1.0000   1.0000
     1.0000   1.0000   1.0000   1.0000   1.0000   1.0000   1.0000   1.0000
     1.0000   1.0000   1.0000   1.0000   1.0000   1.0000   1.0000   1.0000
     1.0000   1.0000   1.0000   1.0000   1.0000   1.0000   1.0000   1.0000
     1.0000   1.0000   1.0000   1.0000   1.0000   1.0000   1.0000   1.0000
     1.0000   1.0000   1.0000   1.0000   1.0000   1.0000   1.0000   1.0000
     1.0000   1.0000   1.0000   1.0000   1.0000   1.0000   1.0000   1.0000
     1.0000   1.0000   1.0000   1.0000   1.0000   1.0000   1.0000   1.0000
     1.0000   1.0000   1.0000   1.0000   1.0000   1.0000   1.0000   1.0000
     1.0000   1.0000   1.0000   1.0000   1.0000   1.0000   1.0000   1.0000
     1.0000   1.0000   1.0000   1.0000   1.0000   1.0000   1.0000   1.0000
     1.0000   1.0000   1.0000   1.0000   1.0000   1.0000   1.0000   1.0000
     1.0000   1.0000   1.0000   1.0000   1.0000   1.0000   1.0000   1.0000
     1.0000   1.0000   1.0000   1.0000   1.0000   1.0000   1.0000   1.0000
     1.0000   1.0000   1.0000   1.0000   1.0000   1.0000   1.0000   1.0000
     1.0000   1.0000   1.0000   1.0000   1.0000   1.0000   1.0000   1.0000
     1.0000   1.0000   1.0000   1.0000   1.0000   1.0000   1.0000   1.0000
     1.0000   1.0000   1.0000   1.0000   1.0000   1.0000   1.0000   1.0000
     1.0000   1.0000   1.0000   1.0000   1.0000   1.0000   1.0000   1.0000
     1.0000   1.0000   1.0000   1.0000   1.0000   1.0000   1.0000   1.0000
     1.0000   1.0000   1.0000   1.0000   1.0000   1.0000   1.0000   1.0000
     1.0000   1.0000   1.0000   1.0000   1.0000   1.0000   1.0000   1.0000
     1.0000   1.0000   1.0000   1.0000   1.0000   1.0000   1.0000   1.0000
     1.0000   1.0000   1.0000   1.0000   1.0000   1.0000   1.0000   1.0000
     1.0000   1.0000   1.0000   1.0000   1.0000   1.0000   1.0000   1.0000
     1.0000   1.0000   1.0000   1.0000   1.0000   1.0000   1.0000   1.0000
     1.0000   1.0000   1.0000   1.0000   1.0000   1.0000   1.0000   1.0000
     1.0000   1.0000   1.0000   1.0000   1.0000   1.0000   1.0000   1.0000
     1.0000   1.0000   1.0000   1.0000   1.0000   1.0000   1.0000   1.0000
     1.0000   1.0000   1.0000   1.0000   1.0000   1.0000   1.0000   1.0000
     0.0000   0.0000   0.0000   0.0000   0.0000   0.0000   0.0000   0.0000
     0.0000   0.0000   0.0000   0.0000   0.0000   0.0000   0.0000   0.0000

     highest occupied, lowest unoccupied level (ev):    -3.1764   -0.1290

!    total energy              =   -4057.48873484 Ry
     estimated scf accuracy    <          7.6E-10 Ry

     convergence has been achieved in   3 iterations

     Using ACE for calculation of exact exchange
     ACE projected onto   328 (nbndproj) and applied to   328 (nbnd) bands

     total energy              =   -4057.48873486 Ry
     Harris-Foulkes estimate   =   -4057.48873487 Ry
     est. exchange err (dexx)  =       0.00000002 Ry
     - averaged Fock potential =     252.29406614 Ry
     + Fock energy (ACE)       =    -126.14710608 Ry

     EXX: now go back to refine exchange calculation

     total cpu time spent up to now is     2248.9 secs

     Self-consistent Calculation
[tb_dev] Currently allocated     3.66E-04 Mbytes, locked:    0 /   1
[tb_pin] Currently allocated     0.00E+00 Mbytes, locked:    0 /   0

     iteration #  1     ecut=    80.00 Ry     beta= 0.30
     Davidson diagonalization with overlap

---- Real-time Memory Report at c_bands before calling an iterative solver
         57246 MiB given to the printing process from OS
             0 MiB allocation reported by mallinfo(arena+hblkhd)
        254124 MiB available memory on the node where the printing process lives
     GPU memory used/free/total (MiB): 90306 / 5004 / 95311
------------------
     ethr =  1.30E-12,  avg # of iterations =  5.3

     total cpu time spent up to now is     2262.8 secs

     total energy              =   -4057.48873488 Ry
     estimated scf accuracy    <          2.5E-09 Ry
[tb_dev] Currently allocated     3.66E-04 Mbytes, locked:    0 /   1
[tb_pin] Currently allocated     0.00E+00 Mbytes, locked:    0 /   0

     iteration #  2     ecut=    80.00 Ry     beta= 0.30
     Davidson diagonalization with overlap

---- Real-time Memory Report at c_bands before calling an iterative solver
         57246 MiB given to the printing process from OS
             0 MiB allocation reported by mallinfo(arena+hblkhd)
        254195 MiB available memory on the node where the printing process lives
     GPU memory used/free/total (MiB): 90306 / 5004 / 95311
------------------
     ethr =  4.01E-13,  avg # of iterations =  1.0

     total cpu time spent up to now is     2271.5 secs

     total energy              =   -4057.48873487 Ry
     estimated scf accuracy    <          1.2E-09 Ry
[tb_dev] Currently allocated     3.66E-04 Mbytes, locked:    0 /   1
[tb_pin] Currently allocated     0.00E+00 Mbytes, locked:    0 /   0

     iteration #  3     ecut=    80.00 Ry     beta= 0.30
     Davidson diagonalization with overlap

---- Real-time Memory Report at c_bands before calling an iterative solver
         57246 MiB given to the printing process from OS
             0 MiB allocation reported by mallinfo(arena+hblkhd)
        254244 MiB available memory on the node where the printing process lives
     GPU memory used/free/total (MiB): 90306 / 5004 / 95311
------------------
     ethr =  1.94E-13,  avg # of iterations =  2.0

     total cpu time spent up to now is     2281.3 secs

     End of self-consistent calculation

          k = 0.0000 0.0000 0.0000 (303775 PWs)   bands (ev):

   -23.1442 -23.1325 -23.0066 -23.0041 -22.9769 -22.9755 -22.9183 -22.9180
   -22.7761 -22.7755 -22.6984 -22.6980 -22.6720 -22.6716 -22.6450 -22.6438
   -22.6289 -22.6281 -22.5827 -22.5822 -22.5379 -22.5370 -22.5333 -22.5333
   -21.9541 -21.7338 -21.6487 -21.6471 -21.6430 -21.5875 -21.5610 -21.4804
   -21.4284 -21.4123 -21.4066 -21.3269 -21.3244 -21.2864 -21.2757 -21.2721
   -21.2318 -21.2274 -21.1938 -21.1670 -21.1138 -21.1134 -21.0920 -21.0481
   -15.6548 -15.6338 -15.6335 -15.6250 -15.6133 -15.6094 -15.6057 -15.5993
   -15.5946 -15.5894 -15.5849 -15.5677 -15.5596 -15.5567 -15.5547 -15.5416
   -15.5401 -15.5231 -15.5215 -15.5147 -15.5105 -15.4990 -15.4871 -15.4869
   -15.4858 -15.4812 -15.4794 -15.4727 -15.4637 -15.4518 -15.4476 -15.4459
   -15.4419 -15.4385 -15.4363 -15.4359 -15.4259 -15.4234 -15.4195 -15.4064
   -15.3819 -15.3816 -15.3790 -15.3665 -15.3647 -15.3632 -15.3574 -15.3573
   -15.3506 -15.3497 -15.3459 -15.3451 -15.3302 -15.3251 -15.3163 -15.3151
   -15.3081 -15.3006 -15.2968 -15.2886 -15.2805 -15.2798 -15.2790 -15.2788
   -15.2761 -15.2749 -15.2742 -15.2591 -15.2568 -15.2552 -15.2508 -15.2460
   -15.2371 -15.2350 -15.2312 -15.2305 -15.2295 -15.2276 -15.2147 -15.2037
   -15.1989 -15.1887 -15.1861 -15.1841 -15.1839 -15.1795 -15.1698 -15.1679
   -15.1676 -15.1606 -15.1597 -15.1455 -15.1446 -15.1400 -15.1371 -15.1318
   -15.1274 -15.1258 -15.1121 -15.1118 -15.1091 -15.0953 -15.0826 -15.0656
   -14.9724 -14.9521 -14.9322 -14.8841 -14.8488 -14.8487 -14.7868 -14.7868
   -14.7478 -14.6602 -14.6302 -14.6110 -14.5754 -14.5048 -14.4880 -14.4457
    -9.4013  -9.3851  -9.2640  -9.2409  -9.2290  -9.2051  -9.1952  -9.1240
    -9.1026  -9.0382  -9.0334  -8.9796  -8.9778  -8.9719  -8.9277  -8.8057
    -8.7982  -8.5054  -8.4810  -8.4174  -8.2876  -8.2425  -8.2256  -8.1303
    -8.1264  -8.1079  -8.0516  -7.9463  -7.8963  -7.8662  -7.8324  -7.7940
    -7.5929  -7.5870  -7.5259  -7.3823  -7.3343  -7.3020  -7.2605  -7.1632
    -7.1211  -7.0409  -6.9922  -6.9011  -6.8858  -6.7595  -6.6850  -6.6669
    -6.6072  -6.5475  -6.4763  -6.4593  -6.3343  -6.2410  -6.1946  -6.1932
    -6.1791  -6.0819  -6.0793  -6.0127  -6.0011  -5.9812  -5.9590  -5.8862
    -5.7658  -5.7072  -5.6419  -5.5118  -5.4603  -5.4094  -5.3965  -5.3776
    -5.3579  -5.3344  -5.3244  -5.2491  -5.2474  -5.1914  -5.1771  -5.1337
    -5.1296  -5.0826  -5.0752  -5.0623  -5.0622  -5.0006  -4.9798  -4.9689
    -4.9596  -4.9190  -4.8849  -4.8421  -4.7656  -4.7393  -4.7082  -4.6725
    -4.6178  -4.5232  -4.4933  -4.4644  -4.4506  -4.4041  -4.3851  -4.3728
    -4.3536  -4.3476  -4.3443  -4.2623  -4.1347  -4.1284  -4.1220  -4.1104
    -4.0992  -3.9907  -3.8864  -3.7935  -3.7755  -3.7488  -3.7476  -3.7389
    -3.6907  -3.6679  -3.6614  -3.6596  -3.6274  -3.6023  -3.6002  -3.5964
    -3.5955  -3.5230  -3.4695  -3.4627  -3.4473  -3.4147  -3.3933  -3.3926
    -3.3894  -3.3783  -3.3754  -3.2928  -3.2892  -3.2887  -3.2415  -3.1765
    -0.1290   1.4760   2.4695   2.4723   2.4911   2.5271   2.6767   3.1850
     3.2769   3.3165   3.4058   3.4913   3.5475   3.5699   3.6635   3.6779

     occupation numbers 
     1.0000   1.0000   1.0000   1.0000   1.0000   1.0000   1.0000   1.0000
     1.0000   1.0000   1.0000   1.0000   1.0000   1.0000   1.0000   1.0000
     1.0000   1.0000   1.0000   1.0000   1.0000   1.0000   1.0000   1.0000
     1.0000   1.0000   1.0000   1.0000   1.0000   1.0000   1.0000   1.0000
     1.0000   1.0000   1.0000   1.0000   1.0000   1.0000   1.0000   1.0000
     1.0000   1.0000   1.0000   1.0000   1.0000   1.0000   1.0000   1.0000
     1.0000   1.0000   1.0000   1.0000   1.0000   1.0000   1.0000   1.0000
     1.0000   1.0000   1.0000   1.0000   1.0000   1.0000   1.0000   1.0000
     1.0000   1.0000   1.0000   1.0000   1.0000   1.0000   1.0000   1.0000
     1.0000   1.0000   1.0000   1.0000   1.0000   1.0000   1.0000   1.0000
     1.0000   1.0000   1.0000   1.0000   1.0000   1.0000   1.0000   1.0000
     1.0000   1.0000   1.0000   1.0000   1.0000   1.0000   1.0000   1.0000
     1.0000   1.0000   1.0000   1.0000   1.0000   1.0000   1.0000   1.0000
     1.0000   1.0000   1.0000   1.0000   1.0000   1.0000   1.0000   1.0000
     1.0000   1.0000   1.0000   1.0000   1.0000   1.0000   1.0000   1.0000
     1.0000   1.0000   1.0000   1.0000   1.0000   1.0000   1.0000   1.0000
     1.0000   1.0000   1.0000   1.0000   1.0000   1.0000   1.0000   1.0000
     1.0000   1.0000   1.0000   1.0000   1.0000   1.0000   1.0000   1.0000
     1.0000   1.0000   1.0000   1.0000   1.0000   1.0000   1.0000   1.0000
     1.0000   1.0000   1.0000   1.0000   1.0000   1.0000   1.0000   1.0000
     1.0000   1.0000   1.0000   1.0000   1.0000   1.0000   1.0000   1.0000
     1.0000   1.0000   1.0000   1.0000   1.0000   1.0000   1.0000   1.0000
     1.0000   1.0000   1.0000   1.0000   1.0000   1.0000   1.0000   1.0000
     1.0000   1.0000   1.0000   1.0000   1.0000   1.0000   1.0000   1.0000
     1.0000   1.0000   1.0000   1.0000   1.0000   1.0000   1.0000   1.0000
     1.0000   1.0000   1.0000   1.0000   1.0000   1.0000   1.0000   1.0000
     1.0000   1.0000   1.0000   1.0000   1.0000   1.0000   1.0000   1.0000
     1.0000   1.0000   1.0000   1.0000   1.0000   1.0000   1.0000   1.0000
     1.0000   1.0000   1.0000   1.0000   1.0000   1.0000   1.0000   1.0000
     1.0000   1.0000   1.0000   1.0000   1.0000   1.0000   1.0000   1.0000
     1.0000   1.0000   1.0000   1.0000   1.0000   1.0000   1.0000   1.0000
     1.0000   1.0000   1.0000   1.0000   1.0000   1.0000   1.0000   1.0000
     1.0000   1.0000   1.0000   1.0000   1.0000   1.0000   1.0000   1.0000
     1.0000   1.0000   1.0000   1.0000   1.0000   1.0000   1.0000   1.0000
     1.0000   1.0000   1.0000   1.0000   1.0000   1.0000   1.0000   1.0000
     1.0000   1.0000   1.0000   1.0000   1.0000   1.0000   1.0000   1.0000
     1.0000   1.0000   1.0000   1.0000   1.0000   1.0000   1.0000   1.0000
     1.0000   1.0000   1.0000   1.0000   1.0000   1.0000   1.0000   1.0000
     1.0000   1.0000   1.0000   1.0000   1.0000   1.0000   1.0000   1.0000
     0.0000   0.0000   0.0000   0.0000   0.0000   0.0000   0.0000   0.0000
     0.0000   0.0000   0.0000   0.0000   0.0000   0.0000   0.0000   0.0000

          k = 0.0000 0.3334 0.0000 (303760 PWs)   bands (ev):

   -23.1126 -23.1032 -23.0342 -23.0297 -22.9880 -22.9862 -22.9444 -22.9440
   -22.7351 -22.7348 -22.6908 -22.6907 -22.6771 -22.6762 -22.6371 -22.6359
   -22.6264 -22.6254 -22.5975 -22.5972 -22.5419 -22.5409 -22.5387 -22.5384
   -21.9186 -21.8259 -21.6414 -21.6355 -21.6230 -21.5829 -21.4867 -21.4706
   -21.4492 -21.3926 -21.3921 -21.3685 -21.3133 -21.2862 -21.2806 -21.2798
   -21.2292 -21.2271 -21.1951 -21.1943 -21.1050 -21.0944 -21.0789 -21.0533
   -15.6441 -15.6210 -15.6182 -15.6087 -15.6076 -15.6068 -15.6066 -15.5874
   -15.5859 -15.5850 -15.5813 -15.5783 -15.5699 -15.5596 -15.5461 -15.5392
   -15.5362 -15.5268 -15.5234 -15.5176 -15.5122 -15.5047 -15.5017 -15.4933
   -15.4890 -15.4829 -15.4768 -15.4754 -15.4732 -15.4597 -15.4571 -15.4531
   -15.4458 -15.4401 -15.4401 -15.4356 -15.4285 -15.4256 -15.4170 -15.4132
   -15.3956 -15.3950 -15.3900 -15.3857 -15.3847 -15.3814 -15.3800 -15.3766
   -15.3698 -15.3535 -15.3493 -15.3477 -15.3464 -15.3271 -15.3227 -15.3132
   -15.3067 -15.3028 -15.2992 -15.2899 -15.2836 -15.2805 -15.2722 -15.2685
   -15.2614 -15.2606 -15.2568 -15.2520 -15.2513 -15.2464 -15.2409 -15.2376
   -15.2291 -15.2244 -15.2179 -15.2166 -15.2091 -15.2072 -15.2050 -15.1959
   -15.1938 -15.1928 -15.1884 -15.1856 -15.1825 -15.1817 -15.1725 -15.1708
   -15.1628 -15.1589 -15.1563 -15.1539 -15.1423 -15.1380 -15.1379 -15.1342
   -15.1308 -15.1266 -15.1217 -15.1139 -15.1049 -15.0823 -15.0707 -15.0444
   -15.0266 -14.9330 -14.9109 -14.9100 -14.8264 -14.8146 -14.7906 -14.7775
   -14.7383 -14.6857 -14.6850 -14.6674 -14.5107 -14.5010 -14.4929 -14.4616
    -9.3853  -9.3509  -9.3305  -9.2648  -9.2364  -9.2328  -9.2128  -9.1852
    -9.1011  -9.0569  -9.0148  -9.0025  -8.8946  -8.8812  -8.8356  -8.7960
    -8.6747  -8.4631  -8.4566  -8.4293  -8.3586  -8.3432  -8.3222  -8.1879
    -8.1393  -8.0828  -7.9829  -7.9723  -7.9019  -7.8886  -7.8588  -7.7930
    -7.7232  -7.6922  -7.5453  -7.3396  -7.3271  -7.2444  -7.2205  -7.1901
    -7.1465  -7.1182  -7.0697  -6.9105  -6.7384  -6.6891  -6.6274  -6.5487
    -6.4863  -6.4630  -6.4336  -6.3721  -6.3320  -6.2870  -6.2609  -6.1913
    -6.0677  -6.0542  -6.0200  -6.0126  -5.9189  -5.9133  -5.8242  -5.7889
    -5.7785  -5.7258  -5.7255  -5.7226  -5.6817  -5.6514  -5.6049  -5.4752
    -5.4042  -5.3608  -5.3243  -5.3056  -5.2763  -5.2668  -5.1866  -5.1515
    -5.0983  -5.0612  -5.0569  -5.0020  -4.9808  -4.9582  -4.9517  -4.8901
    -4.8883  -4.8765  -4.8097  -4.7941  -4.7127  -4.7014  -4.6003  -4.5955
    -4.5864  -4.5779  -4.5393  -4.5303  -4.4821  -4.4006  -4.3893  -4.3471
    -4.2906  -4.2572  -4.2121  -4.1844  -4.1402  -4.1236  -4.1097  -4.0924
    -4.0346  -3.9825  -3.9571  -3.9353  -3.9142  -3.8755  -3.7729  -3.7494
    -3.7430  -3.6874  -3.6775  -3.6327  -3.6306  -3.6032  -3.5658  -3.5548
    -3.5540  -3.5375  -3.4967  -3.4746  -3.4458  -3.4424  -3.4301  -3.4258
    -3.4086  -3.3906  -3.3389  -3.3323  -3.2553  -3.2535  -3.2226  -3.2006
     0.3395   1.3560   1.7568   2.4374   2.6784   2.6844   2.8739   3.1096
     3.1607   3.3464   3.4158   3.4252   3.4857   3.5962   3.6971   3.7040

     occupation numbers 
     1.0000   1.0000   1.0000   1.0000   1.0000   1.0000   1.0000   1.0000
     1.0000   1.0000   1.0000   1.0000   1.0000   1.0000   1.0000   1.0000
     1.0000   1.0000   1.0000   1.0000   1.0000   1.0000   1.0000   1.0000
     1.0000   1.0000   1.0000   1.0000   1.0000   1.0000   1.0000   1.0000
     1.0000   1.0000   1.0000   1.0000   1.0000   1.0000   1.0000   1.0000
     1.0000   1.0000   1.0000   1.0000   1.0000   1.0000   1.0000   1.0000
     1.0000   1.0000   1.0000   1.0000   1.0000   1.0000   1.0000   1.0000
     1.0000   1.0000   1.0000   1.0000   1.0000   1.0000   1.0000   1.0000
     1.0000   1.0000   1.0000   1.0000   1.0000   1.0000   1.0000   1.0000
     1.0000   1.0000   1.0000   1.0000   1.0000   1.0000   1.0000   1.0000
     1.0000   1.0000   1.0000   1.0000   1.0000   1.0000   1.0000   1.0000
     1.0000   1.0000   1.0000   1.0000   1.0000   1.0000   1.0000   1.0000
     1.0000   1.0000   1.0000   1.0000   1.0000   1.0000   1.0000   1.0000
     1.0000   1.0000   1.0000   1.0000   1.0000   1.0000   1.0000   1.0000
     1.0000   1.0000   1.0000   1.0000   1.0000   1.0000   1.0000   1.0000
     1.0000   1.0000   1.0000   1.0000   1.0000   1.0000   1.0000   1.0000
     1.0000   1.0000   1.0000   1.0000   1.0000   1.0000   1.0000   1.0000
     1.0000   1.0000   1.0000   1.0000   1.0000   1.0000   1.0000   1.0000
     1.0000   1.0000   1.0000   1.0000   1.0000   1.0000   1.0000   1.0000
     1.0000   1.0000   1.0000   1.0000   1.0000   1.0000   1.0000   1.0000
     1.0000   1.0000   1.0000   1.0000   1.0000   1.0000   1.0000   1.0000
     1.0000   1.0000   1.0000   1.0000   1.0000   1.0000   1.0000   1.0000
     1.0000   1.0000   1.0000   1.0000   1.0000   1.0000   1.0000   1.0000
     1.0000   1.0000   1.0000   1.0000   1.0000   1.0000   1.0000   1.0000
     1.0000   1.0000   1.0000   1.0000   1.0000   1.0000   1.0000   1.0000
     1.0000   1.0000   1.0000   1.0000   1.0000   1.0000   1.0000   1.0000
     1.0000   1.0000   1.0000   1.0000   1.0000   1.0000   1.0000   1.0000
     1.0000   1.0000   1.0000   1.0000   1.0000   1.0000   1.0000   1.0000
     1.0000   1.0000   1.0000   1.0000   1.0000   1.0000   1.0000   1.0000
     1.0000   1.0000   1.0000   1.0000   1.0000   1.0000   1.0000   1.0000
     1.0000   1.0000   1.0000   1.0000   1.0000   1.0000   1.0000   1.0000
     1.0000   1.0000   1.0000   1.0000   1.0000   1.0000   1.0000   1.0000
     1.0000   1.0000   1.0000   1.0000   1.0000   1.0000   1.0000   1.0000
     1.0000   1.0000   1.0000   1.0000   1.0000   1.0000   1.0000   1.0000
     1.0000   1.0000   1.0000   1.0000   1.0000   1.0000   1.0000   1.0000
     1.0000   1.0000   1.0000   1.0000   1.0000   1.0000   1.0000   1.0000
     1.0000   1.0000   1.0000   1.0000   1.0000   1.0000   1.0000   1.0000
     1.0000   1.0000   1.0000   1.0000   1.0000   1.0000   1.0000   1.0000
     1.0000   1.0000   1.0000   1.0000   1.0000   1.0000   1.0000   1.0000
     0.0000   0.0000   0.0000   0.0000   0.0000   0.0000   0.0000   0.0000
     0.0000   0.0000   0.0000   0.0000   0.0000   0.0000   0.0000   0.0000

          k = 0.3333 0.0000 0.0000 (303760 PWs)   bands (ev):

   -23.1164 -23.1068 -23.0504 -23.0453 -22.9630 -22.9621 -22.9329 -22.9328
   -22.7550 -22.7541 -22.7189 -22.7184 -22.6506 -22.6503 -22.6276 -22.6272
   -22.6241 -22.6233 -22.6004 -22.6000 -22.5401 -22.5400 -22.5387 -22.5382
   -21.9134 -21.8032 -21.7145 -21.6740 -21.5805 -21.5645 -21.4883 -21.4540
   -21.4351 -21.4151 -21.3968 -21.3183 -21.3040 -21.3012 -21.2736 -21.2652
   -21.2519 -21.2315 -21.2262 -21.1913 -21.1060 -21.1046 -21.0680 -21.0487
   -15.6437 -15.6324 -15.6224 -15.6128 -15.6060 -15.6005 -15.6000 -15.5973
   -15.5784 -15.5766 -15.5701 -15.5675 -15.5670 -15.5668 -15.5638 -15.5460
   -15.5444 -15.5392 -15.5307 -15.5191 -15.5139 -15.5112 -15.5032 -15.4977
   -15.4968 -15.4906 -15.4694 -15.4661 -15.4625 -15.4524 -15.4477 -15.4465
   -15.4447 -15.4437 -15.4365 -15.4347 -15.4230 -15.4204 -15.4193 -15.4130
   -15.4075 -15.4027 -15.3891 -15.3848 -15.3714 -15.3682 -15.3664 -15.3636
   -15.3569 -15.3549 -15.3513 -15.3510 -15.3271 -15.3242 -15.3233 -15.3170
   -15.3118 -15.2957 -15.2919 -15.2873 -15.2789 -15.2783 -15.2772 -15.2739
   -15.2678 -15.2676 -15.2675 -15.2669 -15.2531 -15.2517 -15.2419 -15.2405
   -15.2370 -15.2354 -15.2229 -15.2130 -15.2096 -15.2034 -15.2002 -15.1902
   -15.1880 -15.1877 -15.1862 -15.1845 -15.1776 -15.1754 -15.1732 -15.1704
   -15.1678 -15.1622 -15.1618 -15.1506 -15.1471 -15.1434 -15.1406 -15.1343
   -15.1264 -15.1181 -15.1179 -15.1095 -15.0863 -15.0802 -15.0795 -15.0560
   -15.0382 -14.9886 -14.9537 -14.9159 -14.8192 -14.8004 -14.7995 -14.7461
   -14.7115 -14.7096 -14.6333 -14.6207 -14.5433 -14.5077 -14.4963 -14.4818
    -9.3673  -9.3571  -9.2904  -9.2827  -9.2385  -9.2302  -9.1935  -9.1699
    -9.1112  -9.0915  -9.0235  -8.9939  -8.8953  -8.8934  -8.8890  -8.8060
    -8.6452  -8.5147  -8.4550  -8.3390  -8.3362  -8.3248  -8.2577  -8.1813
    -8.1468  -8.1312  -8.1252  -8.0120  -7.9118  -7.8224  -7.7537  -7.6998
    -7.6446  -7.5660  -7.5446  -7.4859  -7.4747  -7.4256  -7.3821  -7.3467
    -7.0647  -7.0292  -6.9280  -6.8700  -6.7218  -6.6544  -6.6447  -6.5779
    -6.5104  -6.4345  -6.3985  -6.3843  -6.2994  -6.2670  -6.2086  -6.1747
    -6.1403  -6.0878  -6.0348  -6.0281  -6.0267  -6.0215  -5.9291  -5.7665
    -5.7474  -5.7080  -5.6806  -5.5886  -5.5493  -5.5160  -5.4900  -5.3794
    -5.3686  -5.3423  -5.3189  -5.2701  -5.2528  -5.2478  -5.1975  -5.1772
    -5.1550  -5.1293  -5.1130  -5.0895  -4.9273  -4.9264  -4.9197  -4.8580
    -4.8568  -4.8534  -4.8295  -4.8228  -4.8016  -4.7551  -4.6586  -4.6531
    -4.6235  -4.6065  -4.5481  -4.4494  -4.4337  -4.4251  -4.4184  -4.3700
    -4.3220  -4.2992  -4.2767  -4.2420  -4.1917  -4.1744  -4.0817  -4.0584
    -3.9998  -3.9812  -3.9516  -3.9011  -3.8694  -3.8429  -3.7426  -3.7421
    -3.7410  -3.7041  -3.6729  -3.6671  -3.6271  -3.5953  -3.5903  -3.5855
    -3.5502  -3.5110  -3.4907  -3.4747  -3.4554  -3.4505  -3.4406  -3.3979
    -3.3820  -3.3746  -3.3366  -3.3248  -3.3033  -3.2218  -3.2058  -3.1913
     0.3378   1.3478   1.7571   2.4427   2.6707   2.7555   2.8535   3.1731
     3.1909   3.2851   3.3093   3.4215   3.4696   3.6119   3.6966   3.7046

     occupation numbers 
     1.0000   1.0000   1.0000   1.0000   1.0000   1.0000   1.0000   1.0000
     1.0000   1.0000   1.0000   1.0000   1.0000   1.0000   1.0000   1.0000
     1.0000   1.0000   1.0000   1.0000   1.0000   1.0000   1.0000   1.0000
     1.0000   1.0000   1.0000   1.0000   1.0000   1.0000   1.0000   1.0000
     1.0000   1.0000   1.0000   1.0000   1.0000   1.0000   1.0000   1.0000
     1.0000   1.0000   1.0000   1.0000   1.0000   1.0000   1.0000   1.0000
     1.0000   1.0000   1.0000   1.0000   1.0000   1.0000   1.0000   1.0000
     1.0000   1.0000   1.0000   1.0000   1.0000   1.0000   1.0000   1.0000
     1.0000   1.0000   1.0000   1.0000   1.0000   1.0000   1.0000   1.0000
     1.0000   1.0000   1.0000   1.0000   1.0000   1.0000   1.0000   1.0000
     1.0000   1.0000   1.0000   1.0000   1.0000   1.0000   1.0000   1.0000
     1.0000   1.0000   1.0000   1.0000   1.0000   1.0000   1.0000   1.0000
     1.0000   1.0000   1.0000   1.0000   1.0000   1.0000   1.0000   1.0000
     1.0000   1.0000   1.0000   1.0000   1.0000   1.0000   1.0000   1.0000
     1.0000   1.0000   1.0000   1.0000   1.0000   1.0000   1.0000   1.0000
     1.0000   1.0000   1.0000   1.0000   1.0000   1.0000   1.0000   1.0000
     1.0000   1.0000   1.0000   1.0000   1.0000   1.0000   1.0000   1.0000
     1.0000   1.0000   1.0000   1.0000   1.0000   1.0000   1.0000   1.0000
     1.0000   1.0000   1.0000   1.0000   1.0000   1.0000   1.0000   1.0000
     1.0000   1.0000   1.0000   1.0000   1.0000   1.0000   1.0000   1.0000
     1.0000   1.0000   1.0000   1.0000   1.0000   1.0000   1.0000   1.0000
     1.0000   1.0000   1.0000   1.0000   1.0000   1.0000   1.0000   1.0000
     1.0000   1.0000   1.0000   1.0000   1.0000   1.0000   1.0000   1.0000
     1.0000   1.0000   1.0000   1.0000   1.0000   1.0000   1.0000   1.0000
     1.0000   1.0000   1.0000   1.0000   1.0000   1.0000   1.0000   1.0000
     1.0000   1.0000   1.0000   1.0000   1.0000   1.0000   1.0000   1.0000
     1.0000   1.0000   1.0000   1.0000   1.0000   1.0000   1.0000   1.0000
     1.0000   1.0000   1.0000   1.0000   1.0000   1.0000   1.0000   1.0000
     1.0000   1.0000   1.0000   1.0000   1.0000   1.0000   1.0000   1.0000
     1.0000   1.0000   1.0000   1.0000   1.0000   1.0000   1.0000   1.0000
     1.0000   1.0000   1.0000   1.0000   1.0000   1.0000   1.0000   1.0000
     1.0000   1.0000   1.0000   1.0000   1.0000   1.0000   1.0000   1.0000
     1.0000   1.0000   1.0000   1.0000   1.0000   1.0000   1.0000   1.0000
     1.0000   1.0000   1.0000   1.0000   1.0000   1.0000   1.0000   1.0000
     1.0000   1.0000   1.0000   1.0000   1.0000   1.0000   1.0000   1.0000
     1.0000   1.0000   1.0000   1.0000   1.0000   1.0000   1.0000   1.0000
     1.0000   1.0000   1.0000   1.0000   1.0000   1.0000   1.0000   1.0000
     1.0000   1.0000   1.0000   1.0000   1.0000   1.0000   1.0000   1.0000
     1.0000   1.0000   1.0000   1.0000   1.0000   1.0000   1.0000   1.0000
     0.0000   0.0000   0.0000   0.0000   0.0000   0.0000   0.0000   0.0000
     0.0000   0.0000   0.0000   0.0000   0.0000   0.0000   0.0000   0.0000

          k = 0.3333 0.3334 0.0000 (303835 PWs)   bands (ev):

   -23.0871 -23.0794 -23.0269 -23.0230 -23.0146 -23.0111 -22.9703 -22.9688
   -22.7130 -22.7128 -22.6849 -22.6844 -22.6630 -22.6625 -22.6354 -22.6350
   -22.6251 -22.6247 -22.6163 -22.6163 -22.5431 -22.5427 -22.5407 -22.5406
   -21.8806 -21.7954 -21.7774 -21.7166 -21.5304 -21.5048 -21.4974 -21.4550
   -21.4271 -21.3923 -21.3819 -21.3481 -21.3092 -21.3016 -21.2799 -21.2746
   -21.2509 -21.2401 -21.2209 -21.2105 -21.0920 -21.0796 -21.0738 -21.0553
   -15.6411 -15.6294 -15.6281 -15.6238 -15.6127 -15.6109 -15.6043 -15.5894
   -15.5845 -15.5844 -15.5810 -15.5760 -15.5668 -15.5644 -15.5541 -15.5444
   -15.5376 -15.5314 -15.5276 -15.5233 -15.5121 -15.5038 -15.4962 -15.4873
   -15.4816 -15.4793 -15.4691 -15.4687 -15.4640 -15.4608 -15.4475 -15.4461
   -15.4438 -15.4401 -15.4354 -15.4307 -15.4207 -15.4160 -15.4154 -15.4082
   -15.4056 -15.4037 -15.4015 -15.3947 -15.3863 -15.3838 -15.3795 -15.3793
   -15.3605 -15.3533 -15.3396 -15.3356 -15.3249 -15.3221 -15.3176 -15.3086
   -15.3068 -15.2993 -15.2919 -15.2899 -15.2844 -15.2784 -15.2749 -15.2687
   -15.2653 -15.2644 -15.2618 -15.2555 -15.2542 -15.2459 -15.2450 -15.2352
   -15.2291 -15.2273 -15.2263 -15.2233 -15.2181 -15.2077 -15.2061 -15.2028
   -15.1971 -15.1895 -15.1834 -15.1832 -15.1757 -15.1748 -15.1714 -15.1685
   -15.1650 -15.1641 -15.1557 -15.1554 -15.1482 -15.1479 -15.1431 -15.1403
   -15.1294 -15.1185 -15.1156 -15.1147 -15.0890 -15.0845 -15.0602 -15.0371
   -15.0302 -14.9867 -14.9672 -14.9398 -14.8416 -14.8361 -14.7865 -14.7731
   -14.6664 -14.6653 -14.6189 -14.5890 -14.5569 -14.5265 -14.5123 -14.5015
    -9.3595  -9.3368  -9.3241  -9.2980  -9.2530  -9.2378  -9.2353  -9.2094
    -9.0833  -9.0445  -9.0365  -9.0141  -8.8509  -8.8465  -8.8271  -8.7969
    -8.5542  -8.4646  -8.4553  -8.4296  -8.2916  -8.2800  -8.2396  -8.2326
    -8.1632  -8.1235  -8.1055  -8.0228  -7.9347  -7.9155  -7.7550  -7.7333
    -7.7220  -7.6976  -7.5945  -7.5676  -7.5327  -7.4459  -7.4285  -7.3957
    -7.0077  -6.9601  -6.8807  -6.8777  -6.6344  -6.5640  -6.5527  -6.4380
    -6.3913  -6.3858  -6.3616  -6.3508  -6.3392  -6.2839  -6.1969  -6.1477
    -6.0864  -6.0596  -6.0223  -5.9944  -5.9752  -5.9424  -5.9220  -5.8192
    -5.7670  -5.7221  -5.6882  -5.6871  -5.6090  -5.6070  -5.5635  -5.4680
    -5.3965  -5.3764  -5.3547  -5.3508  -5.3015  -5.2305  -5.1746  -5.1445
    -5.1232  -5.0963  -5.0623  -5.0298  -4.9963  -4.9864  -4.9703  -4.9285
    -4.9126  -4.8132  -4.7824  -4.7281  -4.6668  -4.6579  -4.6460  -4.6044
    -4.5556  -4.5084  -4.4926  -4.4914  -4.4582  -4.4293  -4.4170  -4.3672
    -4.3256  -4.3007  -4.2563  -4.2502  -4.2195  -4.1546  -4.1367  -4.1202
    -4.0872  -3.9854  -3.9699  -3.9513  -3.8842  -3.8582  -3.8084  -3.7840
    -3.7725  -3.7503  -3.7285  -3.7026  -3.6231  -3.6152  -3.6101  -3.5634
    -3.5428  -3.5181  -3.4789  -3.4769  -3.4602  -3.4337  -3.4223  -3.3967
    -3.3882  -3.3241  -3.3225  -3.3122  -3.2424  -3.2161  -3.1833  -3.1767
     0.7358   1.6376   1.6440   2.0084   2.3411   2.6303   2.6463   2.9834
     3.1601   3.4897   3.4920   3.5622   3.6543   3.6892   3.8198   3.8586

     occupation numbers 
     1.0000   1.0000   1.0000   1.0000   1.0000   1.0000   1.0000   1.0000
     1.0000   1.0000   1.0000   1.0000   1.0000   1.0000   1.0000   1.0000
     1.0000   1.0000   1.0000   1.0000   1.0000   1.0000   1.0000   1.0000
     1.0000   1.0000   1.0000   1.0000   1.0000   1.0000   1.0000   1.0000
     1.0000   1.0000   1.0000   1.0000   1.0000   1.0000   1.0000   1.0000
     1.0000   1.0000   1.0000   1.0000   1.0000   1.0000   1.0000   1.0000
     1.0000   1.0000   1.0000   1.0000   1.0000   1.0000   1.0000   1.0000
     1.0000   1.0000   1.0000   1.0000   1.0000   1.0000   1.0000   1.0000
     1.0000   1.0000   1.0000   1.0000   1.0000   1.0000   1.0000   1.0000
     1.0000   1.0000   1.0000   1.0000   1.0000   1.0000   1.0000   1.0000
     1.0000   1.0000   1.0000   1.0000   1.0000   1.0000   1.0000   1.0000
     1.0000   1.0000   1.0000   1.0000   1.0000   1.0000   1.0000   1.0000
     1.0000   1.0000   1.0000   1.0000   1.0000   1.0000   1.0000   1.0000
     1.0000   1.0000   1.0000   1.0000   1.0000   1.0000   1.0000   1.0000
     1.0000   1.0000   1.0000   1.0000   1.0000   1.0000   1.0000   1.0000
     1.0000   1.0000   1.0000   1.0000   1.0000   1.0000   1.0000   1.0000
     1.0000   1.0000   1.0000   1.0000   1.0000   1.0000   1.0000   1.0000
     1.0000   1.0000   1.0000   1.0000   1.0000   1.0000   1.0000   1.0000
     1.0000   1.0000   1.0000   1.0000   1.0000   1.0000   1.0000   1.0000
     1.0000   1.0000   1.0000   1.0000   1.0000   1.0000   1.0000   1.0000
     1.0000   1.0000   1.0000   1.0000   1.0000   1.0000   1.0000   1.0000
     1.0000   1.0000   1.0000   1.0000   1.0000   1.0000   1.0000   1.0000
     1.0000   1.0000   1.0000   1.0000   1.0000   1.0000   1.0000   1.0000
     1.0000   1.0000   1.0000   1.0000   1.0000   1.0000   1.0000   1.0000
     1.0000   1.0000   1.0000   1.0000   1.0000   1.0000   1.0000   1.0000
     1.0000   1.0000   1.0000   1.0000   1.0000   1.0000   1.0000   1.0000
     1.0000   1.0000   1.0000   1.0000   1.0000   1.0000   1.0000   1.0000
     1.0000   1.0000   1.0000   1.0000   1.0000   1.0000   1.0000   1.0000
     1.0000   1.0000   1.0000   1.0000   1.0000   1.0000   1.0000   1.0000
     1.0000   1.0000   1.0000   1.0000   1.0000   1.0000   1.0000   1.0000
     1.0000   1.0000   1.0000   1.0000   1.0000   1.0000   1.0000   1.0000
     1.0000   1.0000   1.0000   1.0000   1.0000   1.0000   1.0000   1.0000
     1.0000   1.0000   1.0000   1.0000   1.0000   1.0000   1.0000   1.0000
     1.0000   1.0000   1.0000   1.0000   1.0000   1.0000   1.0000   1.0000
     1.0000   1.0000   1.0000   1.0000   1.0000   1.0000   1.0000   1.0000
     1.0000   1.0000   1.0000   1.0000   1.0000   1.0000   1.0000   1.0000
     1.0000   1.0000   1.0000   1.0000   1.0000   1.0000   1.0000   1.0000
     1.0000   1.0000   1.0000   1.0000   1.0000   1.0000   1.0000   1.0000
     1.0000   1.0000   1.0000   1.0000   1.0000   1.0000   1.0000   1.0000
     0.0000   0.0000   0.0000   0.0000   0.0000   0.0000   0.0000   0.0000
     0.0000   0.0000   0.0000   0.0000   0.0000   0.0000   0.0000   0.0000

     highest occupied, lowest unoccupied level (ev):    -3.1765   -0.1290

!    total energy              =   -4057.48873487 Ry
     estimated scf accuracy    <          2.6E-10 Ry

     convergence has been achieved in   3 iterations

     Using ACE for calculation of exact exchange
     ACE projected onto   328 (nbndproj) and applied to   328 (nbnd) bands

     total energy              =   -4057.48873487 Ry
     Harris-Foulkes estimate   =   -4057.48873487 Ry
     est. exchange err (dexx)  =          1.4E-09 Ry
     - averaged Fock potential =     252.29426011 Ry
     + Fock energy (ACE)       =    -126.14715403 Ry

     EXX: now go back to refine exchange calculation

     total cpu time spent up to now is     2486.8 secs

     Self-consistent Calculation
[tb_dev] Currently allocated     3.66E-04 Mbytes, locked:    0 /   1
[tb_pin] Currently allocated     0.00E+00 Mbytes, locked:    0 /   0

     iteration #  1     ecut=    80.00 Ry     beta= 0.30
     Davidson diagonalization with overlap

---- Real-time Memory Report at c_bands before calling an iterative solver
         57246 MiB given to the printing process from OS
             0 MiB allocation reported by mallinfo(arena+hblkhd)
        255796 MiB available memory on the node where the printing process lives
     GPU memory used/free/total (MiB): 90306 / 5004 / 95311
------------------
     ethr =  1.94E-13,  avg # of iterations =  5.0

     total cpu time spent up to now is     2500.3 secs

     End of self-consistent calculation

          k = 0.0000 0.0000 0.0000 (303775 PWs)   bands (ev):

   -23.1442 -23.1324 -23.0066 -23.0041 -22.9769 -22.9755 -22.9183 -22.9180
   -22.7761 -22.7755 -22.6984 -22.6980 -22.6720 -22.6716 -22.6449 -22.6438
   -22.6289 -22.6281 -22.5827 -22.5822 -22.5379 -22.5369 -22.5333 -22.5333
   -21.9540 -21.7337 -21.6486 -21.6470 -21.6429 -21.5874 -21.5609 -21.4803
   -21.4283 -21.4122 -21.4065 -21.3268 -21.3243 -21.2863 -21.2756 -21.2720
   -21.2317 -21.2273 -21.1937 -21.1669 -21.1137 -21.1133 -21.0919 -21.0480
   -15.6547 -15.6337 -15.6334 -15.6250 -15.6132 -15.6093 -15.6056 -15.5992
   -15.5945 -15.5893 -15.5849 -15.5676 -15.5595 -15.5566 -15.5546 -15.5416
   -15.5399 -15.5230 -15.5214 -15.5146 -15.5104 -15.4990 -15.4870 -15.4868
   -15.4857 -15.4811 -15.4793 -15.4726 -15.4637 -15.4517 -15.4476 -15.4458
   -15.4418 -15.4384 -15.4362 -15.4358 -15.4259 -15.4233 -15.4194 -15.4063
   -15.3818 -15.3815 -15.3789 -15.3664 -15.3646 -15.3631 -15.3573 -15.3572
   -15.3506 -15.3496 -15.3458 -15.3450 -15.3301 -15.3251 -15.3162 -15.3150
   -15.3080 -15.3005 -15.2967 -15.2885 -15.2804 -15.2797 -15.2790 -15.2788
   -15.2760 -15.2748 -15.2742 -15.2591 -15.2568 -15.2552 -15.2508 -15.2459
   -15.2370 -15.2349 -15.2311 -15.2304 -15.2294 -15.2276 -15.2146 -15.2036
   -15.1988 -15.1886 -15.1860 -15.1840 -15.1838 -15.1794 -15.1697 -15.1678
   -15.1675 -15.1606 -15.1596 -15.1454 -15.1445 -15.1399 -15.1371 -15.1317
   -15.1273 -15.1257 -15.1120 -15.1117 -15.1090 -15.0952 -15.0825 -15.0656
   -14.9723 -14.9520 -14.9321 -14.8840 -14.8487 -14.8486 -14.7868 -14.7867
   -14.7478 -14.6600 -14.6301 -14.6109 -14.5753 -14.5047 -14.4879 -14.4456
    -9.4013  -9.3851  -9.2640  -9.2409  -9.2290  -9.2051  -9.1952  -9.1240
    -9.1026  -9.0382  -9.0334  -8.9796  -8.9777  -8.9719  -8.9276  -8.8057
    -8.7981  -8.5053  -8.4810  -8.4173  -8.2876  -8.2425  -8.2256  -8.1302
    -8.1263  -8.1078  -8.0516  -7.9462  -7.8963  -7.8661  -7.8323  -7.7939
    -7.5928  -7.5870  -7.5258  -7.3823  -7.3343  -7.3020  -7.2604  -7.1631
    -7.1210  -7.0409  -6.9921  -6.9010  -6.8858  -6.7594  -6.6850  -6.6669
    -6.6071  -6.5474  -6.4762  -6.4592  -6.3342  -6.2409  -6.1945  -6.1931
    -6.1790  -6.0818  -6.0792  -6.0126  -6.0010  -5.9811  -5.9590  -5.8861
    -5.7657  -5.7071  -5.6419  -5.5117  -5.4603  -5.4093  -5.3965  -5.3775
    -5.3579  -5.3344  -5.3243  -5.2490  -5.2474  -5.1914  -5.1770  -5.1337
    -5.1295  -5.0826  -5.0751  -5.0622  -5.0622  -5.0005  -4.9798  -4.9688
    -4.9596  -4.9190  -4.8849  -4.8420  -4.7655  -4.7393  -4.7082  -4.6724
    -4.6178  -4.5231  -4.4933  -4.4644  -4.4505  -4.4040  -4.3850  -4.3728
    -4.3536  -4.3476  -4.3443  -4.2622  -4.1346  -4.1283  -4.1219  -4.1103
    -4.0992  -3.9907  -3.8864  -3.7934  -3.7755  -3.7487  -3.7476  -3.7388
    -3.6907  -3.6678  -3.6613  -3.6596  -3.6273  -3.6022  -3.6001  -3.5963
    -3.5954  -3.5229  -3.4694  -3.4626  -3.4472  -3.4146  -3.3932  -3.3925
    -3.3893  -3.3782  -3.3753  -3.2927  -3.2891  -3.2886  -3.2415  -3.1764
    -0.1289   1.4760   2.4695   2.4724   2.4912   2.5272   2.6768   3.1850
     3.2771   3.3165   3.4058   3.4913   3.5489   3.5701   3.6635   3.6781

     occupation numbers 
     1.0000   1.0000   1.0000   1.0000   1.0000   1.0000   1.0000   1.0000
     1.0000   1.0000   1.0000   1.0000   1.0000   1.0000   1.0000   1.0000
     1.0000   1.0000   1.0000   1.0000   1.0000   1.0000   1.0000   1.0000
     1.0000   1.0000   1.0000   1.0000   1.0000   1.0000   1.0000   1.0000
     1.0000   1.0000   1.0000   1.0000   1.0000   1.0000   1.0000   1.0000
     1.0000   1.0000   1.0000   1.0000   1.0000   1.0000   1.0000   1.0000
     1.0000   1.0000   1.0000   1.0000   1.0000   1.0000   1.0000   1.0000
     1.0000   1.0000   1.0000   1.0000   1.0000   1.0000   1.0000   1.0000
     1.0000   1.0000   1.0000   1.0000   1.0000   1.0000   1.0000   1.0000
     1.0000   1.0000   1.0000   1.0000   1.0000   1.0000   1.0000   1.0000
     1.0000   1.0000   1.0000   1.0000   1.0000   1.0000   1.0000   1.0000
     1.0000   1.0000   1.0000   1.0000   1.0000   1.0000   1.0000   1.0000
     1.0000   1.0000   1.0000   1.0000   1.0000   1.0000   1.0000   1.0000
     1.0000   1.0000   1.0000   1.0000   1.0000   1.0000   1.0000   1.0000
     1.0000   1.0000   1.0000   1.0000   1.0000   1.0000   1.0000   1.0000
     1.0000   1.0000   1.0000   1.0000   1.0000   1.0000   1.0000   1.0000
     1.0000   1.0000   1.0000   1.0000   1.0000   1.0000   1.0000   1.0000
     1.0000   1.0000   1.0000   1.0000   1.0000   1.0000   1.0000   1.0000
     1.0000   1.0000   1.0000   1.0000   1.0000   1.0000   1.0000   1.0000
     1.0000   1.0000   1.0000   1.0000   1.0000   1.0000   1.0000   1.0000
     1.0000   1.0000   1.0000   1.0000   1.0000   1.0000   1.0000   1.0000
     1.0000   1.0000   1.0000   1.0000   1.0000   1.0000   1.0000   1.0000
     1.0000   1.0000   1.0000   1.0000   1.0000   1.0000   1.0000   1.0000
     1.0000   1.0000   1.0000   1.0000   1.0000   1.0000   1.0000   1.0000
     1.0000   1.0000   1.0000   1.0000   1.0000   1.0000   1.0000   1.0000
     1.0000   1.0000   1.0000   1.0000   1.0000   1.0000   1.0000   1.0000
     1.0000   1.0000   1.0000   1.0000   1.0000   1.0000   1.0000   1.0000
     1.0000   1.0000   1.0000   1.0000   1.0000   1.0000   1.0000   1.0000
     1.0000   1.0000   1.0000   1.0000   1.0000   1.0000   1.0000   1.0000
     1.0000   1.0000   1.0000   1.0000   1.0000   1.0000   1.0000   1.0000
     1.0000   1.0000   1.0000   1.0000   1.0000   1.0000   1.0000   1.0000
     1.0000   1.0000   1.0000   1.0000   1.0000   1.0000   1.0000   1.0000
     1.0000   1.0000   1.0000   1.0000   1.0000   1.0000   1.0000   1.0000
     1.0000   1.0000   1.0000   1.0000   1.0000   1.0000   1.0000   1.0000
     1.0000   1.0000   1.0000   1.0000   1.0000   1.0000   1.0000   1.0000
     1.0000   1.0000   1.0000   1.0000   1.0000   1.0000   1.0000   1.0000
     1.0000   1.0000   1.0000   1.0000   1.0000   1.0000   1.0000   1.0000
     1.0000   1.0000   1.0000   1.0000   1.0000   1.0000   1.0000   1.0000
     1.0000   1.0000   1.0000   1.0000   1.0000   1.0000   1.0000   1.0000
     0.0000   0.0000   0.0000   0.0000   0.0000   0.0000   0.0000   0.0000
     0.0000   0.0000   0.0000   0.0000   0.0000   0.0000   0.0000   0.0000

          k = 0.0000 0.3334 0.0000 (303760 PWs)   bands (ev):

   -23.1126 -23.1032 -23.0342 -23.0297 -22.9880 -22.9862 -22.9444 -22.9440
   -22.7351 -22.7348 -22.6908 -22.6907 -22.6770 -22.6762 -22.6371 -22.6359
   -22.6264 -22.6253 -22.5974 -22.5972 -22.5419 -22.5409 -22.5386 -22.5383
   -21.9185 -21.8258 -21.6413 -21.6354 -21.6229 -21.5828 -21.4866 -21.4705
   -21.4491 -21.3925 -21.3920 -21.3684 -21.3132 -21.2861 -21.2805 -21.2797
   -21.2291 -21.2270 -21.1950 -21.1942 -21.1049 -21.0943 -21.0788 -21.0532
   -15.6440 -15.6209 -15.6181 -15.6086 -15.6075 -15.6068 -15.6065 -15.5873
   -15.5858 -15.5849 -15.5812 -15.5782 -15.5698 -15.5595 -15.5460 -15.5391
   -15.5361 -15.5267 -15.5233 -15.5176 -15.5121 -15.5046 -15.5017 -15.4933
   -15.4889 -15.4829 -15.4767 -15.4754 -15.4731 -15.4596 -15.4570 -15.4530
   -15.4458 -15.4400 -15.4400 -15.4356 -15.4284 -15.4256 -15.4169 -15.4131
   -15.3955 -15.3949 -15.3899 -15.3856 -15.3846 -15.3813 -15.3800 -15.3765
   -15.3697 -15.3535 -15.3492 -15.3476 -15.3463 -15.3270 -15.3226 -15.3131
   -15.3066 -15.3027 -15.2991 -15.2898 -15.2836 -15.2804 -15.2721 -15.2685
   -15.2614 -15.2605 -15.2567 -15.2519 -15.2513 -15.2463 -15.2408 -15.2376
   -15.2291 -15.2243 -15.2178 -15.2166 -15.2090 -15.2071 -15.2050 -15.1958
   -15.1937 -15.1927 -15.1883 -15.1855 -15.1825 -15.1817 -15.1724 -15.1707
   -15.1627 -15.1588 -15.1563 -15.1538 -15.1422 -15.1379 -15.1378 -15.1341
   -15.1307 -15.1265 -15.1216 -15.1138 -15.1048 -15.0822 -15.0706 -15.0443
   -15.0265 -14.9330 -14.9108 -14.9099 -14.8263 -14.8145 -14.7905 -14.7774
   -14.7382 -14.6856 -14.6849 -14.6673 -14.5106 -14.5009 -14.4928 -14.4615
    -9.3852  -9.3508  -9.3305  -9.2648  -9.2363  -9.2327  -9.2128  -9.1852
    -9.1010  -9.0569  -9.0148  -9.0024  -8.8946  -8.8812  -8.8356  -8.7960
    -8.6746  -8.4630  -8.4566  -8.4292  -8.3586  -8.3432  -8.3221  -8.1879
    -8.1393  -8.0827  -7.9828  -7.9722  -7.9018  -7.8885  -7.8588  -7.7930
    -7.7231  -7.6921  -7.5453  -7.3396  -7.3270  -7.2443  -7.2205  -7.1901
    -7.1464  -7.1182  -7.0696  -6.9105  -6.7384  -6.6890  -6.6273  -6.5486
    -6.4862  -6.4629  -6.4336  -6.3720  -6.3319  -6.2870  -6.2609  -6.1913
    -6.0676  -6.0542  -6.0199  -6.0126  -5.9189  -5.9132  -5.8242  -5.7888
    -5.7784  -5.7257  -5.7254  -5.7225  -5.6817  -5.6513  -5.6048  -5.4751
    -5.4042  -5.3607  -5.3243  -5.3055  -5.2762  -5.2668  -5.1866  -5.1514
    -5.0982  -5.0612  -5.0568  -5.0019  -4.9808  -4.9582  -4.9516  -4.8901
    -4.8883  -4.8765  -4.8096  -4.7940  -4.7126  -4.7013  -4.6003  -4.5955
    -4.5864  -4.5779  -4.5392  -4.5302  -4.4821  -4.4006  -4.3892  -4.3470
    -4.2906  -4.2571  -4.2121  -4.1843  -4.1401  -4.1235  -4.1096  -4.0923
    -4.0345  -3.9824  -3.9571  -3.9352  -3.9142  -3.8754  -3.7729  -3.7493
    -3.7429  -3.6873  -3.6774  -3.6326  -3.6305  -3.6031  -3.5657  -3.5548
    -3.5540  -3.5374  -3.4967  -3.4745  -3.4458  -3.4423  -3.4300  -3.4257
    -3.4085  -3.3906  -3.3389  -3.3322  -3.2552  -3.2534  -3.2225  -3.2005
     0.3396   1.3561   1.7569   2.4374   2.6785   2.6845   2.8740   3.1097
     3.1608   3.3464   3.4158   3.4253   3.4857   3.5962   3.6972   3.7052

     occupation numbers 
     1.0000   1.0000   1.0000   1.0000   1.0000   1.0000   1.0000   1.0000
     1.0000   1.0000   1.0000   1.0000   1.0000   1.0000   1.0000   1.0000
     1.0000   1.0000   1.0000   1.0000   1.0000   1.0000   1.0000   1.0000
     1.0000   1.0000   1.0000   1.0000   1.0000   1.0000   1.0000   1.0000
     1.0000   1.0000   1.0000   1.0000   1.0000   1.0000   1.0000   1.0000
     1.0000   1.0000   1.0000   1.0000   1.0000   1.0000   1.0000   1.0000
     1.0000   1.0000   1.0000   1.0000   1.0000   1.0000   1.0000   1.0000
     1.0000   1.0000   1.0000   1.0000   1.0000   1.0000   1.0000   1.0000
     1.0000   1.0000   1.0000   1.0000   1.0000   1.0000   1.0000   1.0000
     1.0000   1.0000   1.0000   1.0000   1.0000   1.0000   1.0000   1.0000
     1.0000   1.0000   1.0000   1.0000   1.0000   1.0000   1.0000   1.0000
     1.0000   1.0000   1.0000   1.0000   1.0000   1.0000   1.0000   1.0000
     1.0000   1.0000   1.0000   1.0000   1.0000   1.0000   1.0000   1.0000
     1.0000   1.0000   1.0000   1.0000   1.0000   1.0000   1.0000   1.0000
     1.0000   1.0000   1.0000   1.0000   1.0000   1.0000   1.0000   1.0000
     1.0000   1.0000   1.0000   1.0000   1.0000   1.0000   1.0000   1.0000
     1.0000   1.0000   1.0000   1.0000   1.0000   1.0000   1.0000   1.0000
     1.0000   1.0000   1.0000   1.0000   1.0000   1.0000   1.0000   1.0000
     1.0000   1.0000   1.0000   1.0000   1.0000   1.0000   1.0000   1.0000
     1.0000   1.0000   1.0000   1.0000   1.0000   1.0000   1.0000   1.0000
     1.0000   1.0000   1.0000   1.0000   1.0000   1.0000   1.0000   1.0000
     1.0000   1.0000   1.0000   1.0000   1.0000   1.0000   1.0000   1.0000
     1.0000   1.0000   1.0000   1.0000   1.0000   1.0000   1.0000   1.0000
     1.0000   1.0000   1.0000   1.0000   1.0000   1.0000   1.0000   1.0000
     1.0000   1.0000   1.0000   1.0000   1.0000   1.0000   1.0000   1.0000
     1.0000   1.0000   1.0000   1.0000   1.0000   1.0000   1.0000   1.0000
     1.0000   1.0000   1.0000   1.0000   1.0000   1.0000   1.0000   1.0000
     1.0000   1.0000   1.0000   1.0000   1.0000   1.0000   1.0000   1.0000
     1.0000   1.0000   1.0000   1.0000   1.0000   1.0000   1.0000   1.0000
     1.0000   1.0000   1.0000   1.0000   1.0000   1.0000   1.0000   1.0000
     1.0000   1.0000   1.0000   1.0000   1.0000   1.0000   1.0000   1.0000
     1.0000   1.0000   1.0000   1.0000   1.0000   1.0000   1.0000   1.0000
     1.0000   1.0000   1.0000   1.0000   1.0000   1.0000   1.0000   1.0000
     1.0000   1.0000   1.0000   1.0000   1.0000   1.0000   1.0000   1.0000
     1.0000   1.0000   1.0000   1.0000   1.0000   1.0000   1.0000   1.0000
     1.0000   1.0000   1.0000   1.0000   1.0000   1.0000   1.0000   1.0000
     1.0000   1.0000   1.0000   1.0000   1.0000   1.0000   1.0000   1.0000
     1.0000   1.0000   1.0000   1.0000   1.0000   1.0000   1.0000   1.0000
     1.0000   1.0000   1.0000   1.0000   1.0000   1.0000   1.0000   1.0000
     0.0000   0.0000   0.0000   0.0000   0.0000   0.0000   0.0000   0.0000
     0.0000   0.0000   0.0000   0.0000   0.0000   0.0000   0.0000   0.0000

          k = 0.3333 0.0000 0.0000 (303760 PWs)   bands (ev):

   -23.1164 -23.1068 -23.0504 -23.0452 -22.9629 -22.9621 -22.9329 -22.9328
   -22.7550 -22.7541 -22.7189 -22.7183 -22.6506 -22.6503 -22.6275 -22.6272
   -22.6241 -22.6232 -22.6004 -22.6000 -22.5401 -22.5400 -22.5387 -22.5382
   -21.9134 -21.8031 -21.7145 -21.6739 -21.5804 -21.5644 -21.4882 -21.4539
   -21.4350 -21.4150 -21.3967 -21.3183 -21.3039 -21.3011 -21.2735 -21.2651
   -21.2518 -21.2314 -21.2261 -21.1912 -21.1059 -21.1045 -21.0679 -21.0486
   -15.6437 -15.6323 -15.6223 -15.6127 -15.6059 -15.6004 -15.5999 -15.5972
   -15.5783 -15.5765 -15.5700 -15.5674 -15.5669 -15.5667 -15.5637 -15.5459
   -15.5443 -15.5391 -15.5306 -15.5190 -15.5138 -15.5111 -15.5031 -15.4977
   -15.4967 -15.4905 -15.4694 -15.4660 -15.4625 -15.4523 -15.4477 -15.4464
   -15.4446 -15.4437 -15.4364 -15.4346 -15.4230 -15.4203 -15.4192 -15.4130
   -15.4074 -15.4026 -15.3890 -15.3848 -15.3713 -15.3681 -15.3663 -15.3636
   -15.3568 -15.3548 -15.3512 -15.3509 -15.3270 -15.3241 -15.3232 -15.3169
   -15.3117 -15.2957 -15.2918 -15.2872 -15.2788 -15.2783 -15.2771 -15.2738
   -15.2678 -15.2676 -15.2674 -15.2668 -15.2530 -15.2516 -15.2418 -15.2404
   -15.2370 -15.2353 -15.2228 -15.2130 -15.2096 -15.2033 -15.2001 -15.1901
   -15.1879 -15.1876 -15.1861 -15.1845 -15.1775 -15.1753 -15.1731 -15.1703
   -15.1678 -15.1622 -15.1617 -15.1505 -15.1470 -15.1433 -15.1405 -15.1342
   -15.1263 -15.1180 -15.1178 -15.1094 -15.0862 -15.0802 -15.0794 -15.0559
   -15.0381 -14.9886 -14.9536 -14.9158 -14.8191 -14.8003 -14.7994 -14.7460
   -14.7114 -14.7095 -14.6332 -14.6206 -14.5432 -14.5076 -14.4962 -14.4817
    -9.3673  -9.3570  -9.2903  -9.2827  -9.2385  -9.2302  -9.1935  -9.1699
    -9.1112  -9.0915  -9.0235  -8.9939  -8.8953  -8.8934  -8.8889  -8.8060
    -8.6451  -8.5146  -8.4549  -8.3390  -8.3362  -8.3248  -8.2576  -8.1813
    -8.1468  -8.1312  -8.1252  -8.0120  -7.9117  -7.8223  -7.7537  -7.6997
    -7.6445  -7.5659  -7.5445  -7.4858  -7.4747  -7.4255  -7.3820  -7.3466
    -7.0646  -7.0291  -6.9280  -6.8699  -6.7217  -6.6543  -6.6446  -6.5778
    -6.5103  -6.4344  -6.3984  -6.3842  -6.2994  -6.2669  -6.2085  -6.1746
    -6.1402  -6.0877  -6.0347  -6.0280  -6.0266  -6.0215  -5.9290  -5.7664
    -5.7473  -5.7079  -5.6805  -5.5886  -5.5493  -5.5160  -5.4899  -5.3793
    -5.3686  -5.3422  -5.3188  -5.2701  -5.2527  -5.2477  -5.1975  -5.1771
    -5.1550  -5.1292  -5.1129  -5.0894  -4.9273  -4.9264  -4.9196  -4.8580
    -4.8567  -4.8534  -4.8294  -4.8228  -4.8016  -4.7551  -4.6586  -4.6530
    -4.6235  -4.6065  -4.5481  -4.4493  -4.4337  -4.4251  -4.4184  -4.3700
    -4.3219  -4.2992  -4.2767  -4.2420  -4.1917  -4.1744  -4.0816  -4.0583
    -3.9998  -3.9812  -3.9515  -3.9010  -3.8694  -3.8428  -3.7426  -3.7420
    -3.7409  -3.7040  -3.6728  -3.6671  -3.6271  -3.5953  -3.5902  -3.5854
    -3.5501  -3.5109  -3.4907  -3.4746  -3.4554  -3.4504  -3.4405  -3.3978
    -3.3820  -3.3746  -3.3365  -3.3248  -3.3032  -3.2217  -3.2058  -3.1912
     0.3379   1.3479   1.7572   2.4427   2.6707   2.7555   2.8536   3.1731
     3.1910   3.2852   3.3094   3.4216   3.4697   3.6119   3.6967   3.7059

     occupation numbers 
     1.0000   1.0000   1.0000   1.0000   1.0000   1.0000   1.0000   1.0000
     1.0000   1.0000   1.0000   1.0000   1.0000   1.0000   1.0000   1.0000
     1.0000   1.0000   1.0000   1.0000   1.0000   1.0000   1.0000   1.0000
     1.0000   1.0000   1.0000   1.0000   1.0000   1.0000   1.0000   1.0000
     1.0000   1.0000   1.0000   1.0000   1.0000   1.0000   1.0000   1.0000
     1.0000   1.0000   1.0000   1.0000   1.0000   1.0000   1.0000   1.0000
     1.0000   1.0000   1.0000   1.0000   1.0000   1.0000   1.0000   1.0000
     1.0000   1.0000   1.0000   1.0000   1.0000   1.0000   1.0000   1.0000
     1.0000   1.0000   1.0000   1.0000   1.0000   1.0000   1.0000   1.0000
     1.0000   1.0000   1.0000   1.0000   1.0000   1.0000   1.0000   1.0000
     1.0000   1.0000   1.0000   1.0000   1.0000   1.0000   1.0000   1.0000
     1.0000   1.0000   1.0000   1.0000   1.0000   1.0000   1.0000   1.0000
     1.0000   1.0000   1.0000   1.0000   1.0000   1.0000   1.0000   1.0000
     1.0000   1.0000   1.0000   1.0000   1.0000   1.0000   1.0000   1.0000
     1.0000   1.0000   1.0000   1.0000   1.0000   1.0000   1.0000   1.0000
     1.0000   1.0000   1.0000   1.0000   1.0000   1.0000   1.0000   1.0000
     1.0000   1.0000   1.0000   1.0000   1.0000   1.0000   1.0000   1.0000
     1.0000   1.0000   1.0000   1.0000   1.0000   1.0000   1.0000   1.0000
     1.0000   1.0000   1.0000   1.0000   1.0000   1.0000   1.0000   1.0000
     1.0000   1.0000   1.0000   1.0000   1.0000   1.0000   1.0000   1.0000
     1.0000   1.0000   1.0000   1.0000   1.0000   1.0000   1.0000   1.0000
     1.0000   1.0000   1.0000   1.0000   1.0000   1.0000   1.0000   1.0000
     1.0000   1.0000   1.0000   1.0000   1.0000   1.0000   1.0000   1.0000
     1.0000   1.0000   1.0000   1.0000   1.0000   1.0000   1.0000   1.0000
     1.0000   1.0000   1.0000   1.0000   1.0000   1.0000   1.0000   1.0000
     1.0000   1.0000   1.0000   1.0000   1.0000   1.0000   1.0000   1.0000
     1.0000   1.0000   1.0000   1.0000   1.0000   1.0000   1.0000   1.0000
     1.0000   1.0000   1.0000   1.0000   1.0000   1.0000   1.0000   1.0000
     1.0000   1.0000   1.0000   1.0000   1.0000   1.0000   1.0000   1.0000
     1.0000   1.0000   1.0000   1.0000   1.0000   1.0000   1.0000   1.0000
     1.0000   1.0000   1.0000   1.0000   1.0000   1.0000   1.0000   1.0000
     1.0000   1.0000   1.0000   1.0000   1.0000   1.0000   1.0000   1.0000
     1.0000   1.0000   1.0000   1.0000   1.0000   1.0000   1.0000   1.0000
     1.0000   1.0000   1.0000   1.0000   1.0000   1.0000   1.0000   1.0000
     1.0000   1.0000   1.0000   1.0000   1.0000   1.0000   1.0000   1.0000
     1.0000   1.0000   1.0000   1.0000   1.0000   1.0000   1.0000   1.0000
     1.0000   1.0000   1.0000   1.0000   1.0000   1.0000   1.0000   1.0000
     1.0000   1.0000   1.0000   1.0000   1.0000   1.0000   1.0000   1.0000
     1.0000   1.0000   1.0000   1.0000   1.0000   1.0000   1.0000   1.0000
     0.0000   0.0000   0.0000   0.0000   0.0000   0.0000   0.0000   0.0000
     0.0000   0.0000   0.0000   0.0000   0.0000   0.0000   0.0000   0.0000

          k = 0.3333 0.3334 0.0000 (303835 PWs)   bands (ev):

   -23.0870 -23.0794 -23.0269 -23.0230 -23.0146 -23.0111 -22.9703 -22.9688
   -22.7130 -22.7128 -22.6849 -22.6844 -22.6630 -22.6625 -22.6354 -22.6350
   -22.6251 -22.6247 -22.6163 -22.6163 -22.5430 -22.5427 -22.5407 -22.5406
   -21.8805 -21.7953 -21.7773 -21.7165 -21.5303 -21.5047 -21.4973 -21.4549
   -21.4270 -21.3922 -21.3818 -21.3480 -21.3091 -21.3015 -21.2798 -21.2745
   -21.2509 -21.2400 -21.2208 -21.2104 -21.0919 -21.0795 -21.0737 -21.0552
   -15.6410 -15.6293 -15.6280 -15.6237 -15.6126 -15.6108 -15.6042 -15.5893
   -15.5844 -15.5843 -15.5810 -15.5759 -15.5667 -15.5643 -15.5541 -15.5443
   -15.5375 -15.5313 -15.5275 -15.5233 -15.5120 -15.5038 -15.4961 -15.4872
   -15.4815 -15.4792 -15.4690 -15.4686 -15.4639 -15.4607 -15.4474 -15.4461
   -15.4437 -15.4400 -15.4353 -15.4306 -15.4206 -15.4159 -15.4153 -15.4081
   -15.4055 -15.4036 -15.4014 -15.3946 -15.3862 -15.3838 -15.3794 -15.3793
   -15.3605 -15.3533 -15.3395 -15.3356 -15.3249 -15.3220 -15.3175 -15.3085
   -15.3067 -15.2993 -15.2918 -15.2899 -15.2843 -15.2783 -15.2748 -15.2686
   -15.2652 -15.2643 -15.2617 -15.2554 -15.2542 -15.2458 -15.2449 -15.2352
   -15.2291 -15.2272 -15.2262 -15.2233 -15.2180 -15.2077 -15.2060 -15.2027
   -15.1970 -15.1894 -15.1833 -15.1832 -15.1756 -15.1747 -15.1714 -15.1684
   -15.1649 -15.1640 -15.1556 -15.1553 -15.1481 -15.1478 -15.1430 -15.1402
   -15.1292 -15.1184 -15.1155 -15.1146 -15.0889 -15.0845 -15.0601 -15.0370
   -15.0301 -14.9867 -14.9671 -14.9397 -14.8415 -14.8360 -14.7864 -14.7730
   -14.6664 -14.6652 -14.6188 -14.5889 -14.5568 -14.5264 -14.5122 -14.5014
    -9.3595  -9.3367  -9.3240  -9.2979  -9.2529  -9.2377  -9.2352  -9.2094
    -9.0833  -9.0445  -9.0365  -9.0141  -8.8509  -8.8465  -8.8271  -8.7969
    -8.5541  -8.4646  -8.4552  -8.4296  -8.2915  -8.2800  -8.2395  -8.2326
    -8.1631  -8.1234  -8.1054  -8.0227  -7.9346  -7.9155  -7.7550  -7.7333
    -7.7219  -7.6976  -7.5944  -7.5676  -7.5327  -7.4459  -7.4284  -7.3956
    -7.0077  -6.9600  -6.8806  -6.8776  -6.6344  -6.5639  -6.5526  -6.4379
    -6.3912  -6.3858  -6.3615  -6.3508  -6.3391  -6.2839  -6.1968  -6.1476
    -6.0863  -6.0596  -6.0222  -5.9943  -5.9751  -5.9424  -5.9220  -5.8191
    -5.7669  -5.7220  -5.6882  -5.6870  -5.6089  -5.6069  -5.5634  -5.4679
    -5.3964  -5.3764  -5.3547  -5.3507  -5.3015  -5.2305  -5.1745  -5.1444
    -5.1232  -5.0962  -5.0623  -5.0298  -4.9963  -4.9863  -4.9703  -4.9284
    -4.9126  -4.8132  -4.7824  -4.7281  -4.6668  -4.6578  -4.6459  -4.6043
    -4.5555  -4.5084  -4.4926  -4.4914  -4.4581  -4.4293  -4.4170  -4.3671
    -4.3256  -4.3007  -4.2563  -4.2502  -4.2194  -4.1545  -4.1366  -4.1202
    -4.0872  -3.9853  -3.9699  -3.9512  -3.8841  -3.8581  -3.8083  -3.7840
    -3.7724  -3.7503  -3.7284  -3.7026  -3.6230  -3.6151  -3.6100  -3.5633
    -3.5428  -3.5180  -3.4788  -3.4768  -3.4602  -3.4337  -3.4222  -3.3966
    -3.3882  -3.3241  -3.3224  -3.3121  -3.2424  -3.2160  -3.1832  -3.1766
     0.7359   1.6376   1.6441   2.0085   2.3412   2.6303   2.6464   2.9835
     3.1602   3.4897   3.4920   3.5623   3.6544   3.6892   3.8196   3.8587

     occupation numbers 
     1.0000   1.0000   1.0000   1.0000   1.0000   1.0000   1.0000   1.0000
     1.0000   1.0000   1.0000   1.0000   1.0000   1.0000   1.0000   1.0000
     1.0000   1.0000   1.0000   1.0000   1.0000   1.0000   1.0000   1.0000
     1.0000   1.0000   1.0000   1.0000   1.0000   1.0000   1.0000   1.0000
     1.0000   1.0000   1.0000   1.0000   1.0000   1.0000   1.0000   1.0000
     1.0000   1.0000   1.0000   1.0000   1.0000   1.0000   1.0000   1.0000
     1.0000   1.0000   1.0000   1.0000   1.0000   1.0000   1.0000   1.0000
     1.0000   1.0000   1.0000   1.0000   1.0000   1.0000   1.0000   1.0000
     1.0000   1.0000   1.0000   1.0000   1.0000   1.0000   1.0000   1.0000
     1.0000   1.0000   1.0000   1.0000   1.0000   1.0000   1.0000   1.0000
     1.0000   1.0000   1.0000   1.0000   1.0000   1.0000   1.0000   1.0000
     1.0000   1.0000   1.0000   1.0000   1.0000   1.0000   1.0000   1.0000
     1.0000   1.0000   1.0000   1.0000   1.0000   1.0000   1.0000   1.0000
     1.0000   1.0000   1.0000   1.0000   1.0000   1.0000   1.0000   1.0000
     1.0000   1.0000   1.0000   1.0000   1.0000   1.0000   1.0000   1.0000
     1.0000   1.0000   1.0000   1.0000   1.0000   1.0000   1.0000   1.0000
     1.0000   1.0000   1.0000   1.0000   1.0000   1.0000   1.0000   1.0000
     1.0000   1.0000   1.0000   1.0000   1.0000   1.0000   1.0000   1.0000
     1.0000   1.0000   1.0000   1.0000   1.0000   1.0000   1.0000   1.0000
     1.0000   1.0000   1.0000   1.0000   1.0000   1.0000   1.0000   1.0000
     1.0000   1.0000   1.0000   1.0000   1.0000   1.0000   1.0000   1.0000
     1.0000   1.0000   1.0000   1.0000   1.0000   1.0000   1.0000   1.0000
     1.0000   1.0000   1.0000   1.0000   1.0000   1.0000   1.0000   1.0000
     1.0000   1.0000   1.0000   1.0000   1.0000   1.0000   1.0000   1.0000
     1.0000   1.0000   1.0000   1.0000   1.0000   1.0000   1.0000   1.0000
     1.0000   1.0000   1.0000   1.0000   1.0000   1.0000   1.0000   1.0000
     1.0000   1.0000   1.0000   1.0000   1.0000   1.0000   1.0000   1.0000
     1.0000   1.0000   1.0000   1.0000   1.0000   1.0000   1.0000   1.0000
     1.0000   1.0000   1.0000   1.0000   1.0000   1.0000   1.0000   1.0000
     1.0000   1.0000   1.0000   1.0000   1.0000   1.0000   1.0000   1.0000
     1.0000   1.0000   1.0000   1.0000   1.0000   1.0000   1.0000   1.0000
     1.0000   1.0000   1.0000   1.0000   1.0000   1.0000   1.0000   1.0000
     1.0000   1.0000   1.0000   1.0000   1.0000   1.0000   1.0000   1.0000
     1.0000   1.0000   1.0000   1.0000   1.0000   1.0000   1.0000   1.0000
     1.0000   1.0000   1.0000   1.0000   1.0000   1.0000   1.0000   1.0000
     1.0000   1.0000   1.0000   1.0000   1.0000   1.0000   1.0000   1.0000
     1.0000   1.0000   1.0000   1.0000   1.0000   1.0000   1.0000   1.0000
     1.0000   1.0000   1.0000   1.0000   1.0000   1.0000   1.0000   1.0000
     1.0000   1.0000   1.0000   1.0000   1.0000   1.0000   1.0000   1.0000
     0.0000   0.0000   0.0000   0.0000   0.0000   0.0000   0.0000   0.0000
     0.0000   0.0000   0.0000   0.0000   0.0000   0.0000   0.0000   0.0000

     highest occupied, lowest unoccupied level (ev):    -3.1764   -0.1289

!    total energy              =   -4057.48873487 Ry
     estimated scf accuracy    <          8.5E-10 Ry

     convergence has been achieved in   1 iterations

     Using ACE for calculation of exact exchange
     ACE projected onto   328 (nbndproj) and applied to   328 (nbnd) bands

!!   total energy              =   -4057.48873487 Ry
     Harris-Foulkes estimate   =   -4057.48873487 Ry
     est. exchange err (dexx)  =          1.9E-10 Ry
     - averaged Fock potential =     252.29433788 Ry
     + Fock energy (ACE)       =    -126.14718385 Ry

     EXX self-consistency reached

     Forces acting on atoms (cartesian axes, Ry/au):

     atom    1 type  1   force =    -0.00248523   -0.00288793    0.00049089
     atom    2 type  1   force =     0.00248523    0.00288793    0.00049089
     atom    3 type  1   force =     0.00248523   -0.00288793   -0.00049089
     atom    4 type  1   force =     0.00248523   -0.00288793    0.00049089
     atom    5 type  1   force =    -0.00118757   -0.00311717   -0.00133314
     atom    6 type  1   force =     0.00118757   -0.00311717    0.00133314
     atom    7 type  1   force =     0.00000000    0.00032517    0.00000000
     atom    8 type  1   force =     0.00000000   -0.00032517    0.00000000
     atom    9 type  1   force =     0.00000000    0.00000000   -0.00070565
     atom   10 type  1   force =     0.00118757   -0.00311717   -0.00133314
     atom   11 type  1   force =    -0.00118757   -0.00311717    0.00133314
     atom   12 type  1   force =     0.00000000    0.00000000   -0.00070565
     atom   13 type  2   force =    -0.00403047   -0.00420145    0.00164692
     atom   14 type  2   force =     0.00403047    0.00420145    0.00164692
     atom   15 type  2   force =     0.00403047   -0.00420145   -0.00164692
     atom   16 type  2   force =    -0.00403047    0.00420145   -0.00164692
     atom   17 type  2   force =    -0.01308572    0.02006197    0.00601183
     atom   18 type  2   force =     0.00095711    0.00341957    0.00512654
     atom   19 type  2   force =     0.01308572   -0.02006197    0.00601183
     atom   20 type  2   force =    -0.00095711   -0.00341957    0.00512654
     atom   21 type  2   force =    -0.00252473    0.00176508   -0.00439911
     atom   22 type  2   force =     0.00252473    0.00176508    0.00439911
     atom   23 type  2   force =    -0.01550237    0.01905356   -0.00331597
     atom   24 type  2   force =     0.01550237    0.01905356    0.00331597
     atom   25 type  2   force =     0.01726994    0.01786732   -0.00399544
     atom   26 type  2   force =    -0.01726994   -0.01786732   -0.00399544
     atom   27 type  2   force =    -0.01726994    0.01786732    0.00399544
     atom   28 type  2   force =     0.01726994   -0.01786732    0.00399544
     atom   29 type  2   force =    -0.00095711    0.00341957    0.00512654
     atom   30 type  2   force =     0.01308572    0.02006197    0.00601183
     atom   31 type  2   force =     0.00095711   -0.00341957    0.00512654
     atom   32 type  2   force =    -0.01308572   -0.02006197    0.00601183
     atom   33 type  2   force =     0.01550237    0.01905356   -0.00331597
     atom   34 type  2   force =    -0.01550237    0.01905356    0.00331597
     atom   35 type  2   force =     0.00252473    0.00176508   -0.00439911
     atom   36 type  2   force =    -0.00252473    0.00176508    0.00439911
     atom   37 type  1   force =     0.00248523    0.00288793   -0.00049089
     atom   38 type  1   force =    -0.00248523   -0.00288793   -0.00049089
     atom   39 type  1   force =    -0.00248523    0.00288793    0.00049089
     atom   40 type  1   force =    -0.00248523    0.00288793   -0.00049089
     atom   41 type  1   force =    -0.00118757    0.00311717    0.00133314
     atom   42 type  1   force =     0.00118757    0.00311717   -0.00133314
     atom   43 type  1   force =     0.00000000    0.00000000    0.00070565
     atom   44 type  1   force =     0.00118757    0.00311717    0.00133314
     atom   45 type  1   force =    -0.00118757    0.00311717   -0.00133314
     atom   46 type  1   force =     0.00000000   -0.00032517    0.00000000
     atom   47 type  1   force =     0.00000000    0.00032517    0.00000000
     atom   48 type  1   force =     0.00000000    0.00000000    0.00070565
     atom   49 type  2   force =    -0.01726994   -0.01786732    0.00399544
     atom   50 type  2   force =     0.01726994    0.01786732    0.00399544
     atom   51 type  2   force =     0.01726994   -0.01786732   -0.00399544
     atom   52 type  2   force =    -0.01726994    0.01786732   -0.00399544
     atom   53 type  2   force =     0.00095711   -0.00341957   -0.00512654
     atom   54 type  2   force =    -0.01308572   -0.02006197   -0.00601183
     atom   55 type  2   force =    -0.00095711    0.00341957   -0.00512654
     atom   56 type  2   force =     0.01308572    0.02006197   -0.00601183
     atom   57 type  2   force =    -0.01550237   -0.01905356    0.00331597
     atom   58 type  2   force =     0.01550237   -0.01905356   -0.00331597
     atom   59 type  2   force =    -0.00252473   -0.00176508    0.00439911
     atom   60 type  2   force =     0.00252473   -0.00176508   -0.00439911
     atom   61 type  2   force =     0.00403047    0.00420145   -0.00164692
     atom   62 type  2   force =    -0.00403047   -0.00420145   -0.00164692
     atom   63 type  2   force =    -0.00403047    0.00420145    0.00164692
     atom   64 type  2   force =     0.00403047   -0.00420145    0.00164692
     atom   65 type  2   force =     0.01308572   -0.02006197   -0.00601183
     atom   66 type  2   force =    -0.00095711   -0.00341957   -0.00512654
     atom   67 type  2   force =    -0.01308572    0.02006197   -0.00601183
     atom   68 type  2   force =     0.00095711    0.00341957   -0.00512654
     atom   69 type  2   force =     0.00252473   -0.00176508    0.00439911
     atom   70 type  2   force =    -0.00252473   -0.00176508   -0.00439911
     atom   71 type  2   force =     0.01550237   -0.01905356    0.00331597
     atom   72 type  2   force =    -0.01550237   -0.01905356   -0.00331597
     atom   73 type  3   force =     0.01742621   -0.01977854    0.00934362
     atom   74 type  3   force =    -0.01742621    0.01977854    0.00934362
     atom   75 type  3   force =     0.01408558   -0.01328570    0.02052844
     atom   76 type  3   force =    -0.01408558   -0.01328570   -0.02052844
     atom   77 type  3   force =    -0.01057594   -0.01003231    0.02379598
     atom   78 type  3   force =     0.01057594    0.01003231    0.02379598
     atom   79 type  3   force =     0.01057594   -0.01003231   -0.02379598
     atom   80 type  3   force =    -0.01057594    0.01003231   -0.02379598
     atom   81 type  3   force =    -0.01742621   -0.01977854    0.00934362
     atom   82 type  3   force =     0.01742621    0.01977854    0.00934362
     atom   83 type  3   force =    -0.01408558   -0.01328570    0.02052844
     atom   84 type  3   force =     0.01408558   -0.01328570   -0.02052844
     atom   85 type  3   force =     0.01057594    0.01003231   -0.02379598
     atom   86 type  3   force =    -0.01057594   -0.01003231   -0.02379598
     atom   87 type  3   force =    -0.01057594    0.01003231    0.02379598
     atom   88 type  3   force =     0.01057594   -0.01003231    0.02379598
     atom   89 type  3   force =     0.01742621    0.01977854   -0.00934362
     atom   90 type  3   force =    -0.01742621   -0.01977854   -0.00934362
     atom   91 type  3   force =     0.01408558    0.01328570   -0.02052844
     atom   92 type  3   force =    -0.01408558    0.01328570    0.02052844
     atom   93 type  3   force =    -0.01742621    0.01977854   -0.00934362
     atom   94 type  3   force =     0.01742621   -0.01977854   -0.00934362
     atom   95 type  3   force =    -0.01408558    0.01328570   -0.02052844
     atom   96 type  3   force =     0.01408558    0.01328570    0.02052844
     The non-local contrib.  to forces
     atom    1 type  1   force =    -0.00072123   -0.00464128   -0.00771678
     atom    2 type  1   force =     0.00072123    0.00464128   -0.00771678
     atom    3 type  1   force =     0.00072123   -0.00464128    0.00771678
     atom    4 type  1   force =     0.00072123   -0.00464128   -0.00771678
     atom    5 type  1   force =    -0.01021183    0.00405437    0.00898150
     atom    6 type  1   force =     0.01021183    0.00405437   -0.00898150
     atom    7 type  1   force =     0.00000000   -0.00893588    0.00000000
     atom    8 type  1   force =     0.00000000    0.00893588    0.00000000
     atom    9 type  1   force =     0.00000000    0.00000000   -0.00466634
     atom   10 type  1   force =     0.01021183    0.00405437    0.00898150
     atom   11 type  1   force =    -0.01021183    0.00405437   -0.00898150
     atom   12 type  1   force =     0.00000000    0.00000000   -0.00466634
     atom   13 type  2   force =    -0.05855692   -0.08181184    0.01851459
     atom   14 type  2   force =     0.05855692    0.08181184    0.01851459
     atom   15 type  2   force =     0.05855692   -0.08181184   -0.01851459
     atom   16 type  2   force =    -0.05855692    0.08181184   -0.01851459
     atom   17 type  2   force =    -0.96209060    1.34090787    0.12739842
     atom   18 type  2   force =     0.04896389    0.09275229    0.12526248
     atom   19 type  2   force =     0.96209060   -1.34090787    0.12739842
     atom   20 type  2   force =    -0.04896389   -0.09275229    0.12526248
     atom   21 type  2   force =    -0.02276614    0.07994535   -0.10973616
     atom   22 type  2   force =     0.02276614    0.07994535    0.10973616
     atom   23 type  2   force =    -1.06670473    1.16077370   -0.76579327
     atom   24 type  2   force =     1.06670473    1.16077370    0.76579327
     atom   25 type  2   force =     1.18806804    1.10527449   -0.89540514
     atom   26 type  2   force =    -1.18806804   -1.10527449   -0.89540514
     atom   27 type  2   force =    -1.18806804    1.10527449    0.89540514
     atom   28 type  2   force =     1.18806804   -1.10527449    0.89540514
     atom   29 type  2   force =    -0.04896389    0.09275229    0.12526248
     atom   30 type  2   force =     0.96209060    1.34090787    0.12739842
     atom   31 type  2   force =     0.04896389   -0.09275229    0.12526248
     atom   32 type  2   force =    -0.96209060   -1.34090787    0.12739842
     atom   33 type  2   force =     1.06670473    1.16077370   -0.76579327
     atom   34 type  2   force =    -1.06670473    1.16077370    0.76579327
     atom   35 type  2   force =     0.02276614    0.07994535   -0.10973616
     atom   36 type  2   force =    -0.02276614    0.07994535    0.10973616
     atom   37 type  1   force =     0.00072123    0.00464128    0.00771678
     atom   38 type  1   force =    -0.00072123   -0.00464128    0.00771678
     atom   39 type  1   force =    -0.00072123    0.00464128   -0.00771678
     atom   40 type  1   force =    -0.00072123    0.00464128    0.00771678
     atom   41 type  1   force =    -0.01021183   -0.00405437   -0.00898150
     atom   42 type  1   force =     0.01021183   -0.00405437    0.00898150
     atom   43 type  1   force =     0.00000000    0.00000000    0.00466634
     atom   44 type  1   force =     0.01021183   -0.00405437   -0.00898150
     atom   45 type  1   force =    -0.01021183   -0.00405437    0.00898150
     atom   46 type  1   force =     0.00000000    0.00893588    0.00000000
     atom   47 type  1   force =     0.00000000   -0.00893588    0.00000000
     atom   48 type  1   force =     0.00000000    0.00000000    0.00466634
     atom   49 type  2   force =    -1.18806804   -1.10527449    0.89540514
     atom   50 type  2   force =     1.18806804    1.10527449    0.89540514
     atom   51 type  2   force =     1.18806804   -1.10527449   -0.89540514
     atom   52 type  2   force =    -1.18806804    1.10527449   -0.89540514
     atom   53 type  2   force =     0.04896389   -0.09275229   -0.12526248
     atom   54 type  2   force =    -0.96209060   -1.34090787   -0.12739842
     atom   55 type  2   force =    -0.04896389    0.09275229   -0.12526248
     atom   56 type  2   force =     0.96209060    1.34090787   -0.12739842
     atom   57 type  2   force =    -1.06670473   -1.16077370    0.76579327
     atom   58 type  2   force =     1.06670473   -1.16077370   -0.76579327
     atom   59 type  2   force =    -0.02276614   -0.07994535    0.10973616
     atom   60 type  2   force =     0.02276614   -0.07994535   -0.10973616
     atom   61 type  2   force =     0.05855692    0.08181184   -0.01851459
     atom   62 type  2   force =    -0.05855692   -0.08181184   -0.01851459
     atom   63 type  2   force =    -0.05855692    0.08181184    0.01851459
     atom   64 type  2   force =     0.05855692   -0.08181184    0.01851459
     atom   65 type  2   force =     0.96209060   -1.34090787   -0.12739842
     atom   66 type  2   force =    -0.04896389   -0.09275229   -0.12526248
     atom   67 type  2   force =    -0.96209060    1.34090787   -0.12739842
     atom   68 type  2   force =     0.04896389    0.09275229   -0.12526248
     atom   69 type  2   force =     0.02276614   -0.07994535    0.10973616
     atom   70 type  2   force =    -0.02276614   -0.07994535   -0.10973616
     atom   71 type  2   force =     1.06670473   -1.16077370    0.76579327
     atom   72 type  2   force =    -1.06670473   -1.16077370   -0.76579327
     atom   73 type  3   force =     0.06888435   -0.08028232    0.03511858
     atom   74 type  3   force =    -0.06888435    0.08028232    0.03511858
     atom   75 type  3   force =     0.05792087   -0.05298135    0.08407261
     atom   76 type  3   force =    -0.05792087   -0.05298135   -0.08407261
     atom   77 type  3   force =    -0.04391457   -0.04285049    0.09819732
     atom   78 type  3   force =     0.04391457    0.04285049    0.09819732
     atom   79 type  3   force =     0.04391457   -0.04285049   -0.09819732
     atom   80 type  3   force =    -0.04391457    0.04285049   -0.09819732
     atom   81 type  3   force =    -0.06888435   -0.08028232    0.03511858
     atom   82 type  3   force =     0.06888435    0.08028232    0.03511858
     atom   83 type  3   force =    -0.05792087   -0.05298135    0.08407261
     atom   84 type  3   force =     0.05792087   -0.05298135   -0.08407261
     atom   85 type  3   force =     0.04391457    0.04285049   -0.09819732
     atom   86 type  3   force =    -0.04391457   -0.04285049   -0.09819732
     atom   87 type  3   force =    -0.04391457    0.04285049    0.09819732
     atom   88 type  3   force =     0.04391457   -0.04285049    0.09819732
     atom   89 type  3   force =     0.06888435    0.08028232   -0.03511858
     atom   90 type  3   force =    -0.06888435   -0.08028232   -0.03511858
     atom   91 type  3   force =     0.05792087    0.05298135   -0.08407261
     atom   92 type  3   force =    -0.05792087    0.05298135    0.08407261
     atom   93 type  3   force =    -0.06888435    0.08028232   -0.03511858
     atom   94 type  3   force =     0.06888435   -0.08028232   -0.03511858
     atom   95 type  3   force =    -0.05792087    0.05298135   -0.08407261
     atom   96 type  3   force =     0.05792087    0.05298135    0.08407261
     The ionic contribution  to forces
     atom    1 type  1   force =     3.12492323    1.27106608 -111.00425148
     atom    2 type  1   force =    -3.12492329   -1.27106608 -111.00425146
     atom    3 type  1   force =    -3.12492317    1.27106611  111.00425155
     atom    4 type  1   force =    -3.12492326    1.27106630 -111.00425135
     atom    5 type  1   force =     4.09770813    3.11918861  110.41244924
     atom    6 type  1   force =    -4.09770817    3.11918873 -110.41244915
     atom    7 type  1   force =    -0.00000005    3.67201597   -0.00000001
     atom    8 type  1   force =    -0.00000013   -3.67201603    0.00000005
     atom    9 type  1   force =     0.00000001    0.00000010   -9.53970492
     atom   10 type  1   force =    -4.09770807    3.11918866  110.41244925
     atom   11 type  1   force =     4.09770811    3.11918876 -110.41244918
     atom   12 type  1   force =     0.00000005   -0.00000004   -9.53970491
     atom   13 type  2   force =     2.90633728    2.24264566  -25.44920285
     atom   14 type  2   force =    -2.90633727   -2.24264565  -25.44920281
     atom   15 type  2   force =    -2.90633730    2.24264566   25.44920284
     atom   16 type  2   force =     2.90633734   -2.24264575   25.44920286
     atom   17 type  2   force =     2.17358278   -2.19213438  -70.13266212
     atom   18 type  2   force =    -0.03239975   -2.82039950  -32.67562358
     atom   19 type  2   force =    -2.17358281    2.19213441  -70.13266209
     atom   20 type  2   force =     0.03239968    2.82039953  -32.67562352
     atom   21 type  2   force =     1.78843098   -0.04835474  -19.38369842
     atom   22 type  2   force =    -1.78843097   -0.04835480   19.38369842
     atom   23 type  2   force =     2.33298090   -1.89901017  -75.73147369
     atom   24 type  2   force =    -2.33298097   -1.89901022   75.73147367
     atom   25 type  2   force =    -3.67642464   -3.25987989  -74.70396177
     atom   26 type  2   force =     3.67642466    3.25987993  -74.70396181
     atom   27 type  2   force =     3.67642463   -3.25987989   74.70396177
     atom   28 type  2   force =    -3.67642464    3.25987990   74.70396178
     atom   29 type  2   force =     0.03239975   -2.82039964  -32.67562358
     atom   30 type  2   force =    -2.17358283   -2.19213442  -70.13266197
     atom   31 type  2   force =    -0.03239971    2.82039956  -32.67562362
     atom   32 type  2   force =     2.17358271    2.19213441  -70.13266210
     atom   33 type  2   force =    -2.33298092   -1.89901018  -75.73147367
     atom   34 type  2   force =     2.33298095   -1.89901020   75.73147366
     atom   35 type  2   force =    -1.78843102   -0.04835483  -19.38369842
     atom   36 type  2   force =     1.78843099   -0.04835483   19.38369835
     atom   37 type  1   force =    -3.12492315   -1.27106617  111.00425147
     atom   38 type  1   force =     3.12492309    1.27106624  111.00425142
     atom   39 type  1   force =     3.12492323   -1.27106625 -111.00425139
     atom   40 type  1   force =     3.12492314   -1.27106613  111.00425152
     atom   41 type  1   force =     4.09770839   -3.11918889 -110.41244918
     atom   42 type  1   force =    -4.09770815   -3.11918879  110.41244924
     atom   43 type  1   force =     0.00000007    0.00000007    9.53970488
     atom   44 type  1   force =    -4.09770812   -3.11918879 -110.41244921
     atom   45 type  1   force =     4.09770829   -3.11918866  110.41244930
     atom   46 type  1   force =    -0.00000006   -3.67201589    0.00000004
     atom   47 type  1   force =    -0.00000012    3.67201602    0.00000011
     atom   48 type  1   force =     0.00000002   -0.00000001    9.53970487
     atom   49 type  2   force =     3.67642466    3.25987991   74.70396178
     atom   50 type  2   force =    -3.67642465   -3.25987986   74.70396171
     atom   51 type  2   force =    -3.67642463    3.25987987  -74.70396176
     atom   52 type  2   force =     3.67642463   -3.25987984  -74.70396172
     atom   53 type  2   force =    -0.03239963    2.82039949   32.67562350
     atom   54 type  2   force =     2.17358276    2.19213432   70.13266197
     atom   55 type  2   force =     0.03239969   -2.82039955   32.67562350
     atom   56 type  2   force =    -2.17358279   -2.19213434   70.13266191
     atom   57 type  2   force =     2.33298089    1.89901023   75.73147369
     atom   58 type  2   force =    -2.33298085    1.89901019  -75.73147371
     atom   59 type  2   force =     1.78843102    0.04835472   19.38369830
     atom   60 type  2   force =    -1.78843105    0.04835476  -19.38369832
     atom   61 type  2   force =    -2.90633738   -2.24264570   25.44920283
     atom   62 type  2   force =     2.90633729    2.24264579   25.44920282
     atom   63 type  2   force =     2.90633739   -2.24264573  -25.44920280
     atom   64 type  2   force =    -2.90633724    2.24264573  -25.44920275
     atom   65 type  2   force =    -2.17358268    2.19213443   70.13266194
     atom   66 type  2   force =     0.03239968    2.82039955   32.67562350
     atom   67 type  2   force =     2.17358275   -2.19213439   70.13266190
     atom   68 type  2   force =    -0.03239972   -2.82039954   32.67562352
     atom   69 type  2   force =    -1.78843102    0.04835489   19.38369838
     atom   70 type  2   force =     1.78843104    0.04835479  -19.38369842
     atom   71 type  2   force =    -2.33298096    1.89901019   75.73147367
     atom   72 type  2   force =     2.33298089    1.89901016  -75.73147368
     atom   73 type  3   force =    -1.48050951    2.15169409  -13.25884360
     atom   74 type  3   force =     1.48050952   -2.15169413  -13.25884362
     atom   75 type  3   force =    -1.75097032    1.57430286  -15.93948865
     atom   76 type  3   force =     1.75097036    1.57430290   15.93948868
     atom   77 type  3   force =     1.08858765    0.99405681  -16.43045877
     atom   78 type  3   force =    -1.08858767   -0.99405680  -16.43045881
     atom   79 type  3   force =    -1.08858766    0.99405682   16.43045877
     atom   80 type  3   force =     1.08858767   -0.99405680   16.43045881
     atom   81 type  3   force =     1.48050957    2.15169416  -13.25884364
     atom   82 type  3   force =    -1.48050951   -2.15169408  -13.25884360
     atom   83 type  3   force =     1.75097029    1.57430286  -15.93948861
     atom   84 type  3   force =    -1.75097033    1.57430290   15.93948864
     atom   85 type  3   force =    -1.08858765   -0.99405681   16.43045877
     atom   86 type  3   force =     1.08858767    0.99405680   16.43045880
     atom   87 type  3   force =     1.08858765   -0.99405682  -16.43045877
     atom   88 type  3   force =    -1.08858767    0.99405680  -16.43045880
     atom   89 type  3   force =    -1.48050948   -2.15169406   13.25884363
     atom   90 type  3   force =     1.48050951    2.15169411   13.25884365
     atom   91 type  3   force =    -1.75097034   -1.57430290   15.93948864
     atom   92 type  3   force =     1.75097029   -1.57430288  -15.93948865
     atom   93 type  3   force =     1.48050950   -2.15169410   13.25884365
     atom   94 type  3   force =    -1.48050953    2.15169409   13.25884364
     atom   95 type  3   force =     1.75097033   -1.57430292   15.93948868
     atom   96 type  3   force =    -1.75097029   -1.57430286  -15.93948862
     The local contribution  to forces
     atom    1 type  1   force =    -3.12668750   -1.26931368  111.01241646
     atom    2 type  1   force =     3.12668737    1.26931402  111.01241646
     atom    3 type  1   force =     3.12668731   -1.26931368 -111.01241673
     atom    4 type  1   force =     3.12668731   -1.26931332  111.01241646
     atom    5 type  1   force =    -4.08868252   -3.12636059 -110.42272196
     atom    6 type  1   force =     4.08868235   -3.12636061  110.42272170
     atom    7 type  1   force =    -0.00000052   -3.66275026    0.00000010
     atom    8 type  1   force =    -0.00000052    3.66275053    0.00000004
     atom    9 type  1   force =    -0.00000014    0.00000051    9.54365864
     atom   10 type  1   force =     4.08868232   -3.12636020 -110.42272198
     atom   11 type  1   force =    -4.08868249   -3.12636020  110.42272172
     atom   12 type  1   force =    -0.00000007    0.00000012    9.54365868
     atom   13 type  2   force =    -2.85180934   -2.16503446   25.43232206
     atom   14 type  2   force =     2.85180920    2.16503473   25.43232207
     atom   15 type  2   force =     2.85180920   -2.16503448  -25.43232226
     atom   16 type  2   force =    -2.85180934    2.16503474  -25.43232229
     atom   17 type  2   force =    -1.22457813    0.87128958   70.01126109
     atom   18 type  2   force =    -0.01560696    2.73106620   32.55547175
     atom   19 type  2   force =     1.22457798   -0.87128935   70.01126109
     atom   20 type  2   force =     0.01560683   -2.73106593   32.55547175
     atom   21 type  2   force =    -1.76818920   -0.02982490   19.48902607
     atom   22 type  2   force =     1.76818907   -0.02982490  -19.48902535
     atom   23 type  2   force =    -1.28177919    0.75729023   76.49393774
     atom   24 type  2   force =     1.28177907    0.75729023  -76.49393796
     atom   25 type  2   force =     2.50562728    2.17247359   75.59535740
     atom   26 type  2   force =    -2.50562740   -2.17247331   75.59535738
     atom   27 type  2   force =    -2.50562741    2.17247358  -75.59535756
     atom   28 type  2   force =     2.50562727   -2.17247332  -75.59535757
     atom   29 type  2   force =     0.01560684    2.73106587   32.55547177
     atom   30 type  2   force =     1.22457798    0.87128930   70.01126109
     atom   31 type  2   force =    -0.01560697   -2.73106557   32.55547177
     atom   32 type  2   force =    -1.22457808   -0.87128902   70.01126111
     atom   33 type  2   force =     1.28177910    0.75729059   76.49393777
     atom   34 type  2   force =    -1.28177922    0.75729059  -76.49393792
     atom   35 type  2   force =     1.76818907   -0.02982524   19.48902604
     atom   36 type  2   force =    -1.76818921   -0.02982522  -19.48902539
     atom   37 type  1   force =     3.12668735    1.26931363 -111.01241672
     atom   38 type  1   force =    -3.12668749   -1.26931329 -111.01241671
     atom   39 type  1   force =    -3.12668755    1.26931363  111.01241644
     atom   40 type  1   force =    -3.12668755    1.26931400 -111.01241672
     atom   41 type  1   force =    -4.08868170    3.12636010  110.42272173
     atom   42 type  1   force =     4.08868235    3.12636011 -110.42272198
     atom   43 type  1   force =    -0.00000004    0.00000053   -9.54365761
     atom   44 type  1   force =     4.08868232    3.12636052  110.42272172
     atom   45 type  1   force =    -4.08868167    3.12636050 -110.42272198
     atom   46 type  1   force =    -0.00000052    3.66275092    0.00000010
     atom   47 type  1   force =    -0.00000052   -3.66274982    0.00000004
     atom   48 type  1   force =    -0.00000012    0.00000010   -9.54365765
     atom   49 type  2   force =    -2.50562739   -2.17247365  -75.59535751
     atom   50 type  2   force =     2.50562728    2.17247393  -75.59535753
     atom   51 type  2   force =     2.50562727   -2.17247366   75.59535735
     atom   52 type  2   force =    -2.50562741    2.17247392   75.59535734
     atom   53 type  2   force =    -0.01560697   -2.73106591  -32.55547107
     atom   54 type  2   force =    -1.22457811   -0.87128936  -70.01126042
     atom   55 type  2   force =     0.01560683    2.73106621  -32.55547107
     atom   56 type  2   force =     1.22457800    0.87128957  -70.01126040
     atom   57 type  2   force =    -1.28177918   -0.75728993  -76.49393792
     atom   58 type  2   force =     1.28177906   -0.75728993   76.49393777
     atom   59 type  2   force =    -1.76818920    0.02982515  -19.48902538
     atom   60 type  2   force =     1.76818907    0.02982518   19.48902604
     atom   61 type  2   force =     2.85180922    2.16503442  -25.43232225
     atom   62 type  2   force =    -2.85180935   -2.16503414  -25.43232224
     atom   63 type  2   force =    -2.85180935    2.16503440   25.43232205
     atom   64 type  2   force =     2.85180921   -2.16503414   25.43232202
     atom   65 type  2   force =     1.22457796   -0.87128901  -70.01126042
     atom   66 type  2   force =     0.01560684   -2.73106559  -32.55547109
     atom   67 type  2   force =    -1.22457811    0.87128930  -70.01126042
     atom   68 type  2   force =    -0.01560698    2.73106585  -32.55547109
     atom   69 type  2   force =     1.76818907    0.02982550  -19.48902536
     atom   70 type  2   force =    -1.76818921    0.02982550   19.48902608
     atom   71 type  2   force =     1.28177909   -0.75729029  -76.49393795
     atom   72 type  2   force =    -1.28177921   -0.75729029   76.49393774
     atom   73 type  3   force =     1.42905176   -2.09119075   13.23306697
     atom   74 type  3   force =    -1.42905174    2.09119077   13.23306698
     atom   75 type  3   force =     1.70713545   -1.53460756   15.87594394
     atom   76 type  3   force =    -1.70713548   -1.53460758  -15.87594391
     atom   77 type  3   force =    -1.05524927   -0.96123885   16.35605695
     atom   78 type  3   force =     1.05524927    0.96123884   16.35605697
     atom   79 type  3   force =     1.05524926   -0.96123885  -16.35605696
     atom   80 type  3   force =    -1.05524927    0.96123883  -16.35605697
     atom   81 type  3   force =    -1.42905177   -2.09119078   13.23306700
     atom   82 type  3   force =     1.42905173    2.09119075   13.23306697
     atom   83 type  3   force =    -1.70713545   -1.53460758   15.87594391
     atom   84 type  3   force =     1.70713546   -1.53460760  -15.87594390
     atom   85 type  3   force =     1.05524926    0.96123885  -16.35605697
     atom   86 type  3   force =    -1.05524928   -0.96123877  -16.35605700
     atom   87 type  3   force =    -1.05524927    0.96123886   16.35605696
     atom   88 type  3   force =     1.05524928   -0.96123878   16.35605700
     atom   89 type  3   force =     1.42905174    2.09119074  -13.23306698
     atom   90 type  3   force =    -1.42905175   -2.09119078  -13.23306699
     atom   91 type  3   force =     1.70713545    1.53460764  -15.87594388
     atom   92 type  3   force =    -1.70713539    1.53460764   15.87594392
     atom   93 type  3   force =    -1.42905171    2.09119078  -13.23306699
     atom   94 type  3   force =     1.42905178   -2.09119074  -13.23306700
     atom   95 type  3   force =    -1.70713542    1.53460764  -15.87594391
     atom   96 type  3   force =     1.70713543    1.53460760   15.87594391
     The core correction contribution to forces
     atom    1 type  1   force =     0.00000000    0.00000000    0.00000000
     atom    2 type  1   force =     0.00000000    0.00000000    0.00000000
     atom    3 type  1   force =     0.00000000    0.00000000    0.00000000
     atom    4 type  1   force =     0.00000000    0.00000000    0.00000000
     atom    5 type  1   force =     0.00000000    0.00000000    0.00000000
     atom    6 type  1   force =     0.00000000    0.00000000    0.00000000
     atom    7 type  1   force =     0.00000000    0.00000000    0.00000000
     atom    8 type  1   force =     0.00000000    0.00000000    0.00000000
     atom    9 type  1   force =     0.00000000    0.00000000    0.00000000
     atom   10 type  1   force =     0.00000000    0.00000000    0.00000000
     atom   11 type  1   force =     0.00000000    0.00000000    0.00000000
     atom   12 type  1   force =     0.00000000    0.00000000    0.00000000
     atom   13 type  2   force =     0.00000000    0.00000000    0.00000000
     atom   14 type  2   force =     0.00000000    0.00000000    0.00000000
     atom   15 type  2   force =     0.00000000    0.00000000    0.00000000
     atom   16 type  2   force =     0.00000000    0.00000000    0.00000000
     atom   17 type  2   force =     0.00000000    0.00000000    0.00000000
     atom   18 type  2   force =     0.00000000    0.00000000    0.00000000
     atom   19 type  2   force =     0.00000000    0.00000000    0.00000000
     atom   20 type  2   force =     0.00000000    0.00000000    0.00000000
     atom   21 type  2   force =     0.00000000    0.00000000    0.00000000
     atom   22 type  2   force =     0.00000000    0.00000000    0.00000000
     atom   23 type  2   force =     0.00000000    0.00000000    0.00000000
     atom   24 type  2   force =     0.00000000    0.00000000    0.00000000
     atom   25 type  2   force =     0.00000000    0.00000000    0.00000000
     atom   26 type  2   force =     0.00000000    0.00000000    0.00000000
     atom   27 type  2   force =     0.00000000    0.00000000    0.00000000
     atom   28 type  2   force =     0.00000000    0.00000000    0.00000000
     atom   29 type  2   force =     0.00000000    0.00000000    0.00000000
     atom   30 type  2   force =     0.00000000    0.00000000    0.00000000
     atom   31 type  2   force =     0.00000000    0.00000000    0.00000000
     atom   32 type  2   force =     0.00000000    0.00000000    0.00000000
     atom   33 type  2   force =     0.00000000    0.00000000    0.00000000
     atom   34 type  2   force =     0.00000000    0.00000000    0.00000000
     atom   35 type  2   force =     0.00000000    0.00000000    0.00000000
     atom   36 type  2   force =     0.00000000    0.00000000    0.00000000
     atom   37 type  1   force =     0.00000000    0.00000000    0.00000000
     atom   38 type  1   force =     0.00000000    0.00000000    0.00000000
     atom   39 type  1   force =     0.00000000    0.00000000    0.00000000
     atom   40 type  1   force =     0.00000000    0.00000000    0.00000000
     atom   41 type  1   force =     0.00000000    0.00000000    0.00000000
     atom   42 type  1   force =     0.00000000    0.00000000    0.00000000
     atom   43 type  1   force =     0.00000000    0.00000000    0.00000000
     atom   44 type  1   force =     0.00000000    0.00000000    0.00000000
     atom   45 type  1   force =     0.00000000    0.00000000    0.00000000
     atom   46 type  1   force =     0.00000000    0.00000000    0.00000000
     atom   47 type  1   force =     0.00000000    0.00000000    0.00000000
     atom   48 type  1   force =     0.00000000    0.00000000    0.00000000
     atom   49 type  2   force =     0.00000000    0.00000000    0.00000000
     atom   50 type  2   force =     0.00000000    0.00000000    0.00000000
     atom   51 type  2   force =     0.00000000    0.00000000    0.00000000
     atom   52 type  2   force =     0.00000000    0.00000000    0.00000000
     atom   53 type  2   force =     0.00000000    0.00000000    0.00000000
     atom   54 type  2   force =     0.00000000    0.00000000    0.00000000
     atom   55 type  2   force =     0.00000000    0.00000000    0.00000000
     atom   56 type  2   force =     0.00000000    0.00000000    0.00000000
     atom   57 type  2   force =     0.00000000    0.00000000    0.00000000
     atom   58 type  2   force =     0.00000000    0.00000000    0.00000000
     atom   59 type  2   force =     0.00000000    0.00000000    0.00000000
     atom   60 type  2   force =     0.00000000    0.00000000    0.00000000
     atom   61 type  2   force =     0.00000000    0.00000000    0.00000000
     atom   62 type  2   force =     0.00000000    0.00000000    0.00000000
     atom   63 type  2   force =     0.00000000    0.00000000    0.00000000
     atom   64 type  2   force =     0.00000000    0.00000000    0.00000000
     atom   65 type  2   force =     0.00000000    0.00000000    0.00000000
     atom   66 type  2   force =     0.00000000    0.00000000    0.00000000
     atom   67 type  2   force =     0.00000000    0.00000000    0.00000000
     atom   68 type  2   force =     0.00000000    0.00000000    0.00000000
     atom   69 type  2   force =     0.00000000    0.00000000    0.00000000
     atom   70 type  2   force =     0.00000000    0.00000000    0.00000000
     atom   71 type  2   force =     0.00000000    0.00000000    0.00000000
     atom   72 type  2   force =     0.00000000    0.00000000    0.00000000
     atom   73 type  3   force =     0.00000000    0.00000000    0.00000000
     atom   74 type  3   force =     0.00000000    0.00000000    0.00000000
     atom   75 type  3   force =     0.00000000    0.00000000    0.00000000
     atom   76 type  3   force =     0.00000000    0.00000000    0.00000000
     atom   77 type  3   force =     0.00000000    0.00000000    0.00000000
     atom   78 type  3   force =     0.00000000    0.00000000    0.00000000
     atom   79 type  3   force =     0.00000000    0.00000000    0.00000000
     atom   80 type  3   force =     0.00000000    0.00000000    0.00000000
     atom   81 type  3   force =     0.00000000    0.00000000    0.00000000
     atom   82 type  3   force =     0.00000000    0.00000000    0.00000000
     atom   83 type  3   force =     0.00000000    0.00000000    0.00000000
     atom   84 type  3   force =     0.00000000    0.00000000    0.00000000
     atom   85 type  3   force =     0.00000000    0.00000000    0.00000000
     atom   86 type  3   force =     0.00000000    0.00000000    0.00000000
     atom   87 type  3   force =     0.00000000    0.00000000    0.00000000
     atom   88 type  3   force =     0.00000000    0.00000000    0.00000000
     atom   89 type  3   force =     0.00000000    0.00000000    0.00000000
     atom   90 type  3   force =     0.00000000    0.00000000    0.00000000
     atom   91 type  3   force =     0.00000000    0.00000000    0.00000000
     atom   92 type  3   force =     0.00000000    0.00000000    0.00000000
     atom   93 type  3   force =     0.00000000    0.00000000    0.00000000
     atom   94 type  3   force =     0.00000000    0.00000000    0.00000000
     atom   95 type  3   force =     0.00000000    0.00000000    0.00000000
     atom   96 type  3   force =     0.00000000    0.00000000    0.00000000
     The Hubbard contrib.    to forces
     atom    1 type  1   force =     0.00000000    0.00000000    0.00000000
     atom    2 type  1   force =     0.00000000    0.00000000    0.00000000
     atom    3 type  1   force =     0.00000000    0.00000000    0.00000000
     atom    4 type  1   force =     0.00000000    0.00000000    0.00000000
     atom    5 type  1   force =     0.00000000    0.00000000    0.00000000
     atom    6 type  1   force =     0.00000000    0.00000000    0.00000000
     atom    7 type  1   force =     0.00000000    0.00000000    0.00000000
     atom    8 type  1   force =     0.00000000    0.00000000    0.00000000
     atom    9 type  1   force =     0.00000000    0.00000000    0.00000000
     atom   10 type  1   force =     0.00000000    0.00000000    0.00000000
     atom   11 type  1   force =     0.00000000    0.00000000    0.00000000
     atom   12 type  1   force =     0.00000000    0.00000000    0.00000000
     atom   13 type  2   force =     0.00000000    0.00000000    0.00000000
     atom   14 type  2   force =     0.00000000    0.00000000    0.00000000
     atom   15 type  2   force =     0.00000000    0.00000000    0.00000000
     atom   16 type  2   force =     0.00000000    0.00000000    0.00000000
     atom   17 type  2   force =     0.00000000    0.00000000    0.00000000
     atom   18 type  2   force =     0.00000000    0.00000000    0.00000000
     atom   19 type  2   force =     0.00000000    0.00000000    0.00000000
     atom   20 type  2   force =     0.00000000    0.00000000    0.00000000
     atom   21 type  2   force =     0.00000000    0.00000000    0.00000000
     atom   22 type  2   force =     0.00000000    0.00000000    0.00000000
     atom   23 type  2   force =     0.00000000    0.00000000    0.00000000
     atom   24 type  2   force =     0.00000000    0.00000000    0.00000000
     atom   25 type  2   force =     0.00000000    0.00000000    0.00000000
     atom   26 type  2   force =     0.00000000    0.00000000    0.00000000
     atom   27 type  2   force =     0.00000000    0.00000000    0.00000000
     atom   28 type  2   force =     0.00000000    0.00000000    0.00000000
     atom   29 type  2   force =     0.00000000    0.00000000    0.00000000
     atom   30 type  2   force =     0.00000000    0.00000000    0.00000000
     atom   31 type  2   force =     0.00000000    0.00000000    0.00000000
     atom   32 type  2   force =     0.00000000    0.00000000    0.00000000
     atom   33 type  2   force =     0.00000000    0.00000000    0.00000000
     atom   34 type  2   force =     0.00000000    0.00000000    0.00000000
     atom   35 type  2   force =     0.00000000    0.00000000    0.00000000
     atom   36 type  2   force =     0.00000000    0.00000000    0.00000000
     atom   37 type  1   force =     0.00000000    0.00000000    0.00000000
     atom   38 type  1   force =     0.00000000    0.00000000    0.00000000
     atom   39 type  1   force =     0.00000000    0.00000000    0.00000000
     atom   40 type  1   force =     0.00000000    0.00000000    0.00000000
     atom   41 type  1   force =     0.00000000    0.00000000    0.00000000
     atom   42 type  1   force =     0.00000000    0.00000000    0.00000000
     atom   43 type  1   force =     0.00000000    0.00000000    0.00000000
     atom   44 type  1   force =     0.00000000    0.00000000    0.00000000
     atom   45 type  1   force =     0.00000000    0.00000000    0.00000000
     atom   46 type  1   force =     0.00000000    0.00000000    0.00000000
     atom   47 type  1   force =     0.00000000    0.00000000    0.00000000
     atom   48 type  1   force =     0.00000000    0.00000000    0.00000000
     atom   49 type  2   force =     0.00000000    0.00000000    0.00000000
     atom   50 type  2   force =     0.00000000    0.00000000    0.00000000
     atom   51 type  2   force =     0.00000000    0.00000000    0.00000000
     atom   52 type  2   force =     0.00000000    0.00000000    0.00000000
     atom   53 type  2   force =     0.00000000    0.00000000    0.00000000
     atom   54 type  2   force =     0.00000000    0.00000000    0.00000000
     atom   55 type  2   force =     0.00000000    0.00000000    0.00000000
     atom   56 type  2   force =     0.00000000    0.00000000    0.00000000
     atom   57 type  2   force =     0.00000000    0.00000000    0.00000000
     atom   58 type  2   force =     0.00000000    0.00000000    0.00000000
     atom   59 type  2   force =     0.00000000    0.00000000    0.00000000
     atom   60 type  2   force =     0.00000000    0.00000000    0.00000000
     atom   61 type  2   force =     0.00000000    0.00000000    0.00000000
     atom   62 type  2   force =     0.00000000    0.00000000    0.00000000
     atom   63 type  2   force =     0.00000000    0.00000000    0.00000000
     atom   64 type  2   force =     0.00000000    0.00000000    0.00000000
     atom   65 type  2   force =     0.00000000    0.00000000    0.00000000
     atom   66 type  2   force =     0.00000000    0.00000000    0.00000000
     atom   67 type  2   force =     0.00000000    0.00000000    0.00000000
     atom   68 type  2   force =     0.00000000    0.00000000    0.00000000
     atom   69 type  2   force =     0.00000000    0.00000000    0.00000000
     atom   70 type  2   force =     0.00000000    0.00000000    0.00000000
     atom   71 type  2   force =     0.00000000    0.00000000    0.00000000
     atom   72 type  2   force =     0.00000000    0.00000000    0.00000000
     atom   73 type  3   force =     0.00000000    0.00000000    0.00000000
     atom   74 type  3   force =     0.00000000    0.00000000    0.00000000
     atom   75 type  3   force =     0.00000000    0.00000000    0.00000000
     atom   76 type  3   force =     0.00000000    0.00000000    0.00000000
     atom   77 type  3   force =     0.00000000    0.00000000    0.00000000
     atom   78 type  3   force =     0.00000000    0.00000000    0.00000000
     atom   79 type  3   force =     0.00000000    0.00000000    0.00000000
     atom   80 type  3   force =     0.00000000    0.00000000    0.00000000
     atom   81 type  3   force =     0.00000000    0.00000000    0.00000000
     atom   82 type  3   force =     0.00000000    0.00000000    0.00000000
     atom   83 type  3   force =     0.00000000    0.00000000    0.00000000
     atom   84 type  3   force =     0.00000000    0.00000000    0.00000000
     atom   85 type  3   force =     0.00000000    0.00000000    0.00000000
     atom   86 type  3   force =     0.00000000    0.00000000    0.00000000
     atom   87 type  3   force =     0.00000000    0.00000000    0.00000000
     atom   88 type  3   force =     0.00000000    0.00000000    0.00000000
     atom   89 type  3   force =     0.00000000    0.00000000    0.00000000
     atom   90 type  3   force =     0.00000000    0.00000000    0.00000000
     atom   91 type  3   force =     0.00000000    0.00000000    0.00000000
     atom   92 type  3   force =     0.00000000    0.00000000    0.00000000
     atom   93 type  3   force =     0.00000000    0.00000000    0.00000000
     atom   94 type  3   force =     0.00000000    0.00000000    0.00000000
     atom   95 type  3   force =     0.00000000    0.00000000    0.00000000
     atom   96 type  3   force =     0.00000000    0.00000000    0.00000000
     The SCF correction term to forces
     atom    1 type  1   force =     0.00000024    0.00000084    0.00004253
     atom    2 type  1   force =    -0.00000024   -0.00000084    0.00004253
     atom    3 type  1   force =    -0.00000024    0.00000084   -0.00004253
     atom    4 type  1   force =    -0.00000024    0.00000084    0.00004253
     atom    5 type  1   force =    -0.00000170    0.00000008   -0.00004202
     atom    6 type  1   force =     0.00000170    0.00000008    0.00004202
     atom    7 type  1   force =    -0.00000000   -0.00000454    0.00000000
     atom    8 type  1   force =    -0.00000000    0.00000454    0.00000000
     atom    9 type  1   force =    -0.00000000    0.00000000    0.00000744
     atom   10 type  1   force =     0.00000170    0.00000008   -0.00004202
     atom   11 type  1   force =    -0.00000170    0.00000008    0.00004202
     atom   12 type  1   force =    -0.00000000    0.00000000    0.00000744
     atom   13 type  2   force =    -0.00000158   -0.00000087    0.00001299
     atom   14 type  2   force =     0.00000158    0.00000087    0.00001299
     atom   15 type  2   force =     0.00000158   -0.00000087   -0.00001299
     atom   16 type  2   force =    -0.00000158    0.00000087   -0.00001299
     atom   17 type  2   force =     0.00000015   -0.00000083    0.00001466
     atom   18 type  2   force =    -0.00000018    0.00000093    0.00001618
     atom   19 type  2   force =    -0.00000015    0.00000083    0.00001466
     atom   20 type  2   force =     0.00000018   -0.00000093    0.00001618
     atom   21 type  2   force =    -0.00000046   -0.00000028    0.00000972
     atom   22 type  2   force =     0.00000046   -0.00000028   -0.00000972
     atom   23 type  2   force =     0.00000058   -0.00000021    0.00001313
     atom   24 type  2   force =    -0.00000058   -0.00000021   -0.00001313
     atom   25 type  2   force =    -0.00000079   -0.00000090    0.00001401
     atom   26 type  2   force =     0.00000079    0.00000090    0.00001401
     atom   27 type  2   force =     0.00000079   -0.00000090   -0.00001401
     atom   28 type  2   force =    -0.00000079    0.00000090   -0.00001401
     atom   29 type  2   force =     0.00000018    0.00000093    0.00001618
     atom   30 type  2   force =    -0.00000015   -0.00000083    0.00001466
     atom   31 type  2   force =    -0.00000018   -0.00000093    0.00001618
     atom   32 type  2   force =     0.00000015    0.00000083    0.00001466
     atom   33 type  2   force =    -0.00000058   -0.00000021    0.00001313
     atom   34 type  2   force =     0.00000058   -0.00000021   -0.00001313
     atom   35 type  2   force =     0.00000046   -0.00000028    0.00000972
     atom   36 type  2   force =    -0.00000046   -0.00000028   -0.00000972
     atom   37 type  1   force =    -0.00000024   -0.00000084   -0.00004253
     atom   38 type  1   force =     0.00000024    0.00000084   -0.00004253
     atom   39 type  1   force =     0.00000024   -0.00000084    0.00004253
     atom   40 type  1   force =     0.00000024   -0.00000084   -0.00004253
     atom   41 type  1   force =    -0.00000170   -0.00000008    0.00004202
     atom   42 type  1   force =     0.00000170   -0.00000008   -0.00004202
     atom   43 type  1   force =    -0.00000000    0.00000000   -0.00000744
     atom   44 type  1   force =     0.00000170   -0.00000008    0.00004202
     atom   45 type  1   force =    -0.00000170   -0.00000008   -0.00004202
     atom   46 type  1   force =    -0.00000000    0.00000454    0.00000000
     atom   47 type  1   force =    -0.00000000   -0.00000454    0.00000000
     atom   48 type  1   force =    -0.00000000    0.00000000   -0.00000744
     atom   49 type  2   force =     0.00000079    0.00000090   -0.00001401
     atom   50 type  2   force =    -0.00000079   -0.00000090   -0.00001401
     atom   51 type  2   force =    -0.00000079    0.00000090    0.00001401
     atom   52 type  2   force =     0.00000079   -0.00000090    0.00001401
     atom   53 type  2   force =    -0.00000018   -0.00000093   -0.00001618
     atom   54 type  2   force =     0.00000015    0.00000083   -0.00001466
     atom   55 type  2   force =     0.00000018    0.00000093   -0.00001618
     atom   56 type  2   force =    -0.00000015   -0.00000083   -0.00001466
     atom   57 type  2   force =     0.00000058    0.00000021   -0.00001313
     atom   58 type  2   force =    -0.00000058    0.00000021    0.00001313
     atom   59 type  2   force =    -0.00000046    0.00000028   -0.00000972
     atom   60 type  2   force =     0.00000046    0.00000028    0.00000972
     atom   61 type  2   force =     0.00000158    0.00000087   -0.00001299
     atom   62 type  2   force =    -0.00000158   -0.00000087   -0.00001299
     atom   63 type  2   force =    -0.00000158    0.00000087    0.00001299
     atom   64 type  2   force =     0.00000158   -0.00000087    0.00001299
     atom   65 type  2   force =    -0.00000015    0.00000083   -0.00001466
     atom   66 type  2   force =     0.00000018   -0.00000093   -0.00001618
     atom   67 type  2   force =     0.00000015   -0.00000083   -0.00001466
     atom   68 type  2   force =    -0.00000018    0.00000093   -0.00001618
     atom   69 type  2   force =     0.00000046    0.00000028   -0.00000972
     atom   70 type  2   force =    -0.00000046    0.00000028    0.00000972
     atom   71 type  2   force =    -0.00000058    0.00000021   -0.00001313
     atom   72 type  2   force =     0.00000058    0.00000021    0.00001313
     atom   73 type  3   force =    -0.00000038    0.00000043    0.00000169
     atom   74 type  3   force =     0.00000038   -0.00000043    0.00000169
     atom   75 type  3   force =    -0.00000041    0.00000037    0.00000057
     atom   76 type  3   force =     0.00000041    0.00000037   -0.00000057
     atom   77 type  3   force =     0.00000024    0.00000020    0.00000047
     atom   78 type  3   force =    -0.00000024   -0.00000020    0.00000047
     atom   79 type  3   force =    -0.00000024    0.00000020   -0.00000047
     atom   80 type  3   force =     0.00000024   -0.00000020   -0.00000047
     atom   81 type  3   force =     0.00000038    0.00000043    0.00000169
     atom   82 type  3   force =    -0.00000038   -0.00000043    0.00000169
     atom   83 type  3   force =     0.00000041    0.00000037    0.00000057
     atom   84 type  3   force =    -0.00000041    0.00000037   -0.00000057
     atom   85 type  3   force =    -0.00000024   -0.00000020   -0.00000047
     atom   86 type  3   force =     0.00000024    0.00000020   -0.00000047
     atom   87 type  3   force =     0.00000024   -0.00000020    0.00000047
     atom   88 type  3   force =    -0.00000024    0.00000020    0.00000047
     atom   89 type  3   force =    -0.00000038   -0.00000043   -0.00000169
     atom   90 type  3   force =     0.00000038    0.00000043   -0.00000169
     atom   91 type  3   force =    -0.00000041   -0.00000037   -0.00000057
     atom   92 type  3   force =     0.00000041   -0.00000037    0.00000057
     atom   93 type  3   force =     0.00000038   -0.00000043   -0.00000169
     atom   94 type  3   force =    -0.00000038    0.00000043   -0.00000169
     atom   95 type  3   force =     0.00000041   -0.00000037   -0.00000057
     atom   96 type  3   force =    -0.00000041   -0.00000037    0.00000057

     Total force =     0.186488     Total SCF correction =     0.000195


     Computing stress (Cartesian axis) and pressure

          total   stress  (Ry/bohr**3)                   (kbar)     P=        5.10
   0.00004841   0.00000000   0.00000000            7.12        0.00        0.00
   0.00000000   0.00004272   0.00000000            0.00        6.28        0.00
   0.00000000   0.00000000   0.00001292            0.00        0.00        1.90

     kinetic stress (kbar)  10537.21      0.00      0.00
                                0.00  10520.85      0.00
                                0.00      0.00  10476.13

     local   stress (kbar)-454884.72     -0.00     -0.00
                               -0.00-455482.65      0.00
                               -0.00      0.00 449957.44

     nonloc. stress (kbar)  -2371.52      0.00      0.00
                                0.00  -2368.93      0.00
                                0.00      0.00  -2363.20

     hartree stress (kbar) 226893.94     -0.00      0.00
                               -0.00 227129.18     -0.00
                                0.00     -0.00-223098.80

     exc-cor stress (kbar)   -964.00     -0.00     -0.00
                               -0.00   -963.61     -0.00
                               -0.00     -0.00   -964.21

     corecor stress (kbar)      0.00      0.00      0.00
                                0.00      0.00      0.00
                                0.00      0.00      0.00

     ewald   stress (kbar) 221049.15      0.00      0.00
                                0.00 221424.45     -0.00
                                0.00     -0.00-233748.51

     hubbard stress (kbar)      0.00      0.00      0.00
                                0.00      0.00      0.00
                                0.00      0.00      0.00

     DFT-D   stress (kbar)      0.00      0.00      0.00
                                0.00      0.00      0.00
                                0.00      0.00      0.00

     XDM     stress (kbar)      0.00      0.00      0.00
                                0.00      0.00      0.00
                                0.00      0.00      0.00

     dft-nl  stress (kbar)      0.00      0.00      0.00
                                0.00      0.00      0.00
                                0.00      0.00      0.00

     TS-vdW  stress (kbar)      0.00      0.00      0.00
                                0.00      0.00      0.00
                                0.00      0.00      0.00

     MDB     stress (kbar)      0.00      0.00      0.00
                                0.00      0.00      0.00
                                0.00      0.00      0.00

     3D-RISM stress (kbar)      0.00      0.00      0.00
                                0.00      0.00      0.00
                                0.00      0.00      0.00

     EXX     stress (kbar)   -252.93      0.00      0.00
                                0.00   -253.00      0.00
                                0.00      0.00   -256.96



     Writing all to output data dir ./tmp/nc.save/ :
     XML data file, charge density, pseudopotentials, collected wavefunctions
 
     init_run     :      4.36s CPU      7.11s WALL (       1 calls)
     electrons    :   1038.40s CPU   1053.58s WALL (       8 calls)
     forces       :      3.12s CPU      3.15s WALL (       1 calls)
     stress       :  11670.58s CPU  11724.19s WALL (       1 calls)

     Called by init_run:
     aceinit0     :      0.00s CPU      0.00s WALL (       1 calls)
     wfcinit      :      2.67s CPU      3.66s WALL (       1 calls)
     wfcinit:wfcr :      1.65s CPU      1.88s WALL (       4 calls)
     potinit      :      0.15s CPU      0.20s WALL (       1 calls)
     hinit0       :      0.78s CPU      0.87s WALL (       1 calls)

     Called by electrons:
     c_bands      :    836.38s CPU    841.69s WALL (      92 calls)
     sum_band     :    158.81s CPU    160.88s WALL (      92 calls)
     v_of_rho     :      5.78s CPU      7.16s WALL (      94 calls)
     v_h          :      3.27s CPU      4.56s WALL (      94 calls)
     v_xc         :      2.51s CPU      2.60s WALL (      94 calls)
     mix_rho      :     31.91s CPU     37.71s WALL (      92 calls)

     Called by c_bands:
     init_us_2    :      4.63s CPU      4.72s WALL (     748 calls)
     cegterg      :    608.28s CPU    611.31s WALL (     372 calls)

     Called by sum_band:
     sum_band:wei :      0.00s CPU      0.00s WALL (      92 calls)
                                        0.00s GPU  (      92 calls)
     sum_band:loo :    145.88s CPU    146.66s WALL (      92 calls)
                                      146.66s GPU  (      92 calls)
     sum_band:buf :    107.07s CPU    107.66s WALL (     368 calls)
                                      107.55s GPU  (     368 calls)
     sum_band:ini :      2.28s CPU      2.32s WALL (     368 calls)
                                        2.32s GPU  (     368 calls)

     Called by *egterg:
     cdiaghg      :     21.85s CPU     22.20s WALL (    1926 calls)
                                       22.19s GPU  (    1926 calls)
     cegterg:over :     44.19s CPU     44.37s WALL (    1586 calls)
     cegterg:upda :     17.39s CPU     17.46s WALL (    1586 calls)
     cegterg:last :     23.49s CPU     23.58s WALL (     935 calls)
     h_psi        :    483.71s CPU    486.24s WALL (    1962 calls)
                                      485.88s GPU  (    1962 calls)
     g_psi        :      0.01s CPU      7.17s WALL (    1586 calls)
                                        7.16s GPU  (    1586 calls)

     Called by h_psi:
     h_psi:calbec :      0.12s CPU     32.26s WALL (    1962 calls)
                                       32.24s GPU  (    1962 calls)
     vloc_psi     :    224.81s CPU    225.94s WALL (    1962 calls)
                                      225.92s GPU  (    1962 calls)
     add_vuspsi   :      6.01s CPU     34.79s WALL (    1962 calls)
                                       34.78s GPU  (    1962 calls)

     General routines
     calbec       :     87.99s CPU     88.54s WALL (    2014 calls)
     fft          :      0.02s CPU      0.28s WALL (     938 calls)
                                        0.27s GPU  (     938 calls)
     ffts         :      0.10s CPU      2.70s WALL (   10306 calls)
                                        2.64s GPU  (   10306 calls)
     fftw         :      0.58s CPU    204.48s WALL (   55670 calls)
                                      204.13s GPU  (   55670 calls)
     fftc         :   5156.35s CPU   5922.11s WALL ( 1395968 calls)
                                      519.20s GPU  (  986624 calls)
     fftcw        :    255.98s CPU    259.17s WALL (   32800 calls)
                                        1.96s GPU  (   20992 calls)
 
     Parallel routines

     EXX routines
     exx_grid     :      0.00s CPU      0.00s WALL (       1 calls)
     exxinit      :    513.00s CPU    520.14s WALL (       8 calls)
     vexx         :    921.25s CPU    931.17s WALL (      32 calls)
     matcalc      :     97.71s CPU     98.22s WALL (    1274 calls)
                                        9.38s GPU  (    1242 calls)
     aceupdate    :     61.14s CPU     61.44s WALL (      32 calls)
     vexxace      :    195.51s CPU    202.91s WALL (    1182 calls)
                                      202.90s GPU  (    1182 calls)
     aceinit      :   1072.43s CPU   1083.13s WALL (      32 calls)
 
     PWSCF        :      3h59m CPU      4h 0m WALL

 
   This run was terminated on:   4:59:51   1Oct2026            

=------------------------------------------------------------------------------=
   JOB DONE.
=------------------------------------------------------------------------------=
Warning: ieee_invalid is signaling
Warning: ieee_divide_by_zero is signaling
Warning: ieee_underflow is signaling
Warning: ieee_inexact is signaling
FORTRAN STOP
