
     Program PWSCF v.7.3.1 starts on 30Sep2026 at 22:39:21 

     This program is part of the open-source Quantum ESPRESSO suite
     for quantum simulation of materials; please cite
         "P. Giannozzi et al., J. Phys.:Condens. Matter 21 395502 (2009);
         "P. Giannozzi et al., J. Phys.:Condens. Matter 29 465901 (2017);
         "P. Giannozzi et al., J. Chem. Phys. 152 154105 (2020);
          URL http://www.quantum-espresso.org", 
     in publications or presentations arising from this work. More details at
     http://www.quantum-espresso.org/quote

     Parallel version (MPI & OpenMP), running on       1 processor cores
     Number of MPI processes:                 1
     Threads/MPI process:                     1

     MPI processes distributed on     1 nodes
     30549 MiB available memory on the printing compute node when the environment starts
 
     Reading input from scf.in

     Current dimensions of program PWSCF are:
     Max number of different atomic species (ntypx) = 10
     Max number of k-points (npk) =  40000
     Max angular momentum in pseudopotentials (lmaxx) =  4

     IMPORTANT: XC functional enforced from input :
     Exchange-correlation= HSE
                           (   1   4  12   4   0   0   0)
     EXX-fraction              =        0.25
     Any further DFT definition will be discarded
     Please, verify this is what you really want

     Message from routine setup:
     using ibrav=0 with symmetry is DISCOURAGED, use correct ibrav instead
 
     Subspace diagonalization in iterative solution of the eigenvalue problem:
     a serial algorithm will be used

     EXX: q-point mesh:     1    1    1
     EXX: setup a grid of 4 q-points centered on each k-point
     (k+q)-points:
   0.0000000   0.0000000   0.0000000         1    1
   0.2886751   0.2886751  -0.0000000         2    1
   0.5773503   0.2886751   0.2886751         3    1
  -0.0000000  -0.0000000   0.5773503         4    1
 
     G-vector sticks info
     --------------------
     sticks:   dense  smooth     PW     G-vecs:    dense   smooth      PW
     Sum        6817    6817   1809               356799   356799   48797
 
     Using Slab Decomposition
 


     bravais-lattice index     =            0
     lattice parameter (alat)  =      16.8664  a.u.
     unit-cell volume          =    3693.5878 (a.u.)^3
     number of atoms/cell      =           40
     number of atomic types    =            2
     number of electrons       =       352.00
     number of Kohn-Sham states=          192
     kinetic-energy cutoff     =      80.0000  Ry
     charge density cutoff     =     320.0000  Ry
     cutoff for Fock operator  =     160.0000  Ry
     scf convergence threshold =      1.0E-09
     mixing beta               =       0.3000
     number of iterations used =            8  plain     mixing
     Exchange-correlation= HSE
                           (   1   4  12   4   0   0   0)
     EXX-fraction              =        0.25

     GPU acceleration is ACTIVE.  1 visible GPUs per MPI rank
     GPU-aware MPI enabled


     GPU used by master process:

        Device Number: 0
        Device name: NVIDIA H100 NVL
        Compute capability : 90
        Ratio of single to double precision performance  : 2
        Memory Clock Rate (KHz): 2619000
        Memory Bus Width (bits): 6016
        Peak Memory Bandwidth (GB/s): ******

     celldm(1)=  16.866440  celldm(2)=   0.000000  celldm(3)=   0.000000
     celldm(4)=   0.000000  celldm(5)=   0.000000  celldm(6)=   0.000000

     crystal axes: (cart. coord. in units of alat)
               a(1) = (  -0.577350   0.577350   0.577350 )  
               a(2) = (   0.577350  -0.577350   0.577350 )  
               a(3) = (   0.577350   0.577350  -0.577350 )  

     reciprocal axes: (cart. coord. in units 2 pi/alat)
               b(1) = ( -0.000000  0.866025  0.866025 )  
               b(2) = (  0.866025 -0.000000  0.866025 )  
               b(3) = (  0.866025  0.866025 -0.000000 )  


     PseudoPot. # 1 for In read from file:
     ./In_ONCV_PBE-1.2.upf
     MD5 check sum: 2123f823f6143602c63cd302e3a0bdd6
     Pseudo is Norm-conserving, Zval = 13.0
     Generated using ONCVPSP code by D. R. Hamann
     Using radial grid of  602 points,  6 beta functions with: 
                l(1) =   0
                l(2) =   0
                l(3) =   1
                l(4) =   1
                l(5) =   2
                l(6) =   2

     PseudoPot. # 2 for O  read from file:
     ./O_ONCV_PBE-1.2.upf
     MD5 check sum: e36c48deb68f4e355fffe4602be2c42c
     Pseudo is Norm-conserving, Zval =  6.0
     Generated using ONCVPSP code by D. R. Hamann
     Using radial grid of  602 points,  4 beta functions with: 
                l(1) =   0
                l(2) =   0
                l(3) =   1
                l(4) =   1

     atomic species   valence    mass     pseudopotential
     In               13.00   114.81800     In( 1.00)
     O                 6.00    15.99900     O ( 1.00)

     24 Sym. Ops., with inversion, found (18 have fractional translation)


                                    s                        frac. trans.

      isym =  1     identity                                     

 cryst.   s( 1) = (     1          0          0      )
                  (     0          1          0      )
                  (     0          0          1      )

 cart.    s( 1) = (  1.0000000  0.0000000 -0.0000000 )
                  (  0.0000000  1.0000000 -0.0000000 )
                  ( -0.0000000 -0.0000000  1.0000000 )


      isym =  2     180 deg rotation - cart. axis [0,0,1]        

 cryst.   s( 2) = (     0          1          0      )    f =(  0.5000000 )
                  (     1          0          0      )       (  0.0000000 )
                  (    -1         -1         -1      )       (  0.5000000 )

 cart.    s( 2) = ( -1.0000000 -0.0000000  0.0000000 )    f =(  0.0000000 )
                  ( -0.0000000 -1.0000000  0.0000000 )       (  0.5773503 )
                  (  0.0000000  0.0000000  1.0000000 )       (  0.0000000 )


      isym =  3     180 deg rotation - cart. axis [0,1,0]        

 cryst.   s( 3) = (     0          0          1      )    f =(  0.0000000 )
                  (    -1         -1         -1      )       (  0.5000000 )
                  (     1          0          0      )       (  0.5000000 )

 cart.    s( 3) = ( -1.0000000  0.0000000 -0.0000000 )    f =(  0.5773503 )
                  ( -0.0000000  1.0000000  0.0000000 )       (  0.0000000 )
                  (  0.0000000 -0.0000000 -1.0000000 )       (  0.0000000 )


      isym =  4     180 deg rotation - cart. axis [1,0,0]        

 cryst.   s( 4) = (    -1         -1         -1      )    f =(  0.5000000 )
                  (     0          0          1      )       (  0.5000000 )
                  (     0          1          0      )       (  0.0000000 )

 cart.    s( 4) = (  1.0000000 -0.0000000 -0.0000000 )    f =(  0.0000000 )
                  (  0.0000000 -1.0000000  0.0000000 )       (  0.0000000 )
                  ( -0.0000000  0.0000000 -1.0000000 )       (  0.5773503 )


      isym =  5     120 deg rotation - cart. axis [-1,-1,-1]     

 cryst.   s( 5) = (     0          0          1      )
                  (     1          0          0      )
                  (     0          1          0      )

 cart.    s( 5) = ( -0.0000000  1.0000000  0.0000000 )
                  ( -0.0000000  0.0000000  1.0000000 )
                  (  1.0000000 -0.0000000 -0.0000000 )


      isym =  6     120 deg rotation - cart. axis [-1,1,1]       

 cryst.   s( 6) = (     1          0          0      )    f =(  0.0000000 )
                  (     0          0          1      )       (  0.5000000 )
                  (    -1         -1         -1      )       (  0.5000000 )

 cart.    s( 6) = ( -0.0000000 -1.0000000  0.0000000 )    f =(  0.5773503 )
                  (  0.0000000 -0.0000000  1.0000000 )       (  0.0000000 )
                  ( -1.0000000  0.0000000 -0.0000000 )       (  0.0000000 )


      isym =  7     120 deg rotation - cart. axis [1,1,-1]       

 cryst.   s( 7) = (     0          1          0      )    f =(  0.5000000 )
                  (    -1         -1         -1      )       (  0.5000000 )
                  (     0          0          1      )       (  0.0000000 )

 cart.    s( 7) = ( -0.0000000  1.0000000 -0.0000000 )    f =(  0.0000000 )
                  (  0.0000000  0.0000000 -1.0000000 )       (  0.0000000 )
                  ( -1.0000000 -0.0000000  0.0000000 )       (  0.5773503 )


      isym =  8     120 deg rotation - cart. axis [1,-1,1]       

 cryst.   s( 8) = (    -1         -1         -1      )    f =(  0.5000000 )
                  (     0          1          0      )       (  0.0000000 )
                  (     1          0          0      )       (  0.5000000 )

 cart.    s( 8) = (  0.0000000 -1.0000000 -0.0000000 )    f =(  0.0000000 )
                  (  0.0000000 -0.0000000 -1.0000000 )       (  0.5773503 )
                  (  1.0000000  0.0000000  0.0000000 )       (  0.0000000 )


      isym =  9     120 deg rotation - cart. axis [1,1,1]        

 cryst.   s( 9) = (     0          1          0      )
                  (     0          0          1      )
                  (     1          0          0      )

 cart.    s( 9) = (  0.0000000 -0.0000000  1.0000000 )
                  (  1.0000000 -0.0000000  0.0000000 )
                  ( -0.0000000  1.0000000 -0.0000000 )


      isym = 10     120 deg rotation - cart. axis [-1,1,-1]      

 cryst.   s(10) = (     0          0          1      )    f =(  0.5000000 )
                  (     0          1          0      )       (  0.5000000 )
                  (    -1         -1         -1      )       (  0.0000000 )

 cart.    s(10) = ( -0.0000000 -0.0000000  1.0000000 )    f =(  0.0000000 )
                  ( -1.0000000  0.0000000  0.0000000 )       (  0.0000000 )
                  (  0.0000000 -1.0000000 -0.0000000 )       (  0.5773503 )


      isym = 11     120 deg rotation - cart. axis [1,-1,-1]      

 cryst.   s(11) = (     1          0          0      )    f =(  0.5000000 )
                  (    -1         -1         -1      )       (  0.0000000 )
                  (     0          1          0      )       (  0.5000000 )

 cart.    s(11) = ( -0.0000000  0.0000000 -1.0000000 )    f =(  0.0000000 )
                  ( -1.0000000  0.0000000 -0.0000000 )       (  0.5773503 )
                  (  0.0000000  1.0000000  0.0000000 )       (  0.0000000 )


      isym = 12     120 deg rotation - cart. axis [-1,-1,1]      

 cryst.   s(12) = (    -1         -1         -1      )    f =(  0.0000000 )
                  (     1          0          0      )       (  0.5000000 )
                  (     0          0          1      )       (  0.5000000 )

 cart.    s(12) = (  0.0000000 -0.0000000 -1.0000000 )    f =(  0.5773503 )
                  (  1.0000000  0.0000000 -0.0000000 )       (  0.0000000 )
                  ( -0.0000000 -1.0000000  0.0000000 )       (  0.0000000 )


      isym = 13     inversion                                    

 cryst.   s(13) = (    -1          0          0      )
                  (     0         -1          0      )
                  (     0          0         -1      )

 cart.    s(13) = ( -1.0000000 -0.0000000  0.0000000 )
                  ( -0.0000000 -1.0000000  0.0000000 )
                  (  0.0000000  0.0000000 -1.0000000 )


      isym = 14     inv. 180 deg rotation - cart. axis [0,0,1]   

 cryst.   s(14) = (     0         -1          0      )    f =(  0.5000000 )
                  (    -1          0          0      )       (  0.0000000 )
                  (     1          1          1      )       (  0.5000000 )

 cart.    s(14) = (  1.0000000  0.0000000 -0.0000000 )    f =(  0.0000000 )
                  (  0.0000000  1.0000000 -0.0000000 )       (  0.5773503 )
                  ( -0.0000000 -0.0000000 -1.0000000 )       (  0.0000000 )


      isym = 15     inv. 180 deg rotation - cart. axis [0,1,0]   

 cryst.   s(15) = (     0          0         -1      )    f =(  0.0000000 )
                  (     1          1          1      )       (  0.5000000 )
                  (    -1          0          0      )       (  0.5000000 )

 cart.    s(15) = (  1.0000000 -0.0000000  0.0000000 )    f =(  0.5773503 )
                  (  0.0000000 -1.0000000 -0.0000000 )       (  0.0000000 )
                  ( -0.0000000  0.0000000  1.0000000 )       (  0.0000000 )


      isym = 16     inv. 180 deg rotation - cart. axis [1,0,0]   

 cryst.   s(16) = (     1          1          1      )    f =(  0.5000000 )
                  (     0          0         -1      )       (  0.5000000 )
                  (     0         -1          0      )       (  0.0000000 )

 cart.    s(16) = ( -1.0000000  0.0000000  0.0000000 )    f =(  0.0000000 )
                  ( -0.0000000  1.0000000 -0.0000000 )       (  0.0000000 )
                  (  0.0000000 -0.0000000  1.0000000 )       (  0.5773503 )


      isym = 17     inv. 120 deg rotation - cart. axis [-1,-1,-1]

 cryst.   s(17) = (     0          0         -1      )
                  (    -1          0          0      )
                  (     0         -1          0      )

 cart.    s(17) = (  0.0000000 -1.0000000 -0.0000000 )
                  (  0.0000000 -0.0000000 -1.0000000 )
                  ( -1.0000000  0.0000000  0.0000000 )


      isym = 18     inv. 120 deg rotation - cart. axis [-1,1,1]  

 cryst.   s(18) = (    -1          0          0      )    f =(  0.0000000 )
                  (     0          0         -1      )       (  0.5000000 )
                  (     1          1          1      )       (  0.5000000 )

 cart.    s(18) = (  0.0000000  1.0000000 -0.0000000 )    f =(  0.5773503 )
                  ( -0.0000000  0.0000000 -1.0000000 )       (  0.0000000 )
                  (  1.0000000 -0.0000000  0.0000000 )       (  0.0000000 )


      isym = 19     inv. 120 deg rotation - cart. axis [1,1,-1]  

 cryst.   s(19) = (     0         -1          0      )    f =(  0.5000000 )
                  (     1          1          1      )       (  0.5000000 )
                  (     0          0         -1      )       (  0.0000000 )

 cart.    s(19) = (  0.0000000 -1.0000000  0.0000000 )    f =(  0.0000000 )
                  ( -0.0000000 -0.0000000  1.0000000 )       (  0.0000000 )
                  (  1.0000000  0.0000000 -0.0000000 )       (  0.5773503 )


      isym = 20     inv. 120 deg rotation - cart. axis [1,-1,1]  

 cryst.   s(20) = (     1          1          1      )    f =(  0.5000000 )
                  (     0         -1          0      )       (  0.0000000 )
                  (    -1          0          0      )       (  0.5000000 )

 cart.    s(20) = ( -0.0000000  1.0000000  0.0000000 )    f =(  0.0000000 )
                  ( -0.0000000  0.0000000  1.0000000 )       (  0.5773503 )
                  ( -1.0000000 -0.0000000 -0.0000000 )       (  0.0000000 )


      isym = 21     inv. 120 deg rotation - cart. axis [1,1,1]   

 cryst.   s(21) = (     0         -1          0      )
                  (     0          0         -1      )
                  (    -1          0          0      )

 cart.    s(21) = ( -0.0000000  0.0000000 -1.0000000 )
                  ( -1.0000000  0.0000000 -0.0000000 )
                  (  0.0000000 -1.0000000  0.0000000 )


      isym = 22     inv. 120 deg rotation - cart. axis [-1,1,-1] 

 cryst.   s(22) = (     0          0         -1      )    f =(  0.5000000 )
                  (     0         -1          0      )       (  0.5000000 )
                  (     1          1          1      )       (  0.0000000 )

 cart.    s(22) = (  0.0000000  0.0000000 -1.0000000 )    f =(  0.0000000 )
                  (  1.0000000 -0.0000000 -0.0000000 )       (  0.0000000 )
                  ( -0.0000000  1.0000000  0.0000000 )       (  0.5773503 )


      isym = 23     inv. 120 deg rotation - cart. axis [1,-1,-1] 

 cryst.   s(23) = (    -1          0          0      )    f =(  0.5000000 )
                  (     1          1          1      )       (  0.0000000 )
                  (     0         -1          0      )       (  0.5000000 )

 cart.    s(23) = (  0.0000000 -0.0000000  1.0000000 )    f =(  0.0000000 )
                  (  1.0000000 -0.0000000  0.0000000 )       (  0.5773503 )
                  ( -0.0000000 -1.0000000 -0.0000000 )       (  0.0000000 )


      isym = 24     inv. 120 deg rotation - cart. axis [-1,-1,1] 

 cryst.   s(24) = (     1          1          1      )    f =(  0.0000000 )
                  (    -1          0          0      )       (  0.5000000 )
                  (     0          0         -1      )       (  0.5000000 )

 cart.    s(24) = ( -0.0000000  0.0000000  1.0000000 )    f =(  0.5773503 )
                  ( -1.0000000 -0.0000000  0.0000000 )       (  0.0000000 )
                  (  0.0000000  1.0000000 -0.0000000 )       (  0.0000000 )


   Cartesian axes

     site n.     atom                  positions (alat units)
         1        In     tau(   1) = (   0.2886751   0.2886751   0.2886751  )
         2        In     tau(   2) = (  -0.2886751   0.2886751   0.2886751  )
         3        In     tau(   3) = (   0.2886751   0.2886751  -0.2886751  )
         4        In     tau(   4) = (   0.2886751  -0.2886751   0.2886751  )
         5        In     tau(   5) = (   0.5383142   0.5773503  -0.2886751  )
         6        In     tau(   6) = (   0.0390360   0.5773503   0.2886751  )
         7        In     tau(   7) = (  -0.2886751   0.5383142   0.5773503  )
         8        In     tau(   8) = (   0.2886751   0.0390360   0.5773503  )
         9        In     tau(   9) = (   0.5773503  -0.2886751   0.5383142  )
        10        In     tau(  10) = (   0.5773503   0.2886751   0.0390360  )
        11        In     tau(  11) = (   0.0390360   0.0000000   0.8660254  )
        12        In     tau(  12) = (   0.5383142  -0.0000000   0.2886751  )
        13        In     tau(  13) = (   0.8660254   0.0390360  -0.0000000  )
        14        In     tau(  14) = (   0.2886751   0.5383142   0.0000000  )
        15        In     tau(  15) = (   0.0000000   0.8660254   0.0390360  )
        16        In     tau(  16) = (   0.0000000   0.2886751   0.5383142  )
        17        O      tau(  17) = (   0.4500235   0.1783700   0.4415309  )
        18        O      tau(  18) = (   0.7046770   0.3989803   0.4415309  )
        19        O      tau(  19) = (   0.1273267   0.1783700   0.7131696  )
        20        O      tau(  20) = (  -0.1273267   0.3989803   0.7131696  )
        21        O      tau(  21) = (   0.4415309   0.4500235   0.1783700  )
        22        O      tau(  22) = (   0.4415309   0.7046770   0.3989803  )
        23        O      tau(  23) = (   0.7131696   0.1273267   0.1783700  )
        24        O      tau(  24) = (   0.7131696  -0.1273267   0.3989803  )
        25        O      tau(  25) = (   0.1783700   0.4415309   0.4500235  )
        26        O      tau(  26) = (   0.3989803   0.4415309   0.7046770  )
        27        O      tau(  27) = (   0.1783700   0.7131696   0.1273267  )
        28        O      tau(  28) = (   0.3989803   0.7131696  -0.1273267  )
        29        O      tau(  29) = (   0.1273267   0.3989803   0.1358194  )
        30        O      tau(  30) = (  -0.1273267   0.1783700   0.1358194  )
        31        O      tau(  31) = (   0.4500235   0.3989803  -0.1358194  )
        32        O      tau(  32) = (   0.7046770   0.1783700  -0.1358194  )
        33        O      tau(  33) = (   0.1358194   0.1273267   0.3989803  )
        34        O      tau(  34) = (   0.1358194  -0.1273267   0.1783700  )
        35        O      tau(  35) = (  -0.1358194   0.4500235   0.3989803  )
        36        O      tau(  36) = (  -0.1358194   0.7046770   0.1783700  )
        37        O      tau(  37) = (   0.3989803   0.1358194   0.1273267  )
        38        O      tau(  38) = (   0.1783700   0.1358194  -0.1273267  )
        39        O      tau(  39) = (   0.3989803  -0.1358194   0.4500235  )
        40        O      tau(  40) = (   0.1783700  -0.1358194   0.7046770  )

   Crystallographic axes

     site n.     atom                  positions (cryst. coord.)
         1        In     tau(   1) = (  0.5000000  0.5000000  0.5000000  )
         2        In     tau(   2) = (  0.5000000  0.0000000 -0.0000000  )
         3        In     tau(   3) = ( -0.0000000 -0.0000000  0.5000000  )
         4        In     tau(   4) = (  0.0000000  0.5000000 -0.0000000  )
         5        In     tau(   5) = (  0.2500000  0.2161938  0.9661938  )
         6        In     tau(   6) = (  0.7500000  0.2838062  0.5338062  )
         7        In     tau(   7) = (  0.9661938  0.2500000  0.2161938  )
         8        In     tau(   8) = (  0.5338062  0.7500000  0.2838062  )
         9        In     tau(   9) = (  0.2161938  0.9661938  0.2500000  )
        10        In     tau(  10) = (  0.2838062  0.5338062  0.7500000  )
        11        In     tau(  11) = (  0.7500000  0.7838062  0.0338062  )
        12        In     tau(  12) = (  0.2500000  0.7161938  0.4661938  )
        13        In     tau(  13) = (  0.0338062  0.7500000  0.7838062  )
        14        In     tau(  14) = (  0.4661938  0.2500000  0.7161938  )
        15        In     tau(  15) = (  0.7838062  0.0338062  0.7500000  )
        16        In     tau(  16) = (  0.7161938  0.4661938  0.2500000  )
        17        O      tau(  17) = (  0.5368499  0.7721088  0.5442047  )
        18        O      tau(  18) = (  0.7279041  0.9926452  0.9557953  )
        19        O      tau(  19) = (  0.7720959  0.7278912  0.2647411  )
        20        O      tau(  20) = (  0.9631501  0.5073548  0.2352589  )
        21        O      tau(  21) = (  0.5442047  0.5368499  0.7721088  )
        22        O      tau(  22) = (  0.9557953  0.7279041  0.9926452  )
        23        O      tau(  23) = (  0.2647411  0.7720959  0.7278912  )
        24        O      tau(  24) = (  0.2352589  0.9631501  0.5073548  )
        25        O      tau(  25) = (  0.7721088  0.5442047  0.5368499  )
        26        O      tau(  26) = (  0.9926452  0.9557953  0.7279041  )
        27        O      tau(  27) = (  0.7278912  0.2647411  0.7720959  )
        28        O      tau(  28) = (  0.5073548  0.2352589  0.9631501  )
        29        O      tau(  29) = (  0.4631501  0.2278912  0.4557953  )
        30        O      tau(  30) = (  0.2720959  0.0073548  0.0442047  )
        31        O      tau(  31) = (  0.2279041  0.2721088  0.7352589  )
        32        O      tau(  32) = (  0.0368499  0.4926452  0.7647411  )
        33        O      tau(  33) = (  0.4557953  0.4631501  0.2278912  )
        34        O      tau(  34) = (  0.0442047  0.2720959  0.0073548  )
        35        O      tau(  35) = (  0.7352589  0.2279041  0.2721088  )
        36        O      tau(  36) = (  0.7647411  0.0368499  0.4926452  )
        37        O      tau(  37) = (  0.2278912  0.4557953  0.4631501  )
        38        O      tau(  38) = (  0.0073548  0.0442047  0.2720959  )
        39        O      tau(  39) = (  0.2721088  0.7352589  0.2279041  )
        40        O      tau(  40) = (  0.4926452  0.7647411  0.0368499  )

     number of k points=     4
                       cart. coord. in units 2pi/alat
        k(    1) = (   0.0000000   0.0000000   0.0000000), wk =   0.0740741
        k(    2) = (   0.2886751   0.2886751  -0.0000000), wk =   0.8888889
        k(    3) = (   0.5773503   0.2886751   0.2886751), wk =   0.5925926
        k(    4) = (  -0.0000000  -0.0000000   0.5773503), wk =   0.4444444

                       cryst. coord.
        k(    1) = (   0.0000000   0.0000000   0.0000000), wk =   0.0740741
        k(    2) = (  -0.0000000   0.0000000   0.3333333), wk =   0.8888889
        k(    3) = (  -0.0000000   0.3333333   0.3333333), wk =   0.5925926
        k(    4) = (   0.3333333   0.3333333  -0.3333333), wk =   0.4444444

     Dense  grid:   356799 G-vectors     FFT dimensions: ( 100, 100, 100)

     Dynamical RAM for                 wfc:     130.75 MB

     Dynamical RAM for     wfc (w. buffer):     653.77 MB

     Dynamical RAM for                 EXX:    3497.04 MB

     Dynamical RAM for           str. fact:      10.89 MB

     Dynamical RAM for           local pot:       0.00 MB

     Dynamical RAM for          nlocal pot:     326.89 MB

     Dynamical RAM for                qrad:       2.91 MB

     Dynamical RAM for          rho,v,vnew:      39.22 MB

     Dynamical RAM for               rhoin:      13.07 MB

     Dynamical RAM for            rho*nmix:      87.11 MB

     Dynamical RAM for           G-vectors:      23.14 MB

     Dynamical RAM for          h,s,v(r/c):       6.75 MB

     Dynamical RAM for          <psi|beta>:       1.41 MB

     Dynamical RAM for                 psi:     261.51 MB

     Dynamical RAM for                hpsi:     261.51 MB

     Dynamical RAM for      wfcinit/wfcrot:     262.35 MB

     Estimated static dynamical RAM per process >       4.51 GB

     Estimated max dynamical RAM per process >       5.12 GB
     EXX: ACE will be initialized later

     Initial potential from superposition of free atoms

     starting charge     350.3039, renormalised to     352.0000
     Starting wfcs are random

     total cpu time spent up to now is        1.4 secs

     Self-consistent Calculation
[tb_dev] Currently allocated     4.29E+00 Mbytes, locked:    0 /   5
[tb_pin] Currently allocated     0.00E+00 Mbytes, locked:    0 /   0

     iteration #  1     ecut=    80.00 Ry     beta= 0.30
     Davidson diagonalization with overlap

---- Real-time Memory Report at c_bands before calling an iterative solver
          1748 MiB given to the printing process from OS
             0 MiB allocation reported by mallinfo(arena+hblkhd)
         29123 MiB available memory on the node where the printing process lives
     GPU memory used/free/total (MiB): 2902 / 92408 / 95311
------------------
     ethr =  1.00E-02,  avg # of iterations = 12.0

     total cpu time spent up to now is        3.5 secs

     total energy              =   -2439.81600389 Ry
     estimated scf accuracy    <       9.67138101 Ry
[tb_dev] Currently allocated     1.53E-04 Mbytes, locked:    0 /   1
[tb_pin] Currently allocated     0.00E+00 Mbytes, locked:    0 /   0

     iteration #  2     ecut=    80.00 Ry     beta= 0.30
     Davidson diagonalization with overlap

---- Real-time Memory Report at c_bands before calling an iterative solver
          1821 MiB given to the printing process from OS
             0 MiB allocation reported by mallinfo(arena+hblkhd)
         29089 MiB available memory on the node where the printing process lives
     GPU memory used/free/total (MiB): 3530 / 91780 / 95311
------------------
     ethr =  2.75E-03,  avg # of iterations =  2.0

     total cpu time spent up to now is        4.4 secs

     total energy              =   -2441.18358717 Ry
     estimated scf accuracy    <       0.43769976 Ry
[tb_dev] Currently allocated     1.53E-04 Mbytes, locked:    0 /   1
[tb_pin] Currently allocated     0.00E+00 Mbytes, locked:    0 /   0

     iteration #  3     ecut=    80.00 Ry     beta= 0.30
     Davidson diagonalization with overlap

---- Real-time Memory Report at c_bands before calling an iterative solver
          1849 MiB given to the printing process from OS
             0 MiB allocation reported by mallinfo(arena+hblkhd)
         29065 MiB available memory on the node where the printing process lives
     GPU memory used/free/total (MiB): 3530 / 91780 / 95311
------------------
     ethr =  1.24E-04,  avg # of iterations =  4.5

     total cpu time spent up to now is        5.4 secs

     total energy              =   -2441.23275372 Ry
     estimated scf accuracy    <       0.13300436 Ry
[tb_dev] Currently allocated     1.53E-04 Mbytes, locked:    0 /   1
[tb_pin] Currently allocated     0.00E+00 Mbytes, locked:    0 /   0

     iteration #  4     ecut=    80.00 Ry     beta= 0.30
     Davidson diagonalization with overlap

---- Real-time Memory Report at c_bands before calling an iterative solver
          1877 MiB given to the printing process from OS
             0 MiB allocation reported by mallinfo(arena+hblkhd)
         29041 MiB available memory on the node where the printing process lives
     GPU memory used/free/total (MiB): 3592 / 91718 / 95311
------------------
     ethr =  3.78E-05,  avg # of iterations =  3.5

     total cpu time spent up to now is        6.3 secs

     total energy              =   -2441.23834638 Ry
     estimated scf accuracy    <       0.01304545 Ry
[tb_dev] Currently allocated     1.53E-04 Mbytes, locked:    0 /   1
[tb_pin] Currently allocated     0.00E+00 Mbytes, locked:    0 /   0

     iteration #  5     ecut=    80.00 Ry     beta= 0.30
     Davidson diagonalization with overlap

---- Real-time Memory Report at c_bands before calling an iterative solver
          1897 MiB given to the printing process from OS
             0 MiB allocation reported by mallinfo(arena+hblkhd)
         29019 MiB available memory on the node where the printing process lives
     GPU memory used/free/total (MiB): 3592 / 91718 / 95311
------------------
     ethr =  3.71E-06,  avg # of iterations =  7.3

     total cpu time spent up to now is        7.2 secs

     total energy              =   -2441.24201093 Ry
     estimated scf accuracy    <       0.00315589 Ry
[tb_dev] Currently allocated     1.53E-04 Mbytes, locked:    0 /   1
[tb_pin] Currently allocated     0.00E+00 Mbytes, locked:    0 /   0

     iteration #  6     ecut=    80.00 Ry     beta= 0.30
     Davidson diagonalization with overlap

---- Real-time Memory Report at c_bands before calling an iterative solver
          1920 MiB given to the printing process from OS
             0 MiB allocation reported by mallinfo(arena+hblkhd)
         29002 MiB available memory on the node where the printing process lives
     GPU memory used/free/total (MiB): 3592 / 91718 / 95311
------------------
     ethr =  8.97E-07,  avg # of iterations =  2.0

     total cpu time spent up to now is        8.0 secs

     total energy              =   -2441.24245163 Ry
     estimated scf accuracy    <       0.00016445 Ry
[tb_dev] Currently allocated     1.53E-04 Mbytes, locked:    0 /   1
[tb_pin] Currently allocated     0.00E+00 Mbytes, locked:    0 /   0

     iteration #  7     ecut=    80.00 Ry     beta= 0.30
     Davidson diagonalization with overlap

---- Real-time Memory Report at c_bands before calling an iterative solver
          1947 MiB given to the printing process from OS
             0 MiB allocation reported by mallinfo(arena+hblkhd)
         28976 MiB available memory on the node where the printing process lives
     GPU memory used/free/total (MiB): 3592 / 91718 / 95311
------------------
     ethr =  4.67E-08,  avg # of iterations =  3.0

     total cpu time spent up to now is        8.9 secs

     total energy              =   -2441.24251924 Ry
     estimated scf accuracy    <       0.00005436 Ry
[tb_dev] Currently allocated     1.53E-04 Mbytes, locked:    0 /   1
[tb_pin] Currently allocated     0.00E+00 Mbytes, locked:    0 /   0

     iteration #  8     ecut=    80.00 Ry     beta= 0.30
     Davidson diagonalization with overlap

---- Real-time Memory Report at c_bands before calling an iterative solver
          1970 MiB given to the printing process from OS
             0 MiB allocation reported by mallinfo(arena+hblkhd)
         28957 MiB available memory on the node where the printing process lives
     GPU memory used/free/total (MiB): 3616 / 91694 / 95311
------------------
     ethr =  1.54E-08,  avg # of iterations =  2.0

     total cpu time spent up to now is        9.7 secs

     total energy              =   -2441.24253136 Ry
     estimated scf accuracy    <       0.00000076 Ry
[tb_dev] Currently allocated     1.53E-04 Mbytes, locked:    0 /   1
[tb_pin] Currently allocated     0.00E+00 Mbytes, locked:    0 /   0

     iteration #  9     ecut=    80.00 Ry     beta= 0.30
     Davidson diagonalization with overlap

---- Real-time Memory Report at c_bands before calling an iterative solver
          1986 MiB given to the printing process from OS
             0 MiB allocation reported by mallinfo(arena+hblkhd)
         28943 MiB available memory on the node where the printing process lives
     GPU memory used/free/total (MiB): 3682 / 91628 / 95311
------------------
     ethr =  2.15E-10,  avg # of iterations =  4.0

     total cpu time spent up to now is       10.7 secs

     total energy              =   -2441.24253155 Ry
     estimated scf accuracy    <       0.00000315 Ry
[tb_dev] Currently allocated     1.53E-04 Mbytes, locked:    0 /   1
[tb_pin] Currently allocated     0.00E+00 Mbytes, locked:    0 /   0

     iteration # 10     ecut=    80.00 Ry     beta= 0.30
     Davidson diagonalization with overlap

---- Real-time Memory Report at c_bands before calling an iterative solver
          2007 MiB given to the printing process from OS
             0 MiB allocation reported by mallinfo(arena+hblkhd)
         28918 MiB available memory on the node where the printing process lives
     GPU memory used/free/total (MiB): 3682 / 91628 / 95311
------------------
     ethr =  2.15E-10,  avg # of iterations =  3.0

     total cpu time spent up to now is       11.5 secs

     total energy              =   -2441.24253193 Ry
     estimated scf accuracy    <       0.00000012 Ry
[tb_dev] Currently allocated     1.53E-04 Mbytes, locked:    0 /   1
[tb_pin] Currently allocated     0.00E+00 Mbytes, locked:    0 /   0

     iteration # 11     ecut=    80.00 Ry     beta= 0.30
     Davidson diagonalization with overlap

---- Real-time Memory Report at c_bands before calling an iterative solver
          2018 MiB given to the printing process from OS
             0 MiB allocation reported by mallinfo(arena+hblkhd)
         28908 MiB available memory on the node where the printing process lives
     GPU memory used/free/total (MiB): 3682 / 91628 / 95311
------------------
     ethr =  3.42E-11,  avg # of iterations =  3.0

     total cpu time spent up to now is       12.4 secs

     total energy              =   -2441.24253197 Ry
     estimated scf accuracy    <          2.7E-09 Ry
[tb_dev] Currently allocated     1.53E-04 Mbytes, locked:    0 /   1
[tb_pin] Currently allocated     0.00E+00 Mbytes, locked:    0 /   0

     iteration # 12     ecut=    80.00 Ry     beta= 0.30
     Davidson diagonalization with overlap

---- Real-time Memory Report at c_bands before calling an iterative solver
          2018 MiB given to the printing process from OS
             0 MiB allocation reported by mallinfo(arena+hblkhd)
         28910 MiB available memory on the node where the printing process lives
     GPU memory used/free/total (MiB): 3682 / 91628 / 95311
------------------
     ethr =  7.57E-13,  avg # of iterations =  3.5

     total cpu time spent up to now is       13.3 secs

     total energy              =   -2441.24253197 Ry
     estimated scf accuracy    <          4.6E-09 Ry
[tb_dev] Currently allocated     1.53E-04 Mbytes, locked:    0 /   1
[tb_pin] Currently allocated     0.00E+00 Mbytes, locked:    0 /   0

     iteration # 13     ecut=    80.00 Ry     beta= 0.30
     Davidson diagonalization with overlap

---- Real-time Memory Report at c_bands before calling an iterative solver
          2018 MiB given to the printing process from OS
             0 MiB allocation reported by mallinfo(arena+hblkhd)
         28912 MiB available memory on the node where the printing process lives
     GPU memory used/free/total (MiB): 3682 / 91628 / 95311
------------------
     ethr =  7.57E-13,  avg # of iterations =  3.0

     total cpu time spent up to now is       14.1 secs

     End of self-consistent calculation

          k = 0.0000 0.0000 0.0000 ( 44411 PWs)   bands (ev):

    -8.5052  -7.9579  -7.9579  -7.8904  -7.8904  -7.8904  -7.8506  -7.8506
    -7.8506  -7.8086  -7.8086  -7.8086  -7.6131  -7.6131  -7.6131  -7.6030
    -7.6030  -7.5367  -7.5367  -7.5367  -7.4755  -7.4755  -7.4755  -7.2447
    -3.6387  -3.6387  -3.6387  -3.5563  -3.5563  -3.5563  -3.5472  -3.5446
    -3.5446  -3.5122  -3.5122  -3.5122  -3.4883  -3.4749  -3.4749  -3.4749
    -3.4715  -3.4715  -3.4528  -3.4521  -3.4521  -3.4521  -3.4375  -3.4375
    -3.4375  -3.4265  -3.4265  -3.4071  -3.4071  -3.4071  -3.3929  -3.3929
    -3.3929  -3.3673  -3.3673  -3.3518  -3.3518  -3.3518  -3.3467  -3.3425
    -3.3425  -3.3425  -3.3342  -3.3175  -3.3175  -3.2838  -3.2838  -3.2838
    -3.2625  -3.2625  -3.2625  -3.2405  -3.2405  -3.2405  -3.2218  -3.2218
    -3.2218  -3.2055  -3.2055  -3.2047  -3.1418  -3.0929  -3.0929  -3.0929
    -3.0653  -3.0653  -3.0653  -3.0461  -3.0461  -3.0302  -3.0302  -3.0302
    -2.5707  -2.5707  -2.5707  -2.5127  -2.5127  -2.1794  -2.1794  -2.1794
     3.8341   3.8520   3.8520   4.3432   4.3432   4.4594   4.4594   4.4594
     4.6773   4.6773   4.6773   4.8392   4.8392   4.8392   5.0418   5.3970
     5.3970   5.3970   5.8238   5.8238   5.8238   6.0404   6.1006   6.1006
     6.1006   6.1589   6.1589   6.1589   6.5835   6.8266   6.8266   6.8266
     6.8788   6.8788   7.2524   7.2524   7.2524   7.3004   7.3004   7.3004
     7.3889   7.3889   7.3889   7.4374   7.5122   7.5122   7.5547   7.5547
     7.5547   7.8900   7.8900   8.1886   8.1886   8.1886   8.2154   8.2154
     8.2154   8.4921   8.4921   8.4921   8.5943   8.5943   8.5943   8.6432
     8.6432   8.6755   8.6862   8.6862   8.6862   8.8993   8.8993   8.8993
     9.8209  14.0839  14.0839  14.0839  14.1640  14.1966  14.1966  14.2084
    14.2084  14.2084  14.3190  14.3190  14.3190  14.9989  14.9989  15.1121

     occupation numbers 
     1.0000   1.0000   1.0000   1.0000   1.0000   1.0000   1.0000   1.0000
     1.0000   1.0000   1.0000   1.0000   1.0000   1.0000   1.0000   1.0000
     1.0000   1.0000   1.0000   1.0000   1.0000   1.0000   1.0000   1.0000
     1.0000   1.0000   1.0000   1.0000   1.0000   1.0000   1.0000   1.0000
     1.0000   1.0000   1.0000   1.0000   1.0000   1.0000   1.0000   1.0000
     1.0000   1.0000   1.0000   1.0000   1.0000   1.0000   1.0000   1.0000
     1.0000   1.0000   1.0000   1.0000   1.0000   1.0000   1.0000   1.0000
     1.0000   1.0000   1.0000   1.0000   1.0000   1.0000   1.0000   1.0000
     1.0000   1.0000   1.0000   1.0000   1.0000   1.0000   1.0000   1.0000
     1.0000   1.0000   1.0000   1.0000   1.0000   1.0000   1.0000   1.0000
     1.0000   1.0000   1.0000   1.0000   1.0000   1.0000   1.0000   1.0000
     1.0000   1.0000   1.0000   1.0000   1.0000   1.0000   1.0000   1.0000
     1.0000   1.0000   1.0000   1.0000   1.0000   1.0000   1.0000   1.0000
     1.0000   1.0000   1.0000   1.0000   1.0000   1.0000   1.0000   1.0000
     1.0000   1.0000   1.0000   1.0000   1.0000   1.0000   1.0000   1.0000
     1.0000   1.0000   1.0000   1.0000   1.0000   1.0000   1.0000   1.0000
     1.0000   1.0000   1.0000   1.0000   1.0000   1.0000   1.0000   1.0000
     1.0000   1.0000   1.0000   1.0000   1.0000   1.0000   1.0000   1.0000
     1.0000   1.0000   1.0000   1.0000   1.0000   1.0000   1.0000   1.0000
     1.0000   1.0000   1.0000   1.0000   1.0000   1.0000   1.0000   1.0000
     1.0000   1.0000   1.0000   1.0000   1.0000   1.0000   1.0000   1.0000
     1.0000   1.0000   1.0000   1.0000   1.0000   1.0000   1.0000   1.0000
     0.0000   0.0000   0.0000   0.0000   0.0000   0.0000   0.0000   0.0000
     0.0000   0.0000   0.0000   0.0000   0.0000   0.0000   0.0000   0.0000

          k = 0.2887 0.2887-0.0000 ( 44579 PWs)   bands (ev):

    -8.3941  -8.1315  -8.0128  -7.9881  -7.9429  -7.9182  -7.8316  -7.8109
    -7.8034  -7.7781  -7.7607  -7.7112  -7.6503  -7.6207  -7.6105  -7.5848
    -7.5743  -7.5608  -7.5292  -7.5197  -7.4842  -7.4642  -7.4219  -7.2997
    -3.6163  -3.6048  -3.5795  -3.5779  -3.5769  -3.5565  -3.5511  -3.5462
    -3.5369  -3.5337  -3.5309  -3.5183  -3.5139  -3.5136  -3.5090  -3.4915
    -3.4774  -3.4722  -3.4698  -3.4543  -3.4537  -3.4475  -3.4437  -3.4374
    -3.4301  -3.4295  -3.4253  -3.4164  -3.4104  -3.4103  -3.4046  -3.3981
    -3.3920  -3.3794  -3.3638  -3.3597  -3.3509  -3.3493  -3.3428  -3.3317
    -3.3255  -3.3234  -3.3170  -3.3116  -3.3059  -3.2874  -3.2837  -3.2773
    -3.2603  -3.2500  -3.2447  -3.2411  -3.2341  -3.2294  -3.2234  -3.2210
    -3.2204  -3.2139  -3.2071  -3.2064  -3.1947  -3.1731  -3.1570  -3.1456
    -3.1274  -3.0949  -3.0644  -2.9877  -2.9632  -2.9594  -2.8792  -2.7182
    -2.6683  -2.5592  -2.5397  -2.5103  -2.4680  -2.2911  -2.2862  -2.2635
     3.8547   3.9983   4.0287   4.0429   4.2134   4.2648   4.2991   4.3617
     4.3740   4.4751   4.8299   4.8499   5.1012   5.1187   5.3640   5.4099
     5.4804   5.6258   5.8135   5.8563   5.9830   5.9872   6.0224   6.0964
     6.1236   6.1822   6.3325   6.3843   6.5428   6.5480   6.7664   6.7684
     6.8118   6.8838   6.9545   7.0239   7.0601   7.1622   7.1755   7.2917
     7.4167   7.4370   7.4525   7.5372   7.5986   7.6377   7.6966   7.7964
     7.8873   7.8890   7.9477   7.9926   8.0461   8.0768   8.1213   8.1997
     8.2596   8.2977   8.3870   8.4797   8.4807   8.5170   8.5562   8.6326
     8.6495   8.6528   8.6850   8.7440   8.8093   8.8220   8.8693   8.9005
    11.0216  12.7386  13.6410  13.6494  13.7195  13.7380  14.3027  14.4083
    14.5676  14.6529  14.6578  14.7280  14.7782  14.8702  15.0423  15.1934

     occupation numbers 
     1.0000   1.0000   1.0000   1.0000   1.0000   1.0000   1.0000   1.0000
     1.0000   1.0000   1.0000   1.0000   1.0000   1.0000   1.0000   1.0000
     1.0000   1.0000   1.0000   1.0000   1.0000   1.0000   1.0000   1.0000
     1.0000   1.0000   1.0000   1.0000   1.0000   1.0000   1.0000   1.0000
     1.0000   1.0000   1.0000   1.0000   1.0000   1.0000   1.0000   1.0000
     1.0000   1.0000   1.0000   1.0000   1.0000   1.0000   1.0000   1.0000
     1.0000   1.0000   1.0000   1.0000   1.0000   1.0000   1.0000   1.0000
     1.0000   1.0000   1.0000   1.0000   1.0000   1.0000   1.0000   1.0000
     1.0000   1.0000   1.0000   1.0000   1.0000   1.0000   1.0000   1.0000
     1.0000   1.0000   1.0000   1.0000   1.0000   1.0000   1.0000   1.0000
     1.0000   1.0000   1.0000   1.0000   1.0000   1.0000   1.0000   1.0000
     1.0000   1.0000   1.0000   1.0000   1.0000   1.0000   1.0000   1.0000
     1.0000   1.0000   1.0000   1.0000   1.0000   1.0000   1.0000   1.0000
     1.0000   1.0000   1.0000   1.0000   1.0000   1.0000   1.0000   1.0000
     1.0000   1.0000   1.0000   1.0000   1.0000   1.0000   1.0000   1.0000
     1.0000   1.0000   1.0000   1.0000   1.0000   1.0000   1.0000   1.0000
     1.0000   1.0000   1.0000   1.0000   1.0000   1.0000   1.0000   1.0000
     1.0000   1.0000   1.0000   1.0000   1.0000   1.0000   1.0000   1.0000
     1.0000   1.0000   1.0000   1.0000   1.0000   1.0000   1.0000   1.0000
     1.0000   1.0000   1.0000   1.0000   1.0000   1.0000   1.0000   1.0000
     1.0000   1.0000   1.0000   1.0000   1.0000   1.0000   1.0000   1.0000
     1.0000   1.0000   1.0000   1.0000   1.0000   1.0000   1.0000   1.0000
     0.0000   0.0000   0.0000   0.0000   0.0000   0.0000   0.0000   0.0000
     0.0000   0.0000   0.0000   0.0000   0.0000   0.0000   0.0000   0.0000

          k = 0.5774 0.2887 0.2887 ( 44587 PWs)   bands (ev):

    -8.2129  -8.2073  -8.2073  -8.0471  -7.8826  -7.8826  -7.8259  -7.8073
    -7.8073  -7.7525  -7.7066  -7.7066  -7.6495  -7.6495  -7.6436  -7.5952
    -7.5952  -7.5546  -7.5362  -7.5362  -7.4429  -7.3983  -7.3796  -7.3796
    -3.5918  -3.5918  -3.5837  -3.5837  -3.5836  -3.5700  -3.5700  -3.5654
    -3.5433  -3.5302  -3.5302  -3.5175  -3.5092  -3.5092  -3.4857  -3.4857
    -3.4769  -3.4718  -3.4718  -3.4686  -3.4533  -3.4512  -3.4512  -3.4464
    -3.4464  -3.4464  -3.4389  -3.4278  -3.4278  -3.4008  -3.3988  -3.3988
    -3.3775  -3.3693  -3.3693  -3.3530  -3.3530  -3.3436  -3.3368  -3.3368
    -3.3309  -3.3122  -3.3116  -3.3116  -3.3099  -3.2858  -3.2858  -3.2774
    -3.2496  -3.2456  -3.2456  -3.2395  -3.2308  -3.2251  -3.2251  -3.2224
    -3.2197  -3.2197  -3.2129  -3.2129  -3.1907  -3.1907  -3.1814  -3.1271
    -3.1271  -3.0741  -3.0056  -3.0056  -2.9225  -2.9225  -2.8679  -2.7774
    -2.5387  -2.5158  -2.5158  -2.4660  -2.4660  -2.3930  -2.3571  -2.3571
     3.9631   3.9631   4.0196   4.0930   4.0930   4.1170   4.4134   4.4134
     4.4194   4.4679   4.5568   4.5568   5.1409   5.3929   5.5297   5.5384
     5.5384   5.7091   5.8179   5.8179   6.0059   6.0059   6.0296   6.1826
     6.1826   6.2167   6.3488   6.3488   6.5191   6.5961   6.6498   6.6498
     6.8428   6.8871   6.8871   7.0528   7.0528   7.1188   7.1188   7.1898
     7.3061   7.3768   7.3768   7.6285   7.6285   7.6786   7.7384   7.7384
     7.8129   7.9184   7.9184   8.0145   8.0704   8.1286   8.1286   8.2243
     8.3263   8.3263   8.4136   8.4136   8.4622   8.4966   8.4966   8.5048
     8.7564   8.7596   8.7596   8.7802   8.7884   8.7884   8.8110   8.8110
    12.2734  12.2734  12.2846  13.3992  14.0894  14.1097  14.1097  14.4200
    14.4200  14.5740  14.8736  14.9249  14.9249  14.9895  15.0936  15.0936

     occupation numbers 
     1.0000   1.0000   1.0000   1.0000   1.0000   1.0000   1.0000   1.0000
     1.0000   1.0000   1.0000   1.0000   1.0000   1.0000   1.0000   1.0000
     1.0000   1.0000   1.0000   1.0000   1.0000   1.0000   1.0000   1.0000
     1.0000   1.0000   1.0000   1.0000   1.0000   1.0000   1.0000   1.0000
     1.0000   1.0000   1.0000   1.0000   1.0000   1.0000   1.0000   1.0000
     1.0000   1.0000   1.0000   1.0000   1.0000   1.0000   1.0000   1.0000
     1.0000   1.0000   1.0000   1.0000   1.0000   1.0000   1.0000   1.0000
     1.0000   1.0000   1.0000   1.0000   1.0000   1.0000   1.0000   1.0000
     1.0000   1.0000   1.0000   1.0000   1.0000   1.0000   1.0000   1.0000
     1.0000   1.0000   1.0000   1.0000   1.0000   1.0000   1.0000   1.0000
     1.0000   1.0000   1.0000   1.0000   1.0000   1.0000   1.0000   1.0000
     1.0000   1.0000   1.0000   1.0000   1.0000   1.0000   1.0000   1.0000
     1.0000   1.0000   1.0000   1.0000   1.0000   1.0000   1.0000   1.0000
     1.0000   1.0000   1.0000   1.0000   1.0000   1.0000   1.0000   1.0000
     1.0000   1.0000   1.0000   1.0000   1.0000   1.0000   1.0000   1.0000
     1.0000   1.0000   1.0000   1.0000   1.0000   1.0000   1.0000   1.0000
     1.0000   1.0000   1.0000   1.0000   1.0000   1.0000   1.0000   1.0000
     1.0000   1.0000   1.0000   1.0000   1.0000   1.0000   1.0000   1.0000
     1.0000   1.0000   1.0000   1.0000   1.0000   1.0000   1.0000   1.0000
     1.0000   1.0000   1.0000   1.0000   1.0000   1.0000   1.0000   1.0000
     1.0000   1.0000   1.0000   1.0000   1.0000   1.0000   1.0000   1.0000
     1.0000   1.0000   1.0000   1.0000   1.0000   1.0000   1.0000   1.0000
     0.0000   0.0000   0.0000   0.0000   0.0000   0.0000   0.0000   0.0000
     0.0000   0.0000   0.0000   0.0000   0.0000   0.0000   0.0000   0.0000

          k =-0.0000-0.0000 0.5774 ( 44720 PWs)   bands (ev):

    -8.2892  -8.0876  -8.0799  -8.0080  -7.9904  -7.9290  -7.8865  -7.8852
    -7.8847  -7.7703  -7.6809  -7.6783  -7.6440  -7.6383  -7.6147  -7.6080
    -7.5678  -7.5316  -7.5194  -7.5038  -7.4295  -7.4252  -7.4125  -7.3439
    -3.6081  -3.5950  -3.5786  -3.5767  -3.5707  -3.5631  -3.5613  -3.5601
    -3.5558  -3.5422  -3.5249  -3.5108  -3.5054  -3.5029  -3.5001  -3.4920
    -3.4875  -3.4862  -3.4638  -3.4636  -3.4612  -3.4574  -3.4565  -3.4539
    -3.4444  -3.4417  -3.4392  -3.4175  -3.4169  -3.4135  -3.4133  -3.3917
    -3.3799  -3.3568  -3.3497  -3.3443  -3.3415  -3.3397  -3.3336  -3.3310
    -3.3247  -3.3184  -3.3128  -3.3119  -3.3117  -3.2935  -3.2849  -3.2713
    -3.2688  -3.2600  -3.2518  -3.2479  -3.2358  -3.2338  -3.2302  -3.2275
    -3.2270  -3.2251  -3.2169  -3.2113  -3.2100  -3.2014  -3.1859  -3.1721
    -3.1608  -3.1564  -2.9571  -2.8850  -2.8459  -2.7687  -2.7529  -2.6895
    -2.6198  -2.6174  -2.5681  -2.5195  -2.4727  -2.4221  -2.4009  -2.3357
     3.7642   3.8521   3.8839   3.9580   4.0719   4.0743   4.5527   4.5603
     4.6089   4.6397   4.7143   5.2671   5.3009   5.3049   5.3466   5.4037
     5.4711   5.5088   5.5898   5.6507   5.6748   5.8194   5.9631   6.1648
     6.2394   6.2775   6.3625   6.4356   6.4483   6.5864   6.6417   6.8135
     6.8723   6.8898   6.9866   7.0993   7.1004   7.1158   7.1799   7.2785
     7.3171   7.3787   7.4209   7.4399   7.5174   7.6348   7.6570   7.7089
     7.7383   7.9184   7.9976   8.0306   8.1318   8.1875   8.2975   8.3333
     8.3963   8.4093   8.4564   8.4657   8.5347   8.5457   8.6465   8.6498
     8.6516   8.6732   8.6949   8.7107   8.7188   8.7476   8.7521   8.7839
    11.6593  13.0009  13.0148  13.0358  13.0384  13.8009  14.1524  14.2016
    14.2231  14.3859  15.0655  15.0961  15.1384  15.1690  15.2890  15.4033

     occupation numbers 
     1.0000   1.0000   1.0000   1.0000   1.0000   1.0000   1.0000   1.0000
     1.0000   1.0000   1.0000   1.0000   1.0000   1.0000   1.0000   1.0000
     1.0000   1.0000   1.0000   1.0000   1.0000   1.0000   1.0000   1.0000
     1.0000   1.0000   1.0000   1.0000   1.0000   1.0000   1.0000   1.0000
     1.0000   1.0000   1.0000   1.0000   1.0000   1.0000   1.0000   1.0000
     1.0000   1.0000   1.0000   1.0000   1.0000   1.0000   1.0000   1.0000
     1.0000   1.0000   1.0000   1.0000   1.0000   1.0000   1.0000   1.0000
     1.0000   1.0000   1.0000   1.0000   1.0000   1.0000   1.0000   1.0000
     1.0000   1.0000   1.0000   1.0000   1.0000   1.0000   1.0000   1.0000
     1.0000   1.0000   1.0000   1.0000   1.0000   1.0000   1.0000   1.0000
     1.0000   1.0000   1.0000   1.0000   1.0000   1.0000   1.0000   1.0000
     1.0000   1.0000   1.0000   1.0000   1.0000   1.0000   1.0000   1.0000
     1.0000   1.0000   1.0000   1.0000   1.0000   1.0000   1.0000   1.0000
     1.0000   1.0000   1.0000   1.0000   1.0000   1.0000   1.0000   1.0000
     1.0000   1.0000   1.0000   1.0000   1.0000   1.0000   1.0000   1.0000
     1.0000   1.0000   1.0000   1.0000   1.0000   1.0000   1.0000   1.0000
     1.0000   1.0000   1.0000   1.0000   1.0000   1.0000   1.0000   1.0000
     1.0000   1.0000   1.0000   1.0000   1.0000   1.0000   1.0000   1.0000
     1.0000   1.0000   1.0000   1.0000   1.0000   1.0000   1.0000   1.0000
     1.0000   1.0000   1.0000   1.0000   1.0000   1.0000   1.0000   1.0000
     1.0000   1.0000   1.0000   1.0000   1.0000   1.0000   1.0000   1.0000
     1.0000   1.0000   1.0000   1.0000   1.0000   1.0000   1.0000   1.0000
     0.0000   0.0000   0.0000   0.0000   0.0000   0.0000   0.0000   0.0000
     0.0000   0.0000   0.0000   0.0000   0.0000   0.0000   0.0000   0.0000

     highest occupied, lowest unoccupied level (ev):     8.9005    9.8209

!    total energy              =   -2441.24253197 Ry
     estimated scf accuracy    <          4.0E-10 Ry

     convergence has been achieved in  13 iterations

     Using ACE for calculation of exact exchange

     EXX grid:   125903 G-vectors     FFT dimensions: (  72,  72,  72)
     ACE projected onto   192 (nbndproj) and applied to   192 (nbnd) bands

     EXX: now go back to refine exchange calculation

     total cpu time spent up to now is       34.6 secs

     Self-consistent Calculation
[tb_dev] Currently allocated     1.53E-04 Mbytes, locked:    0 /   1
[tb_pin] Currently allocated     0.00E+00 Mbytes, locked:    0 /   0

     iteration #  1     ecut=    80.00 Ry     beta= 0.30
     Davidson diagonalization with overlap

---- Real-time Memory Report at c_bands before calling an iterative solver
          7197 MiB given to the printing process from OS
             0 MiB allocation reported by mallinfo(arena+hblkhd)
         23884 MiB available memory on the node where the printing process lives
     GPU memory used/free/total (MiB): 10256 / 85054 / 95311
------------------
     ethr =  7.57E-13,  avg # of iterations = 18.0

     total cpu time spent up to now is       38.4 secs

     total energy              =   -2430.30223315 Ry
     estimated scf accuracy    <       0.04229900 Ry
[tb_dev] Currently allocated     1.53E-04 Mbytes, locked:    0 /   1
[tb_pin] Currently allocated     0.00E+00 Mbytes, locked:    0 /   0

     iteration #  2     ecut=    80.00 Ry     beta= 0.30
     Davidson diagonalization with overlap

---- Real-time Memory Report at c_bands before calling an iterative solver
          7197 MiB given to the printing process from OS
             0 MiB allocation reported by mallinfo(arena+hblkhd)
         23929 MiB available memory on the node where the printing process lives
     GPU memory used/free/total (MiB): 10258 / 85052 / 95311
------------------
     ethr =  1.20E-05,  avg # of iterations =  1.3

     total cpu time spent up to now is       39.3 secs

     total energy              =   -2430.29927859 Ry
     estimated scf accuracy    <       0.01018747 Ry
[tb_dev] Currently allocated     1.53E-04 Mbytes, locked:    0 /   1
[tb_pin] Currently allocated     0.00E+00 Mbytes, locked:    0 /   0

     iteration #  3     ecut=    80.00 Ry     beta= 0.30
     Davidson diagonalization with overlap

---- Real-time Memory Report at c_bands before calling an iterative solver
          7197 MiB given to the printing process from OS
             0 MiB allocation reported by mallinfo(arena+hblkhd)
         23931 MiB available memory on the node where the printing process lives
     GPU memory used/free/total (MiB): 10258 / 85052 / 95311
------------------
     ethr =  2.89E-06,  avg # of iterations =  2.0

     total cpu time spent up to now is       40.2 secs

     total energy              =   -2430.30000265 Ry
     estimated scf accuracy    <       0.00129723 Ry
[tb_dev] Currently allocated     1.53E-04 Mbytes, locked:    0 /   1
[tb_pin] Currently allocated     0.00E+00 Mbytes, locked:    0 /   0

     iteration #  4     ecut=    80.00 Ry     beta= 0.30
     Davidson diagonalization with overlap

---- Real-time Memory Report at c_bands before calling an iterative solver
          7197 MiB given to the printing process from OS
             0 MiB allocation reported by mallinfo(arena+hblkhd)
         23930 MiB available memory on the node where the printing process lives
     GPU memory used/free/total (MiB): 10258 / 85052 / 95311
------------------
     ethr =  3.69E-07,  avg # of iterations =  2.0

     total cpu time spent up to now is       41.2 secs

     total energy              =   -2430.30015929 Ry
     estimated scf accuracy    <       0.00010122 Ry
[tb_dev] Currently allocated     1.53E-04 Mbytes, locked:    0 /   1
[tb_pin] Currently allocated     0.00E+00 Mbytes, locked:    0 /   0

     iteration #  5     ecut=    80.00 Ry     beta= 0.30
     Davidson diagonalization with overlap

---- Real-time Memory Report at c_bands before calling an iterative solver
          7197 MiB given to the printing process from OS
             0 MiB allocation reported by mallinfo(arena+hblkhd)
         23922 MiB available memory on the node where the printing process lives
     GPU memory used/free/total (MiB): 10258 / 85052 / 95311
------------------
     ethr =  2.88E-08,  avg # of iterations =  2.0

     total cpu time spent up to now is       42.2 secs

     total energy              =   -2430.30016635 Ry
     estimated scf accuracy    <       0.00003451 Ry
[tb_dev] Currently allocated     1.53E-04 Mbytes, locked:    0 /   1
[tb_pin] Currently allocated     0.00E+00 Mbytes, locked:    0 /   0

     iteration #  6     ecut=    80.00 Ry     beta= 0.30
     Davidson diagonalization with overlap

---- Real-time Memory Report at c_bands before calling an iterative solver
          7197 MiB given to the printing process from OS
             0 MiB allocation reported by mallinfo(arena+hblkhd)
         23921 MiB available memory on the node where the printing process lives
     GPU memory used/free/total (MiB): 10258 / 85052 / 95311
------------------
     ethr =  9.80E-09,  avg # of iterations =  1.0

     total cpu time spent up to now is       43.0 secs

     total energy              =   -2430.30016768 Ry
     estimated scf accuracy    <       0.00000162 Ry
[tb_dev] Currently allocated     1.53E-04 Mbytes, locked:    0 /   1
[tb_pin] Currently allocated     0.00E+00 Mbytes, locked:    0 /   0

     iteration #  7     ecut=    80.00 Ry     beta= 0.30
     Davidson diagonalization with overlap

---- Real-time Memory Report at c_bands before calling an iterative solver
          7197 MiB given to the printing process from OS
             0 MiB allocation reported by mallinfo(arena+hblkhd)
         23918 MiB available memory on the node where the printing process lives
     GPU memory used/free/total (MiB): 10258 / 85052 / 95311
------------------
     ethr =  4.61E-10,  avg # of iterations =  3.0

     total cpu time spent up to now is       44.1 secs

     total energy              =   -2430.30016836 Ry
     estimated scf accuracy    <       0.00000201 Ry
[tb_dev] Currently allocated     1.53E-04 Mbytes, locked:    0 /   1
[tb_pin] Currently allocated     0.00E+00 Mbytes, locked:    0 /   0

     iteration #  8     ecut=    80.00 Ry     beta= 0.30
     Davidson diagonalization with overlap

---- Real-time Memory Report at c_bands before calling an iterative solver
          7197 MiB given to the printing process from OS
             0 MiB allocation reported by mallinfo(arena+hblkhd)
         23917 MiB available memory on the node where the printing process lives
     GPU memory used/free/total (MiB): 10258 / 85052 / 95311
------------------
     ethr =  4.61E-10,  avg # of iterations =  2.0

     total cpu time spent up to now is       45.1 secs

     total energy              =   -2430.30016870 Ry
     estimated scf accuracy    <       0.00000002 Ry
[tb_dev] Currently allocated     1.53E-04 Mbytes, locked:    0 /   1
[tb_pin] Currently allocated     0.00E+00 Mbytes, locked:    0 /   0

     iteration #  9     ecut=    80.00 Ry     beta= 0.30
     Davidson diagonalization with overlap

---- Real-time Memory Report at c_bands before calling an iterative solver
          7197 MiB given to the printing process from OS
             0 MiB allocation reported by mallinfo(arena+hblkhd)
         23910 MiB available memory on the node where the printing process lives
     GPU memory used/free/total (MiB): 10258 / 85052 / 95311
------------------
     ethr =  7.01E-12,  avg # of iterations =  3.3

     total cpu time spent up to now is       46.3 secs

     total energy              =   -2430.30016871 Ry
     estimated scf accuracy    <          2.0E-09 Ry
[tb_dev] Currently allocated     1.53E-04 Mbytes, locked:    0 /   1
[tb_pin] Currently allocated     0.00E+00 Mbytes, locked:    0 /   0

     iteration # 10     ecut=    80.00 Ry     beta= 0.30
     Davidson diagonalization with overlap

---- Real-time Memory Report at c_bands before calling an iterative solver
          7197 MiB given to the printing process from OS
             0 MiB allocation reported by mallinfo(arena+hblkhd)
         23897 MiB available memory on the node where the printing process lives
     GPU memory used/free/total (MiB): 10284 / 85026 / 95311
------------------
     ethr =  5.82E-13,  avg # of iterations =  2.8

     total cpu time spent up to now is       47.4 secs

     total energy              =   -2430.30016871 Ry
     estimated scf accuracy    <          1.7E-09 Ry
[tb_dev] Currently allocated     1.53E-04 Mbytes, locked:    0 /   1
[tb_pin] Currently allocated     0.00E+00 Mbytes, locked:    0 /   0

     iteration # 11     ecut=    80.00 Ry     beta= 0.30
     Davidson diagonalization with overlap

---- Real-time Memory Report at c_bands before calling an iterative solver
          7197 MiB given to the printing process from OS
             0 MiB allocation reported by mallinfo(arena+hblkhd)
         23880 MiB available memory on the node where the printing process lives
     GPU memory used/free/total (MiB): 10284 / 85026 / 95311
------------------
     ethr =  4.87E-13,  avg # of iterations =  2.0

     total cpu time spent up to now is       48.3 secs

     End of self-consistent calculation

          k = 0.0000 0.0000 0.0000 ( 44411 PWs)   bands (ev):

   -11.3449 -10.7391 -10.7391 -10.6667 -10.6667 -10.6667 -10.5903 -10.5903
   -10.5903 -10.5723 -10.5723 -10.5723 -10.3042 -10.3042 -10.3042 -10.3001
   -10.3001 -10.3001 -10.2902 -10.2902 -10.1890 -10.1890 -10.1890 -10.0159
    -4.7088  -4.7088  -4.7088  -4.6270  -4.6270  -4.6270  -4.5823  -4.5823
    -4.5668  -4.5522  -4.5522  -4.5522  -4.5189  -4.5044  -4.5044  -4.5044
    -4.4868  -4.4868  -4.4865  -4.4865  -4.4865  -4.4743  -4.4394  -4.4394
    -4.4333  -4.4333  -4.4333  -4.4169  -4.4169  -4.4169  -4.3788  -4.3788
    -4.3788  -4.3391  -4.3391  -4.3090  -4.3090  -4.3090  -4.3083  -4.3083
    -4.3083  -4.3038  -4.2899  -4.2597  -4.2597  -4.2380  -4.2380  -4.2380
    -4.2332  -4.2332  -4.2332  -4.1832  -4.1832  -4.1832  -4.1507  -4.1507
    -4.1507  -4.1331  -4.1331  -4.1307  -4.1014  -4.0967  -4.0967  -4.0967
    -4.0772  -4.0772  -4.0772  -4.0325  -4.0325  -4.0114  -4.0114  -4.0114
    -3.6447  -3.6447  -3.6447  -3.5727  -3.5727  -3.2524  -3.2524  -3.2524
     2.4110   2.4375   2.4375   2.9512   2.9512   3.0988   3.0988   3.0988
     3.3104   3.3104   3.3104   3.5045   3.5045   3.5045   3.7075   4.0154
     4.0154   4.0154   4.4517   4.4517   4.4517   4.7090   4.8244   4.8244
     4.8244   4.8406   4.8406   4.8406   5.3882   5.6499   5.6499   5.6499
     5.6721   5.6721   6.0378   6.0378   6.0378   6.0777   6.0777   6.0777
     6.1648   6.1648   6.1648   6.1977   6.3300   6.3300   6.3862   6.3862
     6.3862   6.7454   6.7454   7.0722   7.0722   7.0722   7.1316   7.1316
     7.1316   7.4115   7.4115   7.4115   7.5461   7.5461   7.5461   7.6031
     7.6031   7.6360   7.6360   7.6360   7.6485   7.8931   7.8931   7.8931
     9.9412  14.4685  14.4685  14.4685  14.5656  14.6119  14.6119  14.6197
    14.6197  14.6197  14.7398  14.7398  14.7398  15.4575  15.4575  15.5752

     occupation numbers 
     1.0000   1.0000   1.0000   1.0000   1.0000   1.0000   1.0000   1.0000
     1.0000   1.0000   1.0000   1.0000   1.0000   1.0000   1.0000   1.0000
     1.0000   1.0000   1.0000   1.0000   1.0000   1.0000   1.0000   1.0000
     1.0000   1.0000   1.0000   1.0000   1.0000   1.0000   1.0000   1.0000
     1.0000   1.0000   1.0000   1.0000   1.0000   1.0000   1.0000   1.0000
     1.0000   1.0000   1.0000   1.0000   1.0000   1.0000   1.0000   1.0000
     1.0000   1.0000   1.0000   1.0000   1.0000   1.0000   1.0000   1.0000
     1.0000   1.0000   1.0000   1.0000   1.0000   1.0000   1.0000   1.0000
     1.0000   1.0000   1.0000   1.0000   1.0000   1.0000   1.0000   1.0000
     1.0000   1.0000   1.0000   1.0000   1.0000   1.0000   1.0000   1.0000
     1.0000   1.0000   1.0000   1.0000   1.0000   1.0000   1.0000   1.0000
     1.0000   1.0000   1.0000   1.0000   1.0000   1.0000   1.0000   1.0000
     1.0000   1.0000   1.0000   1.0000   1.0000   1.0000   1.0000   1.0000
     1.0000   1.0000   1.0000   1.0000   1.0000   1.0000   1.0000   1.0000
     1.0000   1.0000   1.0000   1.0000   1.0000   1.0000   1.0000   1.0000
     1.0000   1.0000   1.0000   1.0000   1.0000   1.0000   1.0000   1.0000
     1.0000   1.0000   1.0000   1.0000   1.0000   1.0000   1.0000   1.0000
     1.0000   1.0000   1.0000   1.0000   1.0000   1.0000   1.0000   1.0000
     1.0000   1.0000   1.0000   1.0000   1.0000   1.0000   1.0000   1.0000
     1.0000   1.0000   1.0000   1.0000   1.0000   1.0000   1.0000   1.0000
     1.0000   1.0000   1.0000   1.0000   1.0000   1.0000   1.0000   1.0000
     1.0000   1.0000   1.0000   1.0000   1.0000   1.0000   1.0000   1.0000
     0.0000   0.0000   0.0000   0.0000   0.0000   0.0000   0.0000   0.0000
     0.0000   0.0000   0.0000   0.0000   0.0000   0.0000   0.0000   0.0000

          k = 0.2887 0.2887-0.0000 ( 44579 PWs)   bands (ev):

   -11.2250 -10.9401 -10.7964 -10.7709 -10.7132 -10.6785 -10.5738 -10.5370
   -10.5180 -10.5047 -10.4898 -10.4406 -10.3780 -10.3609 -10.3219 -10.3205
   -10.3032 -10.2875 -10.2663 -10.2581 -10.1793 -10.1705 -10.1298 -10.0429
    -4.6835  -4.6700  -4.6495  -4.6460  -4.6407  -4.6139  -4.6102  -4.5985
    -4.5885  -4.5872  -4.5728  -4.5613  -4.5554  -4.5454  -4.5200  -4.5156
    -4.5143  -4.4873  -4.4832  -4.4730  -4.4693  -4.4623  -4.4566  -4.4431
    -4.4412  -4.4399  -4.4367  -4.4294  -4.4191  -4.4010  -4.3952  -4.3831
    -4.3830  -4.3555  -4.3388  -4.3347  -4.3257  -4.3132  -4.3050  -4.2895
    -4.2842  -4.2809  -4.2667  -4.2650  -4.2578  -4.2472  -4.2413  -4.2342
    -4.2132  -4.1963  -4.1914  -4.1826  -4.1757  -4.1724  -4.1641  -4.1574
    -4.1570  -4.1561  -4.1492  -4.1425  -4.1406  -4.1376  -4.1248  -4.1121
    -4.0988  -4.0767  -4.0608  -4.0241  -3.9815  -3.9751  -3.9198  -3.7712
    -3.7270  -3.6248  -3.6017  -3.5724  -3.5511  -3.3669  -3.3659  -3.3353
     2.4243   2.5931   2.6009   2.6421   2.8148   2.8719   2.9192   2.9675
     2.9910   3.1006   3.4828   3.5074   3.7844   3.8062   4.0058   4.0520
     4.1266   4.3607   4.5124   4.5165   4.6437   4.6884   4.7247   4.8016
     4.8499   4.8975   5.0677   5.1114   5.2785   5.2836   5.5190   5.5261
     5.5645   5.6722   5.7450   5.7939   5.8661   5.9526   6.0019   6.0951
     6.2463   6.2538   6.2922   6.3595   6.4210   6.5027   6.5453   6.6444
     6.7785   6.7854   6.8274   6.8796   6.9386   6.9604   6.9916   7.1225
     7.2008   7.2119   7.3188   7.4440   7.4546   7.4589   7.5279   7.5934
     7.6111   7.6556   7.6620   7.7233   7.7977   7.8229   7.8612   7.8914
    11.0950  12.9590  13.9653  13.9773  14.0534  14.0760  14.7043  14.8185
    14.9892  15.0781  15.1118  15.1567  15.2397  15.3236  15.5239  15.6810

     occupation numbers 
     1.0000   1.0000   1.0000   1.0000   1.0000   1.0000   1.0000   1.0000
     1.0000   1.0000   1.0000   1.0000   1.0000   1.0000   1.0000   1.0000
     1.0000   1.0000   1.0000   1.0000   1.0000   1.0000   1.0000   1.0000
     1.0000   1.0000   1.0000   1.0000   1.0000   1.0000   1.0000   1.0000
     1.0000   1.0000   1.0000   1.0000   1.0000   1.0000   1.0000   1.0000
     1.0000   1.0000   1.0000   1.0000   1.0000   1.0000   1.0000   1.0000
     1.0000   1.0000   1.0000   1.0000   1.0000   1.0000   1.0000   1.0000
     1.0000   1.0000   1.0000   1.0000   1.0000   1.0000   1.0000   1.0000
     1.0000   1.0000   1.0000   1.0000   1.0000   1.0000   1.0000   1.0000
     1.0000   1.0000   1.0000   1.0000   1.0000   1.0000   1.0000   1.0000
     1.0000   1.0000   1.0000   1.0000   1.0000   1.0000   1.0000   1.0000
     1.0000   1.0000   1.0000   1.0000   1.0000   1.0000   1.0000   1.0000
     1.0000   1.0000   1.0000   1.0000   1.0000   1.0000   1.0000   1.0000
     1.0000   1.0000   1.0000   1.0000   1.0000   1.0000   1.0000   1.0000
     1.0000   1.0000   1.0000   1.0000   1.0000   1.0000   1.0000   1.0000
     1.0000   1.0000   1.0000   1.0000   1.0000   1.0000   1.0000   1.0000
     1.0000   1.0000   1.0000   1.0000   1.0000   1.0000   1.0000   1.0000
     1.0000   1.0000   1.0000   1.0000   1.0000   1.0000   1.0000   1.0000
     1.0000   1.0000   1.0000   1.0000   1.0000   1.0000   1.0000   1.0000
     1.0000   1.0000   1.0000   1.0000   1.0000   1.0000   1.0000   1.0000
     1.0000   1.0000   1.0000   1.0000   1.0000   1.0000   1.0000   1.0000
     1.0000   1.0000   1.0000   1.0000   1.0000   1.0000   1.0000   1.0000
     0.0000   0.0000   0.0000   0.0000   0.0000   0.0000   0.0000   0.0000
     0.0000   0.0000   0.0000   0.0000   0.0000   0.0000   0.0000   0.0000

          k = 0.5774 0.2887 0.2887 ( 44587 PWs)   bands (ev):

   -11.0290 -11.0217 -11.0217 -10.8268 -10.6268 -10.6268 -10.5459 -10.5459
   -10.5429 -10.5133 -10.4210 -10.4210 -10.3766 -10.3766 -10.3553 -10.3213
   -10.3213 -10.2953 -10.2688 -10.2688 -10.1620 -10.1149 -10.0992 -10.0992
    -4.6634  -4.6634  -4.6490  -4.6490  -4.6435  -4.6258  -4.6258  -4.6172
    -4.5984  -4.5806  -4.5806  -4.5671  -4.5443  -4.5443  -4.5126  -4.5126
    -4.4939  -4.4927  -4.4927  -4.4765  -4.4647  -4.4570  -4.4570  -4.4525
    -4.4497  -4.4497  -4.4483  -4.4328  -4.4328  -4.4086  -4.3972  -4.3972
    -4.3599  -4.3502  -4.3502  -4.3290  -4.3290  -4.3071  -4.3022  -4.2929
    -4.2929  -4.2681  -4.2657  -4.2602  -4.2602  -4.2306  -4.2292  -4.2292
    -4.2001  -4.2001  -4.1918  -4.1849  -4.1763  -4.1683  -4.1683  -4.1636
    -4.1587  -4.1587  -4.1442  -4.1442  -4.1367  -4.1367  -4.1342  -4.1094
    -4.1094  -4.0590  -4.0132  -4.0132  -3.9649  -3.9649  -3.9081  -3.8317
    -3.6113  -3.5900  -3.5900  -3.5270  -3.5270  -3.4816  -3.4266  -3.4266
     2.5335   2.5335   2.5939   2.6889   2.6889   2.7076   3.0280   3.0438
     3.0438   3.1058   3.1894   3.1894   3.8170   4.0447   4.2007   4.2048
     4.2048   4.4098   4.5101   4.5101   4.7116   4.7116   4.7212   4.9226
     4.9226   5.0167   5.0925   5.0925   5.2417   5.3510   5.3976   5.3976
     5.5974   5.6505   5.6505   5.8254   5.8254   5.9003   5.9003   5.9847
     6.1418   6.1930   6.1930   6.4637   6.4637   6.5244   6.5927   6.5927
     6.6822   6.7926   6.7926   6.8951   6.9896   7.0435   7.0435   7.1439
     7.2652   7.2652   7.3723   7.3723   7.3903   7.4434   7.4505   7.4505
     7.7500   7.7521   7.7521   7.7731   7.7750   7.7750   7.8004   7.8004
    12.4442  12.4442  12.4595  13.6947  14.4658  14.4882  14.4882  14.8415
    14.8415  15.0031  15.3193  15.3847  15.3847  15.4418  15.5885  15.5886

     occupation numbers 
     1.0000   1.0000   1.0000   1.0000   1.0000   1.0000   1.0000   1.0000
     1.0000   1.0000   1.0000   1.0000   1.0000   1.0000   1.0000   1.0000
     1.0000   1.0000   1.0000   1.0000   1.0000   1.0000   1.0000   1.0000
     1.0000   1.0000   1.0000   1.0000   1.0000   1.0000   1.0000   1.0000
     1.0000   1.0000   1.0000   1.0000   1.0000   1.0000   1.0000   1.0000
     1.0000   1.0000   1.0000   1.0000   1.0000   1.0000   1.0000   1.0000
     1.0000   1.0000   1.0000   1.0000   1.0000   1.0000   1.0000   1.0000
     1.0000   1.0000   1.0000   1.0000   1.0000   1.0000   1.0000   1.0000
     1.0000   1.0000   1.0000   1.0000   1.0000   1.0000   1.0000   1.0000
     1.0000   1.0000   1.0000   1.0000   1.0000   1.0000   1.0000   1.0000
     1.0000   1.0000   1.0000   1.0000   1.0000   1.0000   1.0000   1.0000
     1.0000   1.0000   1.0000   1.0000   1.0000   1.0000   1.0000   1.0000
     1.0000   1.0000   1.0000   1.0000   1.0000   1.0000   1.0000   1.0000
     1.0000   1.0000   1.0000   1.0000   1.0000   1.0000   1.0000   1.0000
     1.0000   1.0000   1.0000   1.0000   1.0000   1.0000   1.0000   1.0000
     1.0000   1.0000   1.0000   1.0000   1.0000   1.0000   1.0000   1.0000
     1.0000   1.0000   1.0000   1.0000   1.0000   1.0000   1.0000   1.0000
     1.0000   1.0000   1.0000   1.0000   1.0000   1.0000   1.0000   1.0000
     1.0000   1.0000   1.0000   1.0000   1.0000   1.0000   1.0000   1.0000
     1.0000   1.0000   1.0000   1.0000   1.0000   1.0000   1.0000   1.0000
     1.0000   1.0000   1.0000   1.0000   1.0000   1.0000   1.0000   1.0000
     1.0000   1.0000   1.0000   1.0000   1.0000   1.0000   1.0000   1.0000
     0.0000   0.0000   0.0000   0.0000   0.0000   0.0000   0.0000   0.0000
     0.0000   0.0000   0.0000   0.0000   0.0000   0.0000   0.0000   0.0000

          k =-0.0000-0.0000 0.5774 ( 44720 PWs)   bands (ev):

   -11.1154 -10.8862 -10.8771 -10.8164 -10.8027 -10.6729 -10.6134 -10.6062
   -10.5947 -10.5455 -10.3976 -10.3866 -10.3707 -10.3512 -10.3307 -10.3264
   -10.3160 -10.2457 -10.2305 -10.2147 -10.1772 -10.1459 -10.1427 -10.0781
    -4.6850  -4.6694  -4.6438  -4.6361  -4.6232  -4.6185  -4.6173  -4.6162
    -4.6123  -4.5904  -4.5675  -4.5482  -4.5474  -4.5402  -4.5346  -4.5255
    -4.5184  -4.4976  -4.4953  -4.4728  -4.4720  -4.4584  -4.4573  -4.4509
    -4.4493  -4.4400  -4.4305  -4.4233  -4.4180  -4.4171  -4.3982  -4.3679
    -4.3677  -4.3541  -4.3409  -4.3281  -4.3166  -4.3133  -4.3028  -4.2968
    -4.2929  -4.2928  -4.2783  -4.2697  -4.2677  -4.2487  -4.2420  -4.2274
    -4.2146  -4.2074  -4.1951  -4.1942  -4.1783  -4.1743  -4.1679  -4.1657
    -4.1584  -4.1561  -4.1490  -4.1468  -4.1408  -4.1404  -4.1370  -4.1271
    -4.1149  -4.1108  -3.9775  -3.9259  -3.8964  -3.8092  -3.8070  -3.7429
    -3.6758  -3.6738  -3.6398  -3.5802  -3.5449  -3.5058  -3.4753  -3.4118
     2.3118   2.4017   2.4377   2.5358   2.6585   2.6610   3.2036   3.2095
     3.2554   3.2879   3.3677   3.9728   3.9958   4.0292   4.0652   4.0721
     4.1329   4.1664   4.2395   4.3139   4.3538   4.5227   4.6459   4.8681
     4.9635   4.9851   5.0779   5.1560   5.3083   5.3219   5.4033   5.5622
     5.6430   5.6544   5.7600   5.8809   5.8909   5.8947   5.9583   6.0774
     6.0807   6.1603   6.2437   6.2649   6.3187   6.4418   6.4946   6.5441
     6.5568   6.7907   6.8556   6.9505   7.0371   7.0532   7.1896   7.2043
     7.3499   7.3658   7.4209   7.4232   7.5163   7.5235   7.6003   7.6045
     7.6096   7.6555   7.6807   7.6818   7.6820   7.7360   7.7607   7.7759
    11.7868  13.2580  13.2735  13.3050  13.3054  14.1493  14.5433  14.6040
    14.6291  14.7939  15.5359  15.5442  15.5642  15.6302  15.8107  15.9286

     occupation numbers 
     1.0000   1.0000   1.0000   1.0000   1.0000   1.0000   1.0000   1.0000
     1.0000   1.0000   1.0000   1.0000   1.0000   1.0000   1.0000   1.0000
     1.0000   1.0000   1.0000   1.0000   1.0000   1.0000   1.0000   1.0000
     1.0000   1.0000   1.0000   1.0000   1.0000   1.0000   1.0000   1.0000
     1.0000   1.0000   1.0000   1.0000   1.0000   1.0000   1.0000   1.0000
     1.0000   1.0000   1.0000   1.0000   1.0000   1.0000   1.0000   1.0000
     1.0000   1.0000   1.0000   1.0000   1.0000   1.0000   1.0000   1.0000
     1.0000   1.0000   1.0000   1.0000   1.0000   1.0000   1.0000   1.0000
     1.0000   1.0000   1.0000   1.0000   1.0000   1.0000   1.0000   1.0000
     1.0000   1.0000   1.0000   1.0000   1.0000   1.0000   1.0000   1.0000
     1.0000   1.0000   1.0000   1.0000   1.0000   1.0000   1.0000   1.0000
     1.0000   1.0000   1.0000   1.0000   1.0000   1.0000   1.0000   1.0000
     1.0000   1.0000   1.0000   1.0000   1.0000   1.0000   1.0000   1.0000
     1.0000   1.0000   1.0000   1.0000   1.0000   1.0000   1.0000   1.0000
     1.0000   1.0000   1.0000   1.0000   1.0000   1.0000   1.0000   1.0000
     1.0000   1.0000   1.0000   1.0000   1.0000   1.0000   1.0000   1.0000
     1.0000   1.0000   1.0000   1.0000   1.0000   1.0000   1.0000   1.0000
     1.0000   1.0000   1.0000   1.0000   1.0000   1.0000   1.0000   1.0000
     1.0000   1.0000   1.0000   1.0000   1.0000   1.0000   1.0000   1.0000
     1.0000   1.0000   1.0000   1.0000   1.0000   1.0000   1.0000   1.0000
     1.0000   1.0000   1.0000   1.0000   1.0000   1.0000   1.0000   1.0000
     1.0000   1.0000   1.0000   1.0000   1.0000   1.0000   1.0000   1.0000
     0.0000   0.0000   0.0000   0.0000   0.0000   0.0000   0.0000   0.0000
     0.0000   0.0000   0.0000   0.0000   0.0000   0.0000   0.0000   0.0000

     highest occupied, lowest unoccupied level (ev):     7.8931    9.9412

!    total energy              =   -2430.30016871 Ry
     estimated scf accuracy    <          2.9E-11 Ry

     convergence has been achieved in  11 iterations

     Using ACE for calculation of exact exchange
     ACE projected onto   192 (nbndproj) and applied to   192 (nbnd) bands

     total energy              =   -2430.30716065 Ry
     Harris-Foulkes estimate   =   -2430.30716065 Ry
     est. exchange err (dexx)  =       0.00699194 Ry
     - averaged Fock potential =     140.29501770 Ry
     + Fock energy (ACE)       =     -70.16379390 Ry

     EXX: now go back to refine exchange calculation

     total cpu time spent up to now is       66.1 secs

     Self-consistent Calculation
[tb_dev] Currently allocated     1.53E-04 Mbytes, locked:    0 /   1
[tb_pin] Currently allocated     0.00E+00 Mbytes, locked:    0 /   0

     iteration #  1     ecut=    80.00 Ry     beta= 0.30
     Davidson diagonalization with overlap

---- Real-time Memory Report at c_bands before calling an iterative solver
          7197 MiB given to the printing process from OS
             0 MiB allocation reported by mallinfo(arena+hblkhd)
         23987 MiB available memory on the node where the printing process lives
     GPU memory used/free/total (MiB): 10284 / 85026 / 95311
------------------
     ethr =  4.87E-13,  avg # of iterations = 13.5

     total cpu time spent up to now is       69.0 secs

     total energy              =   -2430.30785455 Ry
     estimated scf accuracy    <       0.00022906 Ry
[tb_dev] Currently allocated     1.53E-04 Mbytes, locked:    0 /   1
[tb_pin] Currently allocated     0.00E+00 Mbytes, locked:    0 /   0

     iteration #  2     ecut=    80.00 Ry     beta= 0.30
     Davidson diagonalization with overlap

---- Real-time Memory Report at c_bands before calling an iterative solver
          7197 MiB given to the printing process from OS
             0 MiB allocation reported by mallinfo(arena+hblkhd)
         23986 MiB available memory on the node where the printing process lives
     GPU memory used/free/total (MiB): 10284 / 85026 / 95311
------------------
     ethr =  6.51E-08,  avg # of iterations =  1.3

     total cpu time spent up to now is       69.8 secs

     total energy              =   -2430.30784393 Ry
     estimated scf accuracy    <       0.00005775 Ry
[tb_dev] Currently allocated     1.53E-04 Mbytes, locked:    0 /   1
[tb_pin] Currently allocated     0.00E+00 Mbytes, locked:    0 /   0

     iteration #  3     ecut=    80.00 Ry     beta= 0.30
     Davidson diagonalization with overlap

---- Real-time Memory Report at c_bands before calling an iterative solver
          7197 MiB given to the printing process from OS
             0 MiB allocation reported by mallinfo(arena+hblkhd)
         23986 MiB available memory on the node where the printing process lives
     GPU memory used/free/total (MiB): 10284 / 85026 / 95311
------------------
     ethr =  1.64E-08,  avg # of iterations =  2.0

     total cpu time spent up to now is       70.8 secs

     total energy              =   -2430.30784582 Ry
     estimated scf accuracy    <       0.00001006 Ry
[tb_dev] Currently allocated     1.53E-04 Mbytes, locked:    0 /   1
[tb_pin] Currently allocated     0.00E+00 Mbytes, locked:    0 /   0

     iteration #  4     ecut=    80.00 Ry     beta= 0.30
     Davidson diagonalization with overlap

---- Real-time Memory Report at c_bands before calling an iterative solver
          7197 MiB given to the printing process from OS
             0 MiB allocation reported by mallinfo(arena+hblkhd)
         23986 MiB available memory on the node where the printing process lives
     GPU memory used/free/total (MiB): 10284 / 85026 / 95311
------------------
     ethr =  2.86E-09,  avg # of iterations =  2.0

     total cpu time spent up to now is       71.7 secs

     total energy              =   -2430.30784678 Ry
     estimated scf accuracy    <       0.00000077 Ry
[tb_dev] Currently allocated     1.53E-04 Mbytes, locked:    0 /   1
[tb_pin] Currently allocated     0.00E+00 Mbytes, locked:    0 /   0

     iteration #  5     ecut=    80.00 Ry     beta= 0.30
     Davidson diagonalization with overlap

---- Real-time Memory Report at c_bands before calling an iterative solver
          7197 MiB given to the printing process from OS
             0 MiB allocation reported by mallinfo(arena+hblkhd)
         23983 MiB available memory on the node where the printing process lives
     GPU memory used/free/total (MiB): 10284 / 85026 / 95311
------------------
     ethr =  2.19E-10,  avg # of iterations =  2.0

     total cpu time spent up to now is       72.7 secs

     total energy              =   -2430.30784688 Ry
     estimated scf accuracy    <       0.00000026 Ry
[tb_dev] Currently allocated     1.53E-04 Mbytes, locked:    0 /   1
[tb_pin] Currently allocated     0.00E+00 Mbytes, locked:    0 /   0

     iteration #  6     ecut=    80.00 Ry     beta= 0.30
     Davidson diagonalization with overlap

---- Real-time Memory Report at c_bands before calling an iterative solver
          7197 MiB given to the printing process from OS
             0 MiB allocation reported by mallinfo(arena+hblkhd)
         23969 MiB available memory on the node where the printing process lives
     GPU memory used/free/total (MiB): 10284 / 85026 / 95311
------------------
     ethr =  7.34E-11,  avg # of iterations =  1.5

     total cpu time spent up to now is       73.5 secs

     total energy              =   -2430.30784690 Ry
     estimated scf accuracy    <       0.00000001 Ry
[tb_dev] Currently allocated     1.53E-04 Mbytes, locked:    0 /   1
[tb_pin] Currently allocated     0.00E+00 Mbytes, locked:    0 /   0

     iteration #  7     ecut=    80.00 Ry     beta= 0.30
     Davidson diagonalization with overlap

---- Real-time Memory Report at c_bands before calling an iterative solver
          7197 MiB given to the printing process from OS
             0 MiB allocation reported by mallinfo(arena+hblkhd)
         23963 MiB available memory on the node where the printing process lives
     GPU memory used/free/total (MiB): 10284 / 85026 / 95311
------------------
     ethr =  2.86E-12,  avg # of iterations =  3.0

     total cpu time spent up to now is       74.7 secs

     total energy              =   -2430.30784690 Ry
     estimated scf accuracy    <       0.00000001 Ry
[tb_dev] Currently allocated     1.53E-04 Mbytes, locked:    0 /   1
[tb_pin] Currently allocated     0.00E+00 Mbytes, locked:    0 /   0

     iteration #  8     ecut=    80.00 Ry     beta= 0.30
     Davidson diagonalization with overlap

---- Real-time Memory Report at c_bands before calling an iterative solver
          7197 MiB given to the printing process from OS
             0 MiB allocation reported by mallinfo(arena+hblkhd)
         23949 MiB available memory on the node where the printing process lives
     GPU memory used/free/total (MiB): 10284 / 85026 / 95311
------------------
     ethr =  2.86E-12,  avg # of iterations =  2.0

     total cpu time spent up to now is       75.6 secs

     End of self-consistent calculation

          k = 0.0000 0.0000 0.0000 ( 44411 PWs)   bands (ev):

   -11.3472 -10.7424 -10.7424 -10.6699 -10.6699 -10.6699 -10.5934 -10.5934
   -10.5934 -10.5766 -10.5766 -10.5766 -10.3069 -10.3069 -10.3069 -10.3049
   -10.3049 -10.3049 -10.2946 -10.2946 -10.1932 -10.1932 -10.1932 -10.0177
    -4.7145  -4.7145  -4.7145  -4.6336  -4.6336  -4.6336  -4.5876  -4.5876
    -4.5702  -4.5584  -4.5584  -4.5584  -4.5238  -4.5106  -4.5106  -4.5106
    -4.4928  -4.4928  -4.4928  -4.4905  -4.4905  -4.4801  -4.4435  -4.4435
    -4.4382  -4.4382  -4.4382  -4.4209  -4.4209  -4.4209  -4.3824  -4.3824
    -4.3824  -4.3426  -4.3426  -4.3126  -4.3126  -4.3126  -4.3121  -4.3121
    -4.3121  -4.3079  -4.2933  -4.2628  -4.2628  -4.2416  -4.2416  -4.2416
    -4.2370  -4.2370  -4.2370  -4.1869  -4.1869  -4.1869  -4.1539  -4.1539
    -4.1539  -4.1360  -4.1360  -4.1336  -4.1051  -4.1022  -4.1022  -4.1022
    -4.0817  -4.0817  -4.0817  -4.0374  -4.0374  -4.0159  -4.0159  -4.0159
    -3.6500  -3.6500  -3.6500  -3.5781  -3.5781  -3.2571  -3.2571  -3.2571
     2.4171   2.4439   2.4439   2.9558   2.9558   3.1020   3.1020   3.1020
     3.3151   3.3151   3.3151   3.5115   3.5115   3.5115   3.7131   4.0104
     4.0104   4.0104   4.4430   4.4430   4.4430   4.7017   4.8223   4.8223
     4.8223   4.8332   4.8332   4.8332   5.3867   5.6465   5.6465   5.6465
     5.6643   5.6643   6.0267   6.0267   6.0267   6.0654   6.0654   6.0654
     6.1526   6.1526   6.1526   6.1873   6.3218   6.3218   6.3793   6.3793
     6.3793   6.7350   6.7350   7.0585   7.0585   7.0585   7.1240   7.1240
     7.1240   7.4030   7.4030   7.4030   7.5359   7.5359   7.5359   7.5947
     7.5947   7.6271   7.6271   7.6271   7.6404   7.8857   7.8857   7.8857
     9.9884  14.4885  14.4885  14.4885  14.5853  14.6331  14.6331  14.6406
    14.6406  14.6406  14.7593  14.7593  14.7593  15.4769  15.4769  15.5949

     occupation numbers 
     1.0000   1.0000   1.0000   1.0000   1.0000   1.0000   1.0000   1.0000
     1.0000   1.0000   1.0000   1.0000   1.0000   1.0000   1.0000   1.0000
     1.0000   1.0000   1.0000   1.0000   1.0000   1.0000   1.0000   1.0000
     1.0000   1.0000   1.0000   1.0000   1.0000   1.0000   1.0000   1.0000
     1.0000   1.0000   1.0000   1.0000   1.0000   1.0000   1.0000   1.0000
     1.0000   1.0000   1.0000   1.0000   1.0000   1.0000   1.0000   1.0000
     1.0000   1.0000   1.0000   1.0000   1.0000   1.0000   1.0000   1.0000
     1.0000   1.0000   1.0000   1.0000   1.0000   1.0000   1.0000   1.0000
     1.0000   1.0000   1.0000   1.0000   1.0000   1.0000   1.0000   1.0000
     1.0000   1.0000   1.0000   1.0000   1.0000   1.0000   1.0000   1.0000
     1.0000   1.0000   1.0000   1.0000   1.0000   1.0000   1.0000   1.0000
     1.0000   1.0000   1.0000   1.0000   1.0000   1.0000   1.0000   1.0000
     1.0000   1.0000   1.0000   1.0000   1.0000   1.0000   1.0000   1.0000
     1.0000   1.0000   1.0000   1.0000   1.0000   1.0000   1.0000   1.0000
     1.0000   1.0000   1.0000   1.0000   1.0000   1.0000   1.0000   1.0000
     1.0000   1.0000   1.0000   1.0000   1.0000   1.0000   1.0000   1.0000
     1.0000   1.0000   1.0000   1.0000   1.0000   1.0000   1.0000   1.0000
     1.0000   1.0000   1.0000   1.0000   1.0000   1.0000   1.0000   1.0000
     1.0000   1.0000   1.0000   1.0000   1.0000   1.0000   1.0000   1.0000
     1.0000   1.0000   1.0000   1.0000   1.0000   1.0000   1.0000   1.0000
     1.0000   1.0000   1.0000   1.0000   1.0000   1.0000   1.0000   1.0000
     1.0000   1.0000   1.0000   1.0000   1.0000   1.0000   1.0000   1.0000
     0.0000   0.0000   0.0000   0.0000   0.0000   0.0000   0.0000   0.0000
     0.0000   0.0000   0.0000   0.0000   0.0000   0.0000   0.0000   0.0000

          k = 0.2887 0.2887-0.0000 ( 44579 PWs)   bands (ev):

   -11.2267 -10.9424 -10.7992 -10.7737 -10.7161 -10.6819 -10.5769 -10.5406
   -10.5215 -10.5084 -10.4933 -10.4439 -10.3804 -10.3637 -10.3254 -10.3243
   -10.3058 -10.2908 -10.2697 -10.2614 -10.1830 -10.1740 -10.1328 -10.0448
    -4.6893  -4.6757  -4.6562  -4.6525  -4.6469  -4.6205  -4.6167  -4.6049
    -4.5949  -4.5933  -4.5785  -4.5673  -4.5607  -4.5503  -4.5252  -4.5204
    -4.5186  -4.4920  -4.4878  -4.4787  -4.4734  -4.4671  -4.4612  -4.4476
    -4.4457  -4.4445  -4.4415  -4.4335  -4.4239  -4.4043  -4.3995  -4.3871
    -4.3867  -4.3592  -4.3424  -4.3382  -4.3295  -4.3167  -4.3084  -4.2931
    -4.2879  -4.2842  -4.2700  -4.2686  -4.2613  -4.2508  -4.2449  -4.2378
    -4.2168  -4.1998  -4.1949  -4.1860  -4.1791  -4.1761  -4.1673  -4.1610
    -4.1602  -4.1592  -4.1527  -4.1455  -4.1444  -4.1410  -4.1285  -4.1158
    -4.1031  -4.0810  -4.0652  -4.0293  -3.9863  -3.9798  -3.9251  -3.7766
    -3.7322  -3.6300  -3.6069  -3.5775  -3.5561  -3.3717  -3.3707  -3.3401
     2.4300   2.5978   2.6057   2.6469   2.8188   2.8765   2.9240   2.9724
     2.9961   3.1065   3.4865   3.5124   3.7907   3.8129   4.0023   4.0496
     4.1220   4.3598   4.5095   4.5102   4.6349   4.6824   4.7208   4.7951
     4.8442   4.8907   5.0616   5.1053   5.2687   5.2756   5.5086   5.5173
     5.5567   5.6632   5.7363   5.7848   5.8563   5.9442   5.9947   6.0862
     6.2380   6.2425   6.2835   6.3488   6.4122   6.4927   6.5355   6.6324
     6.7689   6.7767   6.8178   6.8694   6.9275   6.9493   6.9801   7.1121
     7.1933   7.2014   7.3078   7.4354   7.4448   7.4487   7.5150   7.5847
     7.6020   7.6449   7.6536   7.7149   7.7870   7.8127   7.8524   7.8821
    11.1314  12.9881  13.9921  14.0041  14.0775  14.1002  14.7260  14.8392
    15.0083  15.0968  15.1326  15.1766  15.2594  15.3422  15.5420  15.6997

     occupation numbers 
     1.0000   1.0000   1.0000   1.0000   1.0000   1.0000   1.0000   1.0000
     1.0000   1.0000   1.0000   1.0000   1.0000   1.0000   1.0000   1.0000
     1.0000   1.0000   1.0000   1.0000   1.0000   1.0000   1.0000   1.0000
     1.0000   1.0000   1.0000   1.0000   1.0000   1.0000   1.0000   1.0000
     1.0000   1.0000   1.0000   1.0000   1.0000   1.0000   1.0000   1.0000
     1.0000   1.0000   1.0000   1.0000   1.0000   1.0000   1.0000   1.0000
     1.0000   1.0000   1.0000   1.0000   1.0000   1.0000   1.0000   1.0000
     1.0000   1.0000   1.0000   1.0000   1.0000   1.0000   1.0000   1.0000
     1.0000   1.0000   1.0000   1.0000   1.0000   1.0000   1.0000   1.0000
     1.0000   1.0000   1.0000   1.0000   1.0000   1.0000   1.0000   1.0000
     1.0000   1.0000   1.0000   1.0000   1.0000   1.0000   1.0000   1.0000
     1.0000   1.0000   1.0000   1.0000   1.0000   1.0000   1.0000   1.0000
     1.0000   1.0000   1.0000   1.0000   1.0000   1.0000   1.0000   1.0000
     1.0000   1.0000   1.0000   1.0000   1.0000   1.0000   1.0000   1.0000
     1.0000   1.0000   1.0000   1.0000   1.0000   1.0000   1.0000   1.0000
     1.0000   1.0000   1.0000   1.0000   1.0000   1.0000   1.0000   1.0000
     1.0000   1.0000   1.0000   1.0000   1.0000   1.0000   1.0000   1.0000
     1.0000   1.0000   1.0000   1.0000   1.0000   1.0000   1.0000   1.0000
     1.0000   1.0000   1.0000   1.0000   1.0000   1.0000   1.0000   1.0000
     1.0000   1.0000   1.0000   1.0000   1.0000   1.0000   1.0000   1.0000
     1.0000   1.0000   1.0000   1.0000   1.0000   1.0000   1.0000   1.0000
     1.0000   1.0000   1.0000   1.0000   1.0000   1.0000   1.0000   1.0000
     0.0000   0.0000   0.0000   0.0000   0.0000   0.0000   0.0000   0.0000
     0.0000   0.0000   0.0000   0.0000   0.0000   0.0000   0.0000   0.0000

          k = 0.5774 0.2887 0.2887 ( 44587 PWs)   bands (ev):

   -11.0309 -11.0237 -11.0237 -10.8295 -10.6298 -10.6298 -10.5490 -10.5490
   -10.5467 -10.5161 -10.4243 -10.4243 -10.3796 -10.3796 -10.3587 -10.3242
   -10.3242 -10.2977 -10.2717 -10.2717 -10.1651 -10.1174 -10.1016 -10.1016
    -4.6701  -4.6701  -4.6556  -4.6556  -4.6495  -4.6319  -4.6319  -4.6229
    -4.6050  -4.5867  -4.5867  -4.5733  -4.5500  -4.5500  -4.5181  -4.5181
    -4.4985  -4.4974  -4.4974  -4.4820  -4.4685  -4.4615  -4.4615  -4.4576
    -4.4533  -4.4533  -4.4524  -4.4363  -4.4363  -4.4130  -4.4020  -4.4020
    -4.3640  -4.3544  -4.3544  -4.3325  -4.3325  -4.3104  -4.3061  -4.2963
    -4.2963  -4.2715  -4.2693  -4.2639  -4.2639  -4.2343  -4.2325  -4.2325
    -4.2041  -4.2041  -4.1952  -4.1888  -4.1799  -4.1720  -4.1720  -4.1669
    -4.1619  -4.1619  -4.1473  -4.1473  -4.1401  -4.1401  -4.1376  -4.1136
    -4.1136  -4.0632  -4.0180  -4.0180  -3.9703  -3.9703  -3.9132  -3.8372
    -3.6164  -3.5951  -3.5951  -3.5322  -3.5322  -3.4865  -3.4316  -3.4316
     2.5385   2.5385   2.5981   2.6936   2.6936   2.7118   3.0332   3.0498
     3.0498   3.1112   3.1958   3.1958   3.8197   4.0420   4.1970   4.2010
     4.2010   4.4102   4.5057   4.5057   4.7055   4.7055   4.7151   4.9176
     4.9176   5.0176   5.0887   5.0887   5.2335   5.3443   5.3912   5.3912
     5.5881   5.6419   5.6419   5.8158   5.8158   5.8909   5.8909   5.9742
     6.1347   6.1830   6.1830   6.4517   6.4517   6.5155   6.5835   6.5835
     6.6733   6.7828   6.7828   6.8853   6.9846   7.0357   7.0357   7.1355
     7.2555   7.2555   7.3633   7.3633   7.3798   7.4324   7.4408   7.4408
     7.7408   7.7424   7.7424   7.7626   7.7657   7.7657   7.7920   7.7920
    12.4744  12.4744  12.4895  13.7213  14.4873  14.5099  14.5099  14.8633
    14.8633  15.0230  15.3366  15.4033  15.4033  15.4581  15.6075  15.6075

     occupation numbers 
     1.0000   1.0000   1.0000   1.0000   1.0000   1.0000   1.0000   1.0000
     1.0000   1.0000   1.0000   1.0000   1.0000   1.0000   1.0000   1.0000
     1.0000   1.0000   1.0000   1.0000   1.0000   1.0000   1.0000   1.0000
     1.0000   1.0000   1.0000   1.0000   1.0000   1.0000   1.0000   1.0000
     1.0000   1.0000   1.0000   1.0000   1.0000   1.0000   1.0000   1.0000
     1.0000   1.0000   1.0000   1.0000   1.0000   1.0000   1.0000   1.0000
     1.0000   1.0000   1.0000   1.0000   1.0000   1.0000   1.0000   1.0000
     1.0000   1.0000   1.0000   1.0000   1.0000   1.0000   1.0000   1.0000
     1.0000   1.0000   1.0000   1.0000   1.0000   1.0000   1.0000   1.0000
     1.0000   1.0000   1.0000   1.0000   1.0000   1.0000   1.0000   1.0000
     1.0000   1.0000   1.0000   1.0000   1.0000   1.0000   1.0000   1.0000
     1.0000   1.0000   1.0000   1.0000   1.0000   1.0000   1.0000   1.0000
     1.0000   1.0000   1.0000   1.0000   1.0000   1.0000   1.0000   1.0000
     1.0000   1.0000   1.0000   1.0000   1.0000   1.0000   1.0000   1.0000
     1.0000   1.0000   1.0000   1.0000   1.0000   1.0000   1.0000   1.0000
     1.0000   1.0000   1.0000   1.0000   1.0000   1.0000   1.0000   1.0000
     1.0000   1.0000   1.0000   1.0000   1.0000   1.0000   1.0000   1.0000
     1.0000   1.0000   1.0000   1.0000   1.0000   1.0000   1.0000   1.0000
     1.0000   1.0000   1.0000   1.0000   1.0000   1.0000   1.0000   1.0000
     1.0000   1.0000   1.0000   1.0000   1.0000   1.0000   1.0000   1.0000
     1.0000   1.0000   1.0000   1.0000   1.0000   1.0000   1.0000   1.0000
     1.0000   1.0000   1.0000   1.0000   1.0000   1.0000   1.0000   1.0000
     0.0000   0.0000   0.0000   0.0000   0.0000   0.0000   0.0000   0.0000
     0.0000   0.0000   0.0000   0.0000   0.0000   0.0000   0.0000   0.0000

          k =-0.0000-0.0000 0.5774 ( 44720 PWs)   bands (ev):

   -11.1171 -10.8885 -10.8795 -10.8185 -10.8048 -10.6762 -10.6172 -10.6102
   -10.5991 -10.5483 -10.4004 -10.3900 -10.3738 -10.3544 -10.3341 -10.3295
   -10.3186 -10.2489 -10.2327 -10.2177 -10.1800 -10.1489 -10.1455 -10.0802
    -4.6918  -4.6761  -4.6505  -4.6425  -4.6299  -4.6250  -4.6233  -4.6222
    -4.6187  -4.5966  -4.5739  -4.5540  -4.5530  -4.5456  -4.5405  -4.5301
    -4.5237  -4.5041  -4.4986  -4.4775  -4.4771  -4.4622  -4.4613  -4.4567
    -4.4521  -4.4438  -4.4341  -4.4286  -4.4235  -4.4200  -4.4018  -4.3718
    -4.3714  -4.3588  -4.3459  -4.3320  -4.3209  -4.3172  -4.3061  -4.3003
    -4.2966  -4.2965  -4.2821  -4.2734  -4.2717  -4.2522  -4.2454  -4.2315
    -4.2178  -4.2108  -4.1986  -4.1976  -4.1814  -4.1776  -4.1714  -4.1693
    -4.1617  -4.1596  -4.1522  -4.1502  -4.1445  -4.1439  -4.1405  -4.1301
    -4.1185  -4.1143  -3.9826  -3.9313  -3.9019  -3.8146  -3.8122  -3.7484
    -3.6810  -3.6790  -3.6451  -3.5856  -3.5500  -3.5107  -3.4804  -3.4168
     2.3165   2.4057   2.4416   2.5403   2.6620   2.6643   3.2086   3.2155
     3.2611   3.2933   3.3738   3.9768   3.9988   4.0359   4.0658   4.0779
     4.1318   4.1615   4.2324   4.3097   4.3473   4.5199   4.6384   4.8641
     4.9556   4.9792   5.0728   5.1489   5.3094   5.3155   5.3969   5.5542
     5.6332   5.6459   5.7497   5.8712   5.8805   5.8841   5.9488   6.0678
     6.0697   6.1487   6.2350   6.2570   6.3094   6.4307   6.4845   6.5323
     6.5461   6.7816   6.8453   6.9450   7.0258   7.0480   7.1746   7.1936
     7.3416   7.3546   7.4110   7.4144   7.5082   7.5157   7.5900   7.5952
     7.5998   7.6468   7.6727   7.6732   7.6741   7.7294   7.7526   7.7680
    11.8197  13.2845  13.2999  13.3318  13.3320  14.1712  14.5659  14.6264
    14.6516  14.8150  15.5516  15.5543  15.5795  15.6442  15.8283  15.9460

     occupation numbers 
     1.0000   1.0000   1.0000   1.0000   1.0000   1.0000   1.0000   1.0000
     1.0000   1.0000   1.0000   1.0000   1.0000   1.0000   1.0000   1.0000
     1.0000   1.0000   1.0000   1.0000   1.0000   1.0000   1.0000   1.0000
     1.0000   1.0000   1.0000   1.0000   1.0000   1.0000   1.0000   1.0000
     1.0000   1.0000   1.0000   1.0000   1.0000   1.0000   1.0000   1.0000
     1.0000   1.0000   1.0000   1.0000   1.0000   1.0000   1.0000   1.0000
     1.0000   1.0000   1.0000   1.0000   1.0000   1.0000   1.0000   1.0000
     1.0000   1.0000   1.0000   1.0000   1.0000   1.0000   1.0000   1.0000
     1.0000   1.0000   1.0000   1.0000   1.0000   1.0000   1.0000   1.0000
     1.0000   1.0000   1.0000   1.0000   1.0000   1.0000   1.0000   1.0000
     1.0000   1.0000   1.0000   1.0000   1.0000   1.0000   1.0000   1.0000
     1.0000   1.0000   1.0000   1.0000   1.0000   1.0000   1.0000   1.0000
     1.0000   1.0000   1.0000   1.0000   1.0000   1.0000   1.0000   1.0000
     1.0000   1.0000   1.0000   1.0000   1.0000   1.0000   1.0000   1.0000
     1.0000   1.0000   1.0000   1.0000   1.0000   1.0000   1.0000   1.0000
     1.0000   1.0000   1.0000   1.0000   1.0000   1.0000   1.0000   1.0000
     1.0000   1.0000   1.0000   1.0000   1.0000   1.0000   1.0000   1.0000
     1.0000   1.0000   1.0000   1.0000   1.0000   1.0000   1.0000   1.0000
     1.0000   1.0000   1.0000   1.0000   1.0000   1.0000   1.0000   1.0000
     1.0000   1.0000   1.0000   1.0000   1.0000   1.0000   1.0000   1.0000
     1.0000   1.0000   1.0000   1.0000   1.0000   1.0000   1.0000   1.0000
     1.0000   1.0000   1.0000   1.0000   1.0000   1.0000   1.0000   1.0000
     0.0000   0.0000   0.0000   0.0000   0.0000   0.0000   0.0000   0.0000
     0.0000   0.0000   0.0000   0.0000   0.0000   0.0000   0.0000   0.0000

     highest occupied, lowest unoccupied level (ev):     7.8857    9.9884

!    total energy              =   -2430.30784691 Ry
     estimated scf accuracy    <          2.0E-10 Ry

     convergence has been achieved in   8 iterations

     Using ACE for calculation of exact exchange
     ACE projected onto   192 (nbndproj) and applied to   192 (nbnd) bands

     total energy              =   -2430.30792890 Ry
     Harris-Foulkes estimate   =   -2430.30792890 Ry
     est. exchange err (dexx)  =       0.00008200 Ry
     - averaged Fock potential =     140.33553046 Ry
     + Fock energy (ACE)       =     -70.17181856 Ry

     EXX: now go back to refine exchange calculation

     total cpu time spent up to now is       93.7 secs

     Self-consistent Calculation
[tb_dev] Currently allocated     1.53E-04 Mbytes, locked:    0 /   1
[tb_pin] Currently allocated     0.00E+00 Mbytes, locked:    0 /   0

     iteration #  1     ecut=    80.00 Ry     beta= 0.30
     Davidson diagonalization with overlap

---- Real-time Memory Report at c_bands before calling an iterative solver
          7197 MiB given to the printing process from OS
             0 MiB allocation reported by mallinfo(arena+hblkhd)
         24040 MiB available memory on the node where the printing process lives
     GPU memory used/free/total (MiB): 10284 / 85026 / 95311
------------------
     ethr =  2.86E-12,  avg # of iterations =  8.3

     total cpu time spent up to now is       95.7 secs

     total energy              =   -2430.30794033 Ry
     estimated scf accuracy    <       0.00000261 Ry
[tb_dev] Currently allocated     1.53E-04 Mbytes, locked:    0 /   1
[tb_pin] Currently allocated     0.00E+00 Mbytes, locked:    0 /   0

     iteration #  2     ecut=    80.00 Ry     beta= 0.30
     Davidson diagonalization with overlap

---- Real-time Memory Report at c_bands before calling an iterative solver
          7197 MiB given to the printing process from OS
             0 MiB allocation reported by mallinfo(arena+hblkhd)
         24047 MiB available memory on the node where the printing process lives
     GPU memory used/free/total (MiB): 10284 / 85026 / 95311
------------------
     ethr =  7.41E-10,  avg # of iterations =  2.0

     total cpu time spent up to now is       96.6 secs

     total energy              =   -2430.30794035 Ry
     estimated scf accuracy    <       0.00000062 Ry
[tb_dev] Currently allocated     1.53E-04 Mbytes, locked:    0 /   1
[tb_pin] Currently allocated     0.00E+00 Mbytes, locked:    0 /   0

     iteration #  3     ecut=    80.00 Ry     beta= 0.30
     Davidson diagonalization with overlap

---- Real-time Memory Report at c_bands before calling an iterative solver
          7197 MiB given to the printing process from OS
             0 MiB allocation reported by mallinfo(arena+hblkhd)
         24043 MiB available memory on the node where the printing process lives
     GPU memory used/free/total (MiB): 10284 / 85026 / 95311
------------------
     ethr =  1.77E-10,  avg # of iterations =  1.8

     total cpu time spent up to now is       97.5 secs

     total energy              =   -2430.30794035 Ry
     estimated scf accuracy    <       0.00000015 Ry
[tb_dev] Currently allocated     1.53E-04 Mbytes, locked:    0 /   1
[tb_pin] Currently allocated     0.00E+00 Mbytes, locked:    0 /   0

     iteration #  4     ecut=    80.00 Ry     beta= 0.30
     Davidson diagonalization with overlap

---- Real-time Memory Report at c_bands before calling an iterative solver
          7197 MiB given to the printing process from OS
             0 MiB allocation reported by mallinfo(arena+hblkhd)
         24040 MiB available memory on the node where the printing process lives
     GPU memory used/free/total (MiB): 10284 / 85026 / 95311
------------------
     ethr =  4.28E-11,  avg # of iterations =  1.5

     total cpu time spent up to now is       98.4 secs

     total energy              =   -2430.30794035 Ry
     estimated scf accuracy    <          2.9E-09 Ry
[tb_dev] Currently allocated     1.53E-04 Mbytes, locked:    0 /   1
[tb_pin] Currently allocated     0.00E+00 Mbytes, locked:    0 /   0

     iteration #  5     ecut=    80.00 Ry     beta= 0.30
     Davidson diagonalization with overlap

---- Real-time Memory Report at c_bands before calling an iterative solver
          7197 MiB given to the printing process from OS
             0 MiB allocation reported by mallinfo(arena+hblkhd)
         24028 MiB available memory on the node where the printing process lives
     GPU memory used/free/total (MiB): 10284 / 85026 / 95311
------------------
     ethr =  8.29E-13,  avg # of iterations =  2.3

     total cpu time spent up to now is       99.4 secs

     End of self-consistent calculation

          k = 0.0000 0.0000 0.0000 ( 44411 PWs)   bands (ev):

   -11.3466 -10.7418 -10.7418 -10.6693 -10.6693 -10.6693 -10.5929 -10.5929
   -10.5929 -10.5761 -10.5761 -10.5761 -10.3062 -10.3062 -10.3062 -10.3045
   -10.3045 -10.3045 -10.2941 -10.2941 -10.1927 -10.1927 -10.1927 -10.0169
    -4.7148  -4.7148  -4.7148  -4.6341  -4.6341  -4.6341  -4.5879  -4.5879
    -4.5703  -4.5589  -4.5589  -4.5589  -4.5241  -4.5111  -4.5111  -4.5111
    -4.4932  -4.4932  -4.4932  -4.4907  -4.4907  -4.4805  -4.4437  -4.4437
    -4.4384  -4.4384  -4.4384  -4.4211  -4.4211  -4.4211  -4.3826  -4.3826
    -4.3826  -4.3427  -4.3427  -4.3128  -4.3128  -4.3128  -4.3123  -4.3123
    -4.3123  -4.3081  -4.2935  -4.2629  -4.2629  -4.2419  -4.2419  -4.2419
    -4.2372  -4.2372  -4.2372  -4.1871  -4.1871  -4.1871  -4.1541  -4.1541
    -4.1541  -4.1361  -4.1361  -4.1337  -4.1053  -4.1025  -4.1025  -4.1025
    -4.0819  -4.0819  -4.0819  -4.0377  -4.0377  -4.0162  -4.0162  -4.0162
    -3.6503  -3.6503  -3.6503  -3.5784  -3.5784  -3.2573  -3.2573  -3.2573
     2.4178   2.4448   2.4448   2.9567   2.9567   3.1026   3.1026   3.1026
     3.3158   3.3158   3.3158   3.5123   3.5123   3.5123   3.7135   4.0106
     4.0106   4.0106   4.4426   4.4426   4.4426   4.7014   4.8225   4.8225
     4.8225   4.8328   4.8328   4.8328   5.3873   5.6464   5.6464   5.6464
     5.6638   5.6638   6.0261   6.0261   6.0261   6.0644   6.0644   6.0644
     6.1516   6.1516   6.1516   6.1868   6.3212   6.3212   6.3789   6.3789
     6.3789   6.7344   6.7344   7.0577   7.0577   7.0577   7.1238   7.1238
     7.1238   7.4026   7.4026   7.4026   7.5350   7.5350   7.5350   7.5940
     7.5940   7.6266   7.6266   7.6266   7.6401   7.8855   7.8855   7.8855
     9.9930  14.4907  14.4907  14.4907  14.5874  14.6354  14.6354  14.6429
    14.6429  14.6429  14.7614  14.7614  14.7614  15.4792  15.4792  15.5971

     occupation numbers 
     1.0000   1.0000   1.0000   1.0000   1.0000   1.0000   1.0000   1.0000
     1.0000   1.0000   1.0000   1.0000   1.0000   1.0000   1.0000   1.0000
     1.0000   1.0000   1.0000   1.0000   1.0000   1.0000   1.0000   1.0000
     1.0000   1.0000   1.0000   1.0000   1.0000   1.0000   1.0000   1.0000
     1.0000   1.0000   1.0000   1.0000   1.0000   1.0000   1.0000   1.0000
     1.0000   1.0000   1.0000   1.0000   1.0000   1.0000   1.0000   1.0000
     1.0000   1.0000   1.0000   1.0000   1.0000   1.0000   1.0000   1.0000
     1.0000   1.0000   1.0000   1.0000   1.0000   1.0000   1.0000   1.0000
     1.0000   1.0000   1.0000   1.0000   1.0000   1.0000   1.0000   1.0000
     1.0000   1.0000   1.0000   1.0000   1.0000   1.0000   1.0000   1.0000
     1.0000   1.0000   1.0000   1.0000   1.0000   1.0000   1.0000   1.0000
     1.0000   1.0000   1.0000   1.0000   1.0000   1.0000   1.0000   1.0000
     1.0000   1.0000   1.0000   1.0000   1.0000   1.0000   1.0000   1.0000
     1.0000   1.0000   1.0000   1.0000   1.0000   1.0000   1.0000   1.0000
     1.0000   1.0000   1.0000   1.0000   1.0000   1.0000   1.0000   1.0000
     1.0000   1.0000   1.0000   1.0000   1.0000   1.0000   1.0000   1.0000
     1.0000   1.0000   1.0000   1.0000   1.0000   1.0000   1.0000   1.0000
     1.0000   1.0000   1.0000   1.0000   1.0000   1.0000   1.0000   1.0000
     1.0000   1.0000   1.0000   1.0000   1.0000   1.0000   1.0000   1.0000
     1.0000   1.0000   1.0000   1.0000   1.0000   1.0000   1.0000   1.0000
     1.0000   1.0000   1.0000   1.0000   1.0000   1.0000   1.0000   1.0000
     1.0000   1.0000   1.0000   1.0000   1.0000   1.0000   1.0000   1.0000
     0.0000   0.0000   0.0000   0.0000   0.0000   0.0000   0.0000   0.0000
     0.0000   0.0000   0.0000   0.0000   0.0000   0.0000   0.0000   0.0000

          k = 0.2887 0.2887-0.0000 ( 44579 PWs)   bands (ev):

   -11.2261 -10.9418 -10.7986 -10.7731 -10.7156 -10.6814 -10.5763 -10.5401
   -10.5210 -10.5080 -10.4928 -10.4434 -10.3798 -10.3632 -10.3249 -10.3238
   -10.3052 -10.2902 -10.2691 -10.2609 -10.1825 -10.1735 -10.1322 -10.0441
    -4.6897  -4.6761  -4.6566  -4.6529  -4.6473  -4.6210  -4.6171  -4.6053
    -4.5954  -4.5936  -4.5788  -4.5677  -4.5610  -4.5506  -4.5255  -4.5208
    -4.5187  -4.4923  -4.4880  -4.4790  -4.4736  -4.4673  -4.4614  -4.4478
    -4.4459  -4.4448  -4.4417  -4.4337  -4.4242  -4.4044  -4.3997  -4.3873
    -4.3869  -4.3594  -4.3426  -4.3383  -4.3296  -4.3168  -4.3085  -4.2933
    -4.2880  -4.2843  -4.2701  -4.2688  -4.2614  -4.2509  -4.2450  -4.2380
    -4.2170  -4.1999  -4.1950  -4.1861  -4.1792  -4.1763  -4.1674  -4.1611
    -4.1603  -4.1593  -4.1529  -4.1455  -4.1445  -4.1412  -4.1286  -4.1160
    -4.1033  -4.0812  -4.0654  -4.0295  -3.9866  -3.9801  -3.9253  -3.7769
    -3.7325  -3.6302  -3.6071  -3.5778  -3.5563  -3.3718  -3.3708  -3.3403
     2.4308   2.5983   2.6065   2.6475   2.8194   2.8772   2.9247   2.9730
     2.9969   3.1073   3.4872   3.5131   3.7916   3.8138   4.0023   4.0498
     4.1219   4.3598   4.5092   4.5103   4.6343   4.6820   4.7206   4.7946
     4.8437   4.8903   5.0612   5.1050   5.2677   5.2749   5.5077   5.5165
     5.5561   5.6624   5.7355   5.7839   5.8555   5.9433   5.9942   6.0854
     6.2374   6.2415   6.2827   6.3478   6.4117   6.4919   6.5348   6.6313
     6.7681   6.7762   6.8170   6.8685   6.9267   6.9482   6.9792   7.1111
     7.1927   7.2005   7.3067   7.4347   7.4439   7.4477   7.5135   7.5840
     7.6013   7.6439   7.6529   7.7144   7.7859   7.8117   7.8518   7.8814
    11.1351  12.9915  13.9954  14.0075  14.0804  14.1031  14.7286  14.8414
    15.0103  15.0985  15.1349  15.1787  15.2615  15.3440  15.5435  15.7018

     occupation numbers 
     1.0000   1.0000   1.0000   1.0000   1.0000   1.0000   1.0000   1.0000
     1.0000   1.0000   1.0000   1.0000   1.0000   1.0000   1.0000   1.0000
     1.0000   1.0000   1.0000   1.0000   1.0000   1.0000   1.0000   1.0000
     1.0000   1.0000   1.0000   1.0000   1.0000   1.0000   1.0000   1.0000
     1.0000   1.0000   1.0000   1.0000   1.0000   1.0000   1.0000   1.0000
     1.0000   1.0000   1.0000   1.0000   1.0000   1.0000   1.0000   1.0000
     1.0000   1.0000   1.0000   1.0000   1.0000   1.0000   1.0000   1.0000
     1.0000   1.0000   1.0000   1.0000   1.0000   1.0000   1.0000   1.0000
     1.0000   1.0000   1.0000   1.0000   1.0000   1.0000   1.0000   1.0000
     1.0000   1.0000   1.0000   1.0000   1.0000   1.0000   1.0000   1.0000
     1.0000   1.0000   1.0000   1.0000   1.0000   1.0000   1.0000   1.0000
     1.0000   1.0000   1.0000   1.0000   1.0000   1.0000   1.0000   1.0000
     1.0000   1.0000   1.0000   1.0000   1.0000   1.0000   1.0000   1.0000
     1.0000   1.0000   1.0000   1.0000   1.0000   1.0000   1.0000   1.0000
     1.0000   1.0000   1.0000   1.0000   1.0000   1.0000   1.0000   1.0000
     1.0000   1.0000   1.0000   1.0000   1.0000   1.0000   1.0000   1.0000
     1.0000   1.0000   1.0000   1.0000   1.0000   1.0000   1.0000   1.0000
     1.0000   1.0000   1.0000   1.0000   1.0000   1.0000   1.0000   1.0000
     1.0000   1.0000   1.0000   1.0000   1.0000   1.0000   1.0000   1.0000
     1.0000   1.0000   1.0000   1.0000   1.0000   1.0000   1.0000   1.0000
     1.0000   1.0000   1.0000   1.0000   1.0000   1.0000   1.0000   1.0000
     1.0000   1.0000   1.0000   1.0000   1.0000   1.0000   1.0000   1.0000
     0.0000   0.0000   0.0000   0.0000   0.0000   0.0000   0.0000   0.0000
     0.0000   0.0000   0.0000   0.0000   0.0000   0.0000   0.0000   0.0000

          k = 0.5774 0.2887 0.2887 ( 44587 PWs)   bands (ev):

   -11.0302 -11.0230 -11.0230 -10.8288 -10.6292 -10.6292 -10.5484 -10.5484
   -10.5462 -10.5154 -10.4237 -10.4237 -10.3789 -10.3789 -10.3581 -10.3236
   -10.3236 -10.2970 -10.2711 -10.2711 -10.1645 -10.1167 -10.1009 -10.1009
    -4.6706  -4.6706  -4.6561  -4.6561  -4.6499  -4.6323  -4.6323  -4.6233
    -4.6054  -4.5871  -4.5871  -4.5737  -4.5504  -4.5504  -4.5184  -4.5184
    -4.4988  -4.4976  -4.4976  -4.4823  -4.4686  -4.4618  -4.4618  -4.4578
    -4.4534  -4.4534  -4.4526  -4.4364  -4.4364  -4.4132  -4.4023  -4.4023
    -4.3642  -4.3546  -4.3546  -4.3326  -4.3326  -4.3105  -4.3063  -4.2965
    -4.2965  -4.2716  -4.2694  -4.2640  -4.2640  -4.2344  -4.2326  -4.2326
    -4.2043  -4.2043  -4.1953  -4.1890  -4.1800  -4.1722  -4.1722  -4.1670
    -4.1620  -4.1620  -4.1474  -4.1474  -4.1402  -4.1402  -4.1377  -4.1138
    -4.1138  -4.0634  -4.0182  -4.0182  -3.9706  -3.9706  -3.9135  -3.8375
    -3.6166  -3.5953  -3.5953  -3.5324  -3.5324  -3.4867  -3.4318  -3.4318
     2.5392   2.5392   2.5988   2.6942   2.6942   2.7124   3.0339   3.0507
     3.0507   3.1120   3.1966   3.1966   3.8202   4.0422   4.1970   4.2010
     4.2010   4.4105   4.5055   4.5055   4.7051   4.7051   4.7147   4.9175
     4.9175   5.0178   5.0886   5.0886   5.2329   5.3439   5.3907   5.3907
     5.5874   5.6412   5.6412   5.8150   5.8150   5.8901   5.8901   5.9734
     6.1343   6.1823   6.1823   6.4505   6.4505   6.5148   6.5828   6.5828
     6.6727   6.7821   6.7821   6.8847   6.9844   7.0351   7.0351   7.1349
     7.2547   7.2547   7.3626   7.3626   7.3788   7.4315   7.4400   7.4400
     7.7401   7.7417   7.7417   7.7618   7.7651   7.7651   7.7915   7.7915
    12.4778  12.4778  12.4929  13.7245  14.4898  14.5124  14.5124  14.8658
    14.8658  15.0251  15.3378  15.4052  15.4052  15.4587  15.6096  15.6097

     occupation numbers 
     1.0000   1.0000   1.0000   1.0000   1.0000   1.0000   1.0000   1.0000
     1.0000   1.0000   1.0000   1.0000   1.0000   1.0000   1.0000   1.0000
     1.0000   1.0000   1.0000   1.0000   1.0000   1.0000   1.0000   1.0000
     1.0000   1.0000   1.0000   1.0000   1.0000   1.0000   1.0000   1.0000
     1.0000   1.0000   1.0000   1.0000   1.0000   1.0000   1.0000   1.0000
     1.0000   1.0000   1.0000   1.0000   1.0000   1.0000   1.0000   1.0000
     1.0000   1.0000   1.0000   1.0000   1.0000   1.0000   1.0000   1.0000
     1.0000   1.0000   1.0000   1.0000   1.0000   1.0000   1.0000   1.0000
     1.0000   1.0000   1.0000   1.0000   1.0000   1.0000   1.0000   1.0000
     1.0000   1.0000   1.0000   1.0000   1.0000   1.0000   1.0000   1.0000
     1.0000   1.0000   1.0000   1.0000   1.0000   1.0000   1.0000   1.0000
     1.0000   1.0000   1.0000   1.0000   1.0000   1.0000   1.0000   1.0000
     1.0000   1.0000   1.0000   1.0000   1.0000   1.0000   1.0000   1.0000
     1.0000   1.0000   1.0000   1.0000   1.0000   1.0000   1.0000   1.0000
     1.0000   1.0000   1.0000   1.0000   1.0000   1.0000   1.0000   1.0000
     1.0000   1.0000   1.0000   1.0000   1.0000   1.0000   1.0000   1.0000
     1.0000   1.0000   1.0000   1.0000   1.0000   1.0000   1.0000   1.0000
     1.0000   1.0000   1.0000   1.0000   1.0000   1.0000   1.0000   1.0000
     1.0000   1.0000   1.0000   1.0000   1.0000   1.0000   1.0000   1.0000
     1.0000   1.0000   1.0000   1.0000   1.0000   1.0000   1.0000   1.0000
     1.0000   1.0000   1.0000   1.0000   1.0000   1.0000   1.0000   1.0000
     1.0000   1.0000   1.0000   1.0000   1.0000   1.0000   1.0000   1.0000
     0.0000   0.0000   0.0000   0.0000   0.0000   0.0000   0.0000   0.0000
     0.0000   0.0000   0.0000   0.0000   0.0000   0.0000   0.0000   0.0000

          k =-0.0000-0.0000 0.5774 ( 44720 PWs)   bands (ev):

   -11.1164 -10.8878 -10.8789 -10.8179 -10.8041 -10.6756 -10.6167 -10.6097
   -10.5986 -10.5477 -10.3998 -10.3895 -10.3733 -10.3539 -10.3335 -10.3289
   -10.3180 -10.2484 -10.2320 -10.2171 -10.1794 -10.1483 -10.1449 -10.0795
    -4.6923  -4.6766  -4.6509  -4.6429  -4.6304  -4.6254  -4.6237  -4.6226
    -4.6191  -4.5970  -4.5744  -4.5544  -4.5533  -4.5459  -4.5409  -4.5304
    -4.5240  -4.5045  -4.4986  -4.4778  -4.4772  -4.4623  -4.4614  -4.4571
    -4.4521  -4.4440  -4.4343  -4.4289  -4.4238  -4.4200  -4.4019  -4.3720
    -4.3715  -4.3590  -4.3462  -4.3322  -4.3211  -4.3173  -4.3062  -4.3004
    -4.2967  -4.2966  -4.2822  -4.2735  -4.2719  -4.2523  -4.2455  -4.2317
    -4.2179  -4.2109  -4.1987  -4.1977  -4.1815  -4.1777  -4.1715  -4.1694
    -4.1618  -4.1598  -4.1524  -4.1503  -4.1446  -4.1440  -4.1407  -4.1301
    -4.1187  -4.1144  -3.9829  -3.9316  -3.9021  -3.8148  -3.8124  -3.7487
    -3.6813  -3.6792  -3.6453  -3.5859  -3.5502  -3.5109  -3.4806  -3.4170
     2.3172   2.4063   2.4422   2.5409   2.6624   2.6648   3.2094   3.2163
     3.2619   3.2941   3.3746   3.9774   3.9995   4.0368   4.0663   4.0787
     4.1321   4.1614   4.2321   4.3095   4.3469   4.5200   4.6379   4.8639
     4.9552   4.9789   5.0725   5.1485   5.3097   5.3151   5.3965   5.5536
     5.6324   5.6454   5.7488   5.8704   5.8795   5.8832   5.9481   6.0670
     6.0687   6.1477   6.2342   6.2562   6.3088   6.4296   6.4836   6.5312
     6.5451   6.7809   6.8444   6.9449   7.0248   7.0478   7.1730   7.1925
     7.3409   7.3535   7.4101   7.4136   7.5075   7.5154   7.5889   7.5945
     7.5990   7.6462   7.6722   7.6728   7.6735   7.7291   7.7521   7.7675
    11.8233  13.2877  13.3030  13.3350  13.3351  14.1736  14.5686  14.6290
    14.6542  14.8174  15.5518  15.5523  15.5799  15.6439  15.8298  15.9479

     occupation numbers 
     1.0000   1.0000   1.0000   1.0000   1.0000   1.0000   1.0000   1.0000
     1.0000   1.0000   1.0000   1.0000   1.0000   1.0000   1.0000   1.0000
     1.0000   1.0000   1.0000   1.0000   1.0000   1.0000   1.0000   1.0000
     1.0000   1.0000   1.0000   1.0000   1.0000   1.0000   1.0000   1.0000
     1.0000   1.0000   1.0000   1.0000   1.0000   1.0000   1.0000   1.0000
     1.0000   1.0000   1.0000   1.0000   1.0000   1.0000   1.0000   1.0000
     1.0000   1.0000   1.0000   1.0000   1.0000   1.0000   1.0000   1.0000
     1.0000   1.0000   1.0000   1.0000   1.0000   1.0000   1.0000   1.0000
     1.0000   1.0000   1.0000   1.0000   1.0000   1.0000   1.0000   1.0000
     1.0000   1.0000   1.0000   1.0000   1.0000   1.0000   1.0000   1.0000
     1.0000   1.0000   1.0000   1.0000   1.0000   1.0000   1.0000   1.0000
     1.0000   1.0000   1.0000   1.0000   1.0000   1.0000   1.0000   1.0000
     1.0000   1.0000   1.0000   1.0000   1.0000   1.0000   1.0000   1.0000
     1.0000   1.0000   1.0000   1.0000   1.0000   1.0000   1.0000   1.0000
     1.0000   1.0000   1.0000   1.0000   1.0000   1.0000   1.0000   1.0000
     1.0000   1.0000   1.0000   1.0000   1.0000   1.0000   1.0000   1.0000
     1.0000   1.0000   1.0000   1.0000   1.0000   1.0000   1.0000   1.0000
     1.0000   1.0000   1.0000   1.0000   1.0000   1.0000   1.0000   1.0000
     1.0000   1.0000   1.0000   1.0000   1.0000   1.0000   1.0000   1.0000
     1.0000   1.0000   1.0000   1.0000   1.0000   1.0000   1.0000   1.0000
     1.0000   1.0000   1.0000   1.0000   1.0000   1.0000   1.0000   1.0000
     1.0000   1.0000   1.0000   1.0000   1.0000   1.0000   1.0000   1.0000
     0.0000   0.0000   0.0000   0.0000   0.0000   0.0000   0.0000   0.0000
     0.0000   0.0000   0.0000   0.0000   0.0000   0.0000   0.0000   0.0000

     highest occupied, lowest unoccupied level (ev):     7.8855    9.9930

!    total energy              =   -2430.30794035 Ry
     estimated scf accuracy    <          5.9E-10 Ry

     convergence has been achieved in   5 iterations

     Using ACE for calculation of exact exchange
     ACE projected onto   192 (nbndproj) and applied to   192 (nbnd) bands

     total energy              =   -2430.30794216 Ry
     Harris-Foulkes estimate   =   -2430.30794216 Ry
     est. exchange err (dexx)  =       0.00000180 Ry
     - averaged Fock potential =     140.34522929 Ry
     + Fock energy (ACE)       =     -70.17341253 Ry

     EXX: now go back to refine exchange calculation

     total cpu time spent up to now is      118.1 secs

     Self-consistent Calculation
[tb_dev] Currently allocated     1.53E-04 Mbytes, locked:    0 /   1
[tb_pin] Currently allocated     0.00E+00 Mbytes, locked:    0 /   0

     iteration #  1     ecut=    80.00 Ry     beta= 0.30
     Davidson diagonalization with overlap

---- Real-time Memory Report at c_bands before calling an iterative solver
          7203 MiB given to the printing process from OS
             0 MiB allocation reported by mallinfo(arena+hblkhd)
         24070 MiB available memory on the node where the printing process lives
     GPU memory used/free/total (MiB): 10284 / 85026 / 95311
------------------
     ethr =  8.29E-13,  avg # of iterations =  6.5

     total cpu time spent up to now is      120.0 secs

     total energy              =   -2430.30794247 Ry
     estimated scf accuracy    <       0.00000006 Ry
[tb_dev] Currently allocated     1.53E-04 Mbytes, locked:    0 /   1
[tb_pin] Currently allocated     0.00E+00 Mbytes, locked:    0 /   0

     iteration #  2     ecut=    80.00 Ry     beta= 0.30
     Davidson diagonalization with overlap

---- Real-time Memory Report at c_bands before calling an iterative solver
          7203 MiB given to the printing process from OS
             0 MiB allocation reported by mallinfo(arena+hblkhd)
         24111 MiB available memory on the node where the printing process lives
     GPU memory used/free/total (MiB): 10284 / 85026 / 95311
------------------
     ethr =  1.66E-11,  avg # of iterations =  2.0

     total cpu time spent up to now is      121.1 secs

     total energy              =   -2430.30794247 Ry
     estimated scf accuracy    <       0.00000001 Ry
[tb_dev] Currently allocated     1.53E-04 Mbytes, locked:    0 /   1
[tb_pin] Currently allocated     0.00E+00 Mbytes, locked:    0 /   0

     iteration #  3     ecut=    80.00 Ry     beta= 0.30
     Davidson diagonalization with overlap

---- Real-time Memory Report at c_bands before calling an iterative solver
          7203 MiB given to the printing process from OS
             0 MiB allocation reported by mallinfo(arena+hblkhd)
         24104 MiB available memory on the node where the printing process lives
     GPU memory used/free/total (MiB): 10284 / 85026 / 95311
------------------
     ethr =  3.98E-12,  avg # of iterations =  1.3

     total cpu time spent up to now is      122.1 secs

     total energy              =   -2430.30794247 Ry
     estimated scf accuracy    <          3.5E-09 Ry
[tb_dev] Currently allocated     1.53E-04 Mbytes, locked:    0 /   1
[tb_pin] Currently allocated     0.00E+00 Mbytes, locked:    0 /   0

     iteration #  4     ecut=    80.00 Ry     beta= 0.30
     Davidson diagonalization with overlap

---- Real-time Memory Report at c_bands before calling an iterative solver
          7203 MiB given to the printing process from OS
             0 MiB allocation reported by mallinfo(arena+hblkhd)
         24098 MiB available memory on the node where the printing process lives
     GPU memory used/free/total (MiB): 10284 / 85026 / 95311
------------------
     ethr =  1.01E-12,  avg # of iterations =  1.3

     total cpu time spent up to now is      123.1 secs

     End of self-consistent calculation

          k = 0.0000 0.0000 0.0000 ( 44411 PWs)   bands (ev):

   -11.3464 -10.7416 -10.7416 -10.6691 -10.6691 -10.6691 -10.5926 -10.5926
   -10.5926 -10.5759 -10.5759 -10.5759 -10.3060 -10.3060 -10.3060 -10.3043
   -10.3043 -10.3043 -10.2939 -10.2939 -10.1925 -10.1925 -10.1925 -10.0166
    -4.7148  -4.7148  -4.7148  -4.6341  -4.6341  -4.6341  -4.5879  -4.5879
    -4.5703  -4.5588  -4.5588  -4.5588  -4.5240  -4.5111  -4.5111  -4.5111
    -4.4932  -4.4932  -4.4932  -4.4907  -4.4907  -4.4805  -4.4436  -4.4436
    -4.4384  -4.4384  -4.4384  -4.4210  -4.4210  -4.4210  -4.3826  -4.3826
    -4.3826  -4.3427  -4.3427  -4.3128  -4.3128  -4.3128  -4.3122  -4.3122
    -4.3122  -4.3081  -4.2934  -4.2629  -4.2629  -4.2418  -4.2418  -4.2418
    -4.2371  -4.2371  -4.2371  -4.1871  -4.1871  -4.1871  -4.1541  -4.1541
    -4.1541  -4.1361  -4.1361  -4.1337  -4.1053  -4.1025  -4.1025  -4.1025
    -4.0819  -4.0819  -4.0819  -4.0377  -4.0377  -4.0161  -4.0161  -4.0161
    -3.6502  -3.6502  -3.6502  -3.5783  -3.5783  -3.2573  -3.2573  -3.2573
     2.4179   2.4449   2.4449   2.9568   2.9568   3.1027   3.1027   3.1027
     3.3159   3.3159   3.3159   3.5124   3.5124   3.5124   3.7135   4.0107
     4.0107   4.0107   4.4427   4.4427   4.4427   4.7014   4.8226   4.8226
     4.8226   4.8328   4.8328   4.8328   5.3875   5.6465   5.6465   5.6465
     5.6638   5.6638   6.0261   6.0261   6.0261   6.0643   6.0643   6.0643
     6.1515   6.1515   6.1515   6.1868   6.3212   6.3212   6.3789   6.3789
     6.3789   6.7344   6.7344   7.0577   7.0577   7.0577   7.1239   7.1239
     7.1239   7.4026   7.4026   7.4026   7.5349   7.5349   7.5349   7.5940
     7.5940   7.6265   7.6265   7.6265   7.6401   7.8856   7.8856   7.8856
     9.9936  14.4910  14.4910  14.4910  14.5877  14.6357  14.6357  14.6432
    14.6432  14.6432  14.7617  14.7617  14.7617  15.4796  15.4796  15.5974

     occupation numbers 
     1.0000   1.0000   1.0000   1.0000   1.0000   1.0000   1.0000   1.0000
     1.0000   1.0000   1.0000   1.0000   1.0000   1.0000   1.0000   1.0000
     1.0000   1.0000   1.0000   1.0000   1.0000   1.0000   1.0000   1.0000
     1.0000   1.0000   1.0000   1.0000   1.0000   1.0000   1.0000   1.0000
     1.0000   1.0000   1.0000   1.0000   1.0000   1.0000   1.0000   1.0000
     1.0000   1.0000   1.0000   1.0000   1.0000   1.0000   1.0000   1.0000
     1.0000   1.0000   1.0000   1.0000   1.0000   1.0000   1.0000   1.0000
     1.0000   1.0000   1.0000   1.0000   1.0000   1.0000   1.0000   1.0000
     1.0000   1.0000   1.0000   1.0000   1.0000   1.0000   1.0000   1.0000
     1.0000   1.0000   1.0000   1.0000   1.0000   1.0000   1.0000   1.0000
     1.0000   1.0000   1.0000   1.0000   1.0000   1.0000   1.0000   1.0000
     1.0000   1.0000   1.0000   1.0000   1.0000   1.0000   1.0000   1.0000
     1.0000   1.0000   1.0000   1.0000   1.0000   1.0000   1.0000   1.0000
     1.0000   1.0000   1.0000   1.0000   1.0000   1.0000   1.0000   1.0000
     1.0000   1.0000   1.0000   1.0000   1.0000   1.0000   1.0000   1.0000
     1.0000   1.0000   1.0000   1.0000   1.0000   1.0000   1.0000   1.0000
     1.0000   1.0000   1.0000   1.0000   1.0000   1.0000   1.0000   1.0000
     1.0000   1.0000   1.0000   1.0000   1.0000   1.0000   1.0000   1.0000
     1.0000   1.0000   1.0000   1.0000   1.0000   1.0000   1.0000   1.0000
     1.0000   1.0000   1.0000   1.0000   1.0000   1.0000   1.0000   1.0000
     1.0000   1.0000   1.0000   1.0000   1.0000   1.0000   1.0000   1.0000
     1.0000   1.0000   1.0000   1.0000   1.0000   1.0000   1.0000   1.0000
     0.0000   0.0000   0.0000   0.0000   0.0000   0.0000   0.0000   0.0000
     0.0000   0.0000   0.0000   0.0000   0.0000   0.0000   0.0000   0.0000

          k = 0.2887 0.2887-0.0000 ( 44579 PWs)   bands (ev):

   -11.2259 -10.9416 -10.7984 -10.7730 -10.7154 -10.6812 -10.5761 -10.5400
   -10.5208 -10.5078 -10.4926 -10.4432 -10.3796 -10.3630 -10.3247 -10.3236
   -10.3050 -10.2900 -10.2690 -10.2607 -10.1823 -10.1733 -10.1321 -10.0439
    -4.6896  -4.6761  -4.6566  -4.6529  -4.6473  -4.6210  -4.6171  -4.6053
    -4.5954  -4.5936  -4.5788  -4.5677  -4.5610  -4.5506  -4.5255  -4.5208
    -4.5186  -4.4922  -4.4880  -4.4790  -4.4735  -4.4673  -4.4614  -4.4478
    -4.4459  -4.4448  -4.4416  -4.4336  -4.4241  -4.4044  -4.3997  -4.3872
    -4.3868  -4.3593  -4.3425  -4.3382  -4.3296  -4.3168  -4.3085  -4.2932
    -4.2880  -4.2843  -4.2701  -4.2687  -4.2613  -4.2509  -4.2450  -4.2380
    -4.2169  -4.1999  -4.1949  -4.1860  -4.1791  -4.1763  -4.1674  -4.1611
    -4.1602  -4.1592  -4.1528  -4.1455  -4.1445  -4.1411  -4.1286  -4.1159
    -4.1032  -4.0812  -4.0654  -4.0295  -3.9865  -3.9800  -3.9253  -3.7768
    -3.7324  -3.6302  -3.6070  -3.5777  -3.5562  -3.3717  -3.3708  -3.3402
     2.4309   2.5984   2.6066   2.6476   2.8196   2.8773   2.9248   2.9731
     2.9971   3.1074   3.4873   3.5133   3.7917   3.8139   4.0023   4.0499
     4.1220   4.3598   4.5092   4.5104   4.6343   4.6820   4.7207   4.7946
     4.8436   4.8903   5.0612   5.1050   5.2676   5.2748   5.5076   5.5164
     5.5561   5.6624   5.7355   5.7838   5.8554   5.9432   5.9942   6.0853
     6.2374   6.2414   6.2827   6.3477   6.4118   6.4918   6.5348   6.6312
     6.7680   6.7762   6.8169   6.8685   6.9267   6.9481   6.9792   7.1110
     7.1926   7.2004   7.3066   7.4346   7.4438   7.4476   7.5133   7.5840
     7.6013   7.6437   7.6528   7.7144   7.7858   7.8116   7.8517   7.8813
    11.1355  12.9919  13.9959  14.0080  14.0808  14.1035  14.7289  14.8417
    15.0105  15.0985  15.1352  15.1790  15.2617  15.3441  15.5435  15.7020

     occupation numbers 
     1.0000   1.0000   1.0000   1.0000   1.0000   1.0000   1.0000   1.0000
     1.0000   1.0000   1.0000   1.0000   1.0000   1.0000   1.0000   1.0000
     1.0000   1.0000   1.0000   1.0000   1.0000   1.0000   1.0000   1.0000
     1.0000   1.0000   1.0000   1.0000   1.0000   1.0000   1.0000   1.0000
     1.0000   1.0000   1.0000   1.0000   1.0000   1.0000   1.0000   1.0000
     1.0000   1.0000   1.0000   1.0000   1.0000   1.0000   1.0000   1.0000
     1.0000   1.0000   1.0000   1.0000   1.0000   1.0000   1.0000   1.0000
     1.0000   1.0000   1.0000   1.0000   1.0000   1.0000   1.0000   1.0000
     1.0000   1.0000   1.0000   1.0000   1.0000   1.0000   1.0000   1.0000
     1.0000   1.0000   1.0000   1.0000   1.0000   1.0000   1.0000   1.0000
     1.0000   1.0000   1.0000   1.0000   1.0000   1.0000   1.0000   1.0000
     1.0000   1.0000   1.0000   1.0000   1.0000   1.0000   1.0000   1.0000
     1.0000   1.0000   1.0000   1.0000   1.0000   1.0000   1.0000   1.0000
     1.0000   1.0000   1.0000   1.0000   1.0000   1.0000   1.0000   1.0000
     1.0000   1.0000   1.0000   1.0000   1.0000   1.0000   1.0000   1.0000
     1.0000   1.0000   1.0000   1.0000   1.0000   1.0000   1.0000   1.0000
     1.0000   1.0000   1.0000   1.0000   1.0000   1.0000   1.0000   1.0000
     1.0000   1.0000   1.0000   1.0000   1.0000   1.0000   1.0000   1.0000
     1.0000   1.0000   1.0000   1.0000   1.0000   1.0000   1.0000   1.0000
     1.0000   1.0000   1.0000   1.0000   1.0000   1.0000   1.0000   1.0000
     1.0000   1.0000   1.0000   1.0000   1.0000   1.0000   1.0000   1.0000
     1.0000   1.0000   1.0000   1.0000   1.0000   1.0000   1.0000   1.0000
     0.0000   0.0000   0.0000   0.0000   0.0000   0.0000   0.0000   0.0000
     0.0000   0.0000   0.0000   0.0000   0.0000   0.0000   0.0000   0.0000

          k = 0.5774 0.2887 0.2887 ( 44587 PWs)   bands (ev):

   -11.0299 -11.0228 -11.0228 -10.8286 -10.6290 -10.6290 -10.5481 -10.5481
   -10.5460 -10.5152 -10.4235 -10.4235 -10.3787 -10.3787 -10.3579 -10.3234
   -10.3234 -10.2968 -10.2709 -10.2709 -10.1643 -10.1165 -10.1007 -10.1007
    -4.6706  -4.6706  -4.6561  -4.6561  -4.6499  -4.6323  -4.6323  -4.6233
    -4.6054  -4.5871  -4.5871  -4.5737  -4.5504  -4.5504  -4.5184  -4.5184
    -4.4987  -4.4976  -4.4976  -4.4823  -4.4686  -4.4617  -4.4617  -4.4578
    -4.4533  -4.4533  -4.4526  -4.4364  -4.4364  -4.4132  -4.4022  -4.4022
    -4.3642  -4.3546  -4.3546  -4.3326  -4.3326  -4.3104  -4.3063  -4.2964
    -4.2964  -4.2716  -4.2693  -4.2640  -4.2640  -4.2344  -4.2326  -4.2326
    -4.2043  -4.2043  -4.1953  -4.1890  -4.1800  -4.1722  -4.1722  -4.1669
    -4.1620  -4.1620  -4.1474  -4.1474  -4.1402  -4.1402  -4.1377  -4.1138
    -4.1138  -4.0634  -4.0182  -4.0182  -3.9706  -3.9706  -3.9135  -3.8375
    -3.6165  -3.5953  -3.5953  -3.5324  -3.5324  -3.4866  -3.4317  -3.4317
     2.5393   2.5393   2.5989   2.6943   2.6943   2.7125   3.0340   3.0508
     3.0508   3.1122   3.1967   3.1967   3.8203   4.0423   4.1970   4.2011
     4.2011   4.4106   4.5056   4.5056   4.7052   4.7052   4.7146   4.9175
     4.9175   5.0179   5.0887   5.0887   5.2329   5.3439   5.3907   5.3907
     5.5873   5.6412   5.6412   5.8149   5.8149   5.8901   5.8901   5.9734
     6.1343   6.1822   6.1822   6.4504   6.4504   6.5148   6.5828   6.5828
     6.6727   6.7821   6.7821   6.8847   6.9845   7.0350   7.0350   7.1349
     7.2547   7.2547   7.3625   7.3625   7.3787   7.4314   7.4399   7.4399
     7.7401   7.7416   7.7416   7.7618   7.7650   7.7650   7.7915   7.7915
    12.4783  12.4783  12.4934  13.7249  14.4902  14.5127  14.5127  14.8661
    14.8661  15.0253  15.3376  15.4054  15.4054  15.4582  15.6099  15.6099

     occupation numbers 
     1.0000   1.0000   1.0000   1.0000   1.0000   1.0000   1.0000   1.0000
     1.0000   1.0000   1.0000   1.0000   1.0000   1.0000   1.0000   1.0000
     1.0000   1.0000   1.0000   1.0000   1.0000   1.0000   1.0000   1.0000
     1.0000   1.0000   1.0000   1.0000   1.0000   1.0000   1.0000   1.0000
     1.0000   1.0000   1.0000   1.0000   1.0000   1.0000   1.0000   1.0000
     1.0000   1.0000   1.0000   1.0000   1.0000   1.0000   1.0000   1.0000
     1.0000   1.0000   1.0000   1.0000   1.0000   1.0000   1.0000   1.0000
     1.0000   1.0000   1.0000   1.0000   1.0000   1.0000   1.0000   1.0000
     1.0000   1.0000   1.0000   1.0000   1.0000   1.0000   1.0000   1.0000
     1.0000   1.0000   1.0000   1.0000   1.0000   1.0000   1.0000   1.0000
     1.0000   1.0000   1.0000   1.0000   1.0000   1.0000   1.0000   1.0000
     1.0000   1.0000   1.0000   1.0000   1.0000   1.0000   1.0000   1.0000
     1.0000   1.0000   1.0000   1.0000   1.0000   1.0000   1.0000   1.0000
     1.0000   1.0000   1.0000   1.0000   1.0000   1.0000   1.0000   1.0000
     1.0000   1.0000   1.0000   1.0000   1.0000   1.0000   1.0000   1.0000
     1.0000   1.0000   1.0000   1.0000   1.0000   1.0000   1.0000   1.0000
     1.0000   1.0000   1.0000   1.0000   1.0000   1.0000   1.0000   1.0000
     1.0000   1.0000   1.0000   1.0000   1.0000   1.0000   1.0000   1.0000
     1.0000   1.0000   1.0000   1.0000   1.0000   1.0000   1.0000   1.0000
     1.0000   1.0000   1.0000   1.0000   1.0000   1.0000   1.0000   1.0000
     1.0000   1.0000   1.0000   1.0000   1.0000   1.0000   1.0000   1.0000
     1.0000   1.0000   1.0000   1.0000   1.0000   1.0000   1.0000   1.0000
     0.0000   0.0000   0.0000   0.0000   0.0000   0.0000   0.0000   0.0000
     0.0000   0.0000   0.0000   0.0000   0.0000   0.0000   0.0000   0.0000

          k =-0.0000-0.0000 0.5774 ( 44720 PWs)   bands (ev):

   -11.1162 -10.8876 -10.8787 -10.8177 -10.8039 -10.6755 -10.6165 -10.6095
   -10.5984 -10.5475 -10.3996 -10.3893 -10.3731 -10.3537 -10.3334 -10.3288
   -10.3178 -10.2482 -10.2319 -10.2170 -10.1792 -10.1481 -10.1447 -10.0793
    -4.6922  -4.6765  -4.6509  -4.6429  -4.6304  -4.6254  -4.6237  -4.6225
    -4.6191  -4.5970  -4.5743  -4.5543  -4.5533  -4.5459  -4.5409  -4.5303
    -4.5239  -4.5045  -4.4986  -4.4778  -4.4772  -4.4622  -4.4613  -4.4571
    -4.4520  -4.4439  -4.4342  -4.4288  -4.4238  -4.4200  -4.4019  -4.3720
    -4.3715  -4.3590  -4.3461  -4.3322  -4.3210  -4.3173  -4.3061  -4.3003
    -4.2967  -4.2966  -4.2822  -4.2735  -4.2719  -4.2523  -4.2455  -4.2317
    -4.2179  -4.2109  -4.1986  -4.1977  -4.1814  -4.1777  -4.1715  -4.1694
    -4.1618  -4.1597  -4.1523  -4.1502  -4.1446  -4.1440  -4.1406  -4.1301
    -4.1186  -4.1143  -3.9829  -3.9316  -3.9021  -3.8148  -3.8124  -3.7486
    -3.6812  -3.6792  -3.6453  -3.5858  -3.5502  -3.5108  -3.4805  -3.4169
     2.3173   2.4065   2.4423   2.5410   2.6625   2.6649   3.2095   3.2164
     3.2621   3.2942   3.3747   3.9776   3.9996   4.0370   4.0664   4.0789
     4.1323   4.1615   4.2322   4.3095   4.3469   4.5201   4.6378   4.8639
     4.9553   4.9790   5.0724   5.1485   5.3098   5.3151   5.3965   5.5535
     5.6324   5.6454   5.7487   5.8703   5.8794   5.8831   5.9481   6.0669
     6.0686   6.1477   6.2342   6.2562   6.3088   6.4295   6.4835   6.5311
     6.5451   6.7809   6.8444   6.9450   7.0247   7.0478   7.1728   7.1924
     7.3409   7.3534   7.4100   7.4136   7.5075   7.5154   7.5888   7.5945
     7.5990   7.6462   7.6723   7.6728   7.6735   7.7292   7.7522   7.7675
    11.8237  13.2881  13.3035  13.3355  13.3355  14.1740  14.5689  14.6294
    14.6546  14.8178  15.5494  15.5520  15.5794  15.6427  15.8297  15.9480

     occupation numbers 
     1.0000   1.0000   1.0000   1.0000   1.0000   1.0000   1.0000   1.0000
     1.0000   1.0000   1.0000   1.0000   1.0000   1.0000   1.0000   1.0000
     1.0000   1.0000   1.0000   1.0000   1.0000   1.0000   1.0000   1.0000
     1.0000   1.0000   1.0000   1.0000   1.0000   1.0000   1.0000   1.0000
     1.0000   1.0000   1.0000   1.0000   1.0000   1.0000   1.0000   1.0000
     1.0000   1.0000   1.0000   1.0000   1.0000   1.0000   1.0000   1.0000
     1.0000   1.0000   1.0000   1.0000   1.0000   1.0000   1.0000   1.0000
     1.0000   1.0000   1.0000   1.0000   1.0000   1.0000   1.0000   1.0000
     1.0000   1.0000   1.0000   1.0000   1.0000   1.0000   1.0000   1.0000
     1.0000   1.0000   1.0000   1.0000   1.0000   1.0000   1.0000   1.0000
     1.0000   1.0000   1.0000   1.0000   1.0000   1.0000   1.0000   1.0000
     1.0000   1.0000   1.0000   1.0000   1.0000   1.0000   1.0000   1.0000
     1.0000   1.0000   1.0000   1.0000   1.0000   1.0000   1.0000   1.0000
     1.0000   1.0000   1.0000   1.0000   1.0000   1.0000   1.0000   1.0000
     1.0000   1.0000   1.0000   1.0000   1.0000   1.0000   1.0000   1.0000
     1.0000   1.0000   1.0000   1.0000   1.0000   1.0000   1.0000   1.0000
     1.0000   1.0000   1.0000   1.0000   1.0000   1.0000   1.0000   1.0000
     1.0000   1.0000   1.0000   1.0000   1.0000   1.0000   1.0000   1.0000
     1.0000   1.0000   1.0000   1.0000   1.0000   1.0000   1.0000   1.0000
     1.0000   1.0000   1.0000   1.0000   1.0000   1.0000   1.0000   1.0000
     1.0000   1.0000   1.0000   1.0000   1.0000   1.0000   1.0000   1.0000
     1.0000   1.0000   1.0000   1.0000   1.0000   1.0000   1.0000   1.0000
     0.0000   0.0000   0.0000   0.0000   0.0000   0.0000   0.0000   0.0000
     0.0000   0.0000   0.0000   0.0000   0.0000   0.0000   0.0000   0.0000

     highest occupied, lowest unoccupied level (ev):     7.8856    9.9936

!    total energy              =   -2430.30794247 Ry
     estimated scf accuracy    <          2.5E-11 Ry

     convergence has been achieved in   4 iterations

     Using ACE for calculation of exact exchange
     ACE projected onto   192 (nbndproj) and applied to   192 (nbnd) bands

     total energy              =   -2430.30794253 Ry
     Harris-Foulkes estimate   =   -2430.30794253 Ry
     est. exchange err (dexx)  =       0.00000006 Ry
     - averaged Fock potential =     140.34709124 Ry
     + Fock energy (ACE)       =     -70.17367877 Ry

     EXX: now go back to refine exchange calculation

     total cpu time spent up to now is      142.8 secs

     Self-consistent Calculation
[tb_dev] Currently allocated     1.53E-04 Mbytes, locked:    0 /   1
[tb_pin] Currently allocated     0.00E+00 Mbytes, locked:    0 /   0

     iteration #  1     ecut=    80.00 Ry     beta= 0.30
     Davidson diagonalization with overlap

---- Real-time Memory Report at c_bands before calling an iterative solver
          7203 MiB given to the printing process from OS
             0 MiB allocation reported by mallinfo(arena+hblkhd)
         24093 MiB available memory on the node where the printing process lives
     GPU memory used/free/total (MiB): 10284 / 85026 / 95311
------------------
     ethr =  1.01E-12,  avg # of iterations =  4.5

     total cpu time spent up to now is      144.1 secs

     total energy              =   -2430.30794254 Ry
     estimated scf accuracy    <          2.2E-09 Ry
[tb_dev] Currently allocated     1.53E-04 Mbytes, locked:    0 /   1
[tb_pin] Currently allocated     0.00E+00 Mbytes, locked:    0 /   0

     iteration #  2     ecut=    80.00 Ry     beta= 0.30
     Davidson diagonalization with overlap

---- Real-time Memory Report at c_bands before calling an iterative solver
          7203 MiB given to the printing process from OS
             0 MiB allocation reported by mallinfo(arena+hblkhd)
         24111 MiB available memory on the node where the printing process lives
     GPU memory used/free/total (MiB): 10284 / 85026 / 95311
------------------
     ethr =  6.31E-13,  avg # of iterations =  2.0

     total cpu time spent up to now is      145.0 secs

     End of self-consistent calculation

          k = 0.0000 0.0000 0.0000 ( 44411 PWs)   bands (ev):

   -11.3463 -10.7416 -10.7416 -10.6691 -10.6691 -10.6691 -10.5926 -10.5926
   -10.5926 -10.5759 -10.5759 -10.5759 -10.3059 -10.3059 -10.3059 -10.3043
   -10.3043 -10.3043 -10.2939 -10.2939 -10.1925 -10.1925 -10.1925 -10.0166
    -4.7148  -4.7148  -4.7148  -4.6341  -4.6341  -4.6341  -4.5879  -4.5879
    -4.5703  -4.5588  -4.5588  -4.5588  -4.5240  -4.5111  -4.5111  -4.5111
    -4.4932  -4.4932  -4.4932  -4.4907  -4.4907  -4.4805  -4.4436  -4.4436
    -4.4384  -4.4384  -4.4384  -4.4210  -4.4210  -4.4210  -4.3826  -4.3826
    -4.3826  -4.3427  -4.3427  -4.3127  -4.3127  -4.3127  -4.3122  -4.3122
    -4.3122  -4.3081  -4.2934  -4.2629  -4.2629  -4.2418  -4.2418  -4.2418
    -4.2371  -4.2371  -4.2371  -4.1871  -4.1871  -4.1871  -4.1541  -4.1541
    -4.1541  -4.1361  -4.1361  -4.1337  -4.1053  -4.1025  -4.1025  -4.1025
    -4.0819  -4.0819  -4.0819  -4.0377  -4.0377  -4.0161  -4.0161  -4.0161
    -3.6502  -3.6502  -3.6502  -3.5783  -3.5783  -3.2572  -3.2572  -3.2572
     2.4179   2.4449   2.4449   2.9569   2.9569   3.1028   3.1028   3.1028
     3.3159   3.3159   3.3159   3.5124   3.5124   3.5124   3.7135   4.0107
     4.0107   4.0107   4.4427   4.4427   4.4427   4.7014   4.8226   4.8226
     4.8226   4.8327   4.8327   4.8327   5.3876   5.6465   5.6465   5.6465
     5.6638   5.6638   6.0261   6.0261   6.0261   6.0643   6.0643   6.0643
     6.1515   6.1515   6.1515   6.1868   6.3212   6.3212   6.3789   6.3789
     6.3789   6.7344   6.7344   7.0577   7.0577   7.0577   7.1239   7.1239
     7.1239   7.4026   7.4026   7.4026   7.5349   7.5349   7.5349   7.5940
     7.5940   7.6265   7.6265   7.6265   7.6401   7.8856   7.8856   7.8856
     9.9936  14.4910  14.4910  14.4910  14.5878  14.6358  14.6358  14.6433
    14.6433  14.6433  14.7617  14.7617  14.7617  15.4796  15.4796  15.5975

     occupation numbers 
     1.0000   1.0000   1.0000   1.0000   1.0000   1.0000   1.0000   1.0000
     1.0000   1.0000   1.0000   1.0000   1.0000   1.0000   1.0000   1.0000
     1.0000   1.0000   1.0000   1.0000   1.0000   1.0000   1.0000   1.0000
     1.0000   1.0000   1.0000   1.0000   1.0000   1.0000   1.0000   1.0000
     1.0000   1.0000   1.0000   1.0000   1.0000   1.0000   1.0000   1.0000
     1.0000   1.0000   1.0000   1.0000   1.0000   1.0000   1.0000   1.0000
     1.0000   1.0000   1.0000   1.0000   1.0000   1.0000   1.0000   1.0000
     1.0000   1.0000   1.0000   1.0000   1.0000   1.0000   1.0000   1.0000
     1.0000   1.0000   1.0000   1.0000   1.0000   1.0000   1.0000   1.0000
     1.0000   1.0000   1.0000   1.0000   1.0000   1.0000   1.0000   1.0000
     1.0000   1.0000   1.0000   1.0000   1.0000   1.0000   1.0000   1.0000
     1.0000   1.0000   1.0000   1.0000   1.0000   1.0000   1.0000   1.0000
     1.0000   1.0000   1.0000   1.0000   1.0000   1.0000   1.0000   1.0000
     1.0000   1.0000   1.0000   1.0000   1.0000   1.0000   1.0000   1.0000
     1.0000   1.0000   1.0000   1.0000   1.0000   1.0000   1.0000   1.0000
     1.0000   1.0000   1.0000   1.0000   1.0000   1.0000   1.0000   1.0000
     1.0000   1.0000   1.0000   1.0000   1.0000   1.0000   1.0000   1.0000
     1.0000   1.0000   1.0000   1.0000   1.0000   1.0000   1.0000   1.0000
     1.0000   1.0000   1.0000   1.0000   1.0000   1.0000   1.0000   1.0000
     1.0000   1.0000   1.0000   1.0000   1.0000   1.0000   1.0000   1.0000
     1.0000   1.0000   1.0000   1.0000   1.0000   1.0000   1.0000   1.0000
     1.0000   1.0000   1.0000   1.0000   1.0000   1.0000   1.0000   1.0000
     0.0000   0.0000   0.0000   0.0000   0.0000   0.0000   0.0000   0.0000
     0.0000   0.0000   0.0000   0.0000   0.0000   0.0000   0.0000   0.0000

          k = 0.2887 0.2887-0.0000 ( 44579 PWs)   bands (ev):

   -11.2259 -10.9416 -10.7983 -10.7729 -10.7154 -10.6812 -10.5761 -10.5399
   -10.5208 -10.5078 -10.4926 -10.4432 -10.3796 -10.3630 -10.3247 -10.3236
   -10.3049 -10.2900 -10.2690 -10.2607 -10.1822 -10.1733 -10.1320 -10.0438
    -4.6896  -4.6760  -4.6566  -4.6529  -4.6473  -4.6210  -4.6171  -4.6053
    -4.5954  -4.5936  -4.5788  -4.5677  -4.5610  -4.5505  -4.5254  -4.5208
    -4.5186  -4.4922  -4.4880  -4.4790  -4.4735  -4.4673  -4.4614  -4.4478
    -4.4458  -4.4447  -4.4416  -4.4336  -4.4241  -4.4043  -4.3996  -4.3872
    -4.3868  -4.3593  -4.3425  -4.3382  -4.3296  -4.3168  -4.3085  -4.2932
    -4.2880  -4.2843  -4.2701  -4.2687  -4.2613  -4.2509  -4.2450  -4.2379
    -4.2169  -4.1999  -4.1949  -4.1860  -4.1791  -4.1762  -4.1674  -4.1611
    -4.1602  -4.1592  -4.1528  -4.1455  -4.1445  -4.1411  -4.1286  -4.1159
    -4.1032  -4.0812  -4.0654  -4.0295  -3.9865  -3.9800  -3.9253  -3.7768
    -3.7324  -3.6302  -3.6070  -3.5777  -3.5562  -3.3717  -3.3708  -3.3402
     2.4309   2.5984   2.6066   2.6476   2.8196   2.8774   2.9249   2.9731
     2.9971   3.1074   3.4873   3.5133   3.7917   3.8139   4.0023   4.0499
     4.1220   4.3598   4.5092   4.5104   4.6343   4.6820   4.7206   4.7946
     4.8436   4.8903   5.0612   5.1050   5.2676   5.2748   5.5076   5.5164
     5.5561   5.6623   5.7354   5.7838   5.8554   5.9432   5.9942   6.0853
     6.2374   6.2413   6.2826   6.3476   6.4118   6.4918   6.5348   6.6311
     6.7680   6.7762   6.8169   6.8685   6.9267   6.9480   6.9792   7.1109
     7.1926   7.2003   7.3066   7.4346   7.4438   7.4475   7.5133   7.5840
     7.6012   7.6437   7.6528   7.7144   7.7858   7.8116   7.8517   7.8813
    11.1356  12.9920  13.9960  14.0080  14.0809  14.1036  14.7290  14.8417
    15.0105  15.0985  15.1352  15.1790  15.2617  15.3441  15.5434  15.7020

     occupation numbers 
     1.0000   1.0000   1.0000   1.0000   1.0000   1.0000   1.0000   1.0000
     1.0000   1.0000   1.0000   1.0000   1.0000   1.0000   1.0000   1.0000
     1.0000   1.0000   1.0000   1.0000   1.0000   1.0000   1.0000   1.0000
     1.0000   1.0000   1.0000   1.0000   1.0000   1.0000   1.0000   1.0000
     1.0000   1.0000   1.0000   1.0000   1.0000   1.0000   1.0000   1.0000
     1.0000   1.0000   1.0000   1.0000   1.0000   1.0000   1.0000   1.0000
     1.0000   1.0000   1.0000   1.0000   1.0000   1.0000   1.0000   1.0000
     1.0000   1.0000   1.0000   1.0000   1.0000   1.0000   1.0000   1.0000
     1.0000   1.0000   1.0000   1.0000   1.0000   1.0000   1.0000   1.0000
     1.0000   1.0000   1.0000   1.0000   1.0000   1.0000   1.0000   1.0000
     1.0000   1.0000   1.0000   1.0000   1.0000   1.0000   1.0000   1.0000
     1.0000   1.0000   1.0000   1.0000   1.0000   1.0000   1.0000   1.0000
     1.0000   1.0000   1.0000   1.0000   1.0000   1.0000   1.0000   1.0000
     1.0000   1.0000   1.0000   1.0000   1.0000   1.0000   1.0000   1.0000
     1.0000   1.0000   1.0000   1.0000   1.0000   1.0000   1.0000   1.0000
     1.0000   1.0000   1.0000   1.0000   1.0000   1.0000   1.0000   1.0000
     1.0000   1.0000   1.0000   1.0000   1.0000   1.0000   1.0000   1.0000
     1.0000   1.0000   1.0000   1.0000   1.0000   1.0000   1.0000   1.0000
     1.0000   1.0000   1.0000   1.0000   1.0000   1.0000   1.0000   1.0000
     1.0000   1.0000   1.0000   1.0000   1.0000   1.0000   1.0000   1.0000
     1.0000   1.0000   1.0000   1.0000   1.0000   1.0000   1.0000   1.0000
     1.0000   1.0000   1.0000   1.0000   1.0000   1.0000   1.0000   1.0000
     0.0000   0.0000   0.0000   0.0000   0.0000   0.0000   0.0000   0.0000
     0.0000   0.0000   0.0000   0.0000   0.0000   0.0000   0.0000   0.0000

          k = 0.5774 0.2887 0.2887 ( 44587 PWs)   bands (ev):

   -11.0299 -11.0228 -11.0228 -10.8286 -10.6290 -10.6290 -10.5481 -10.5481
   -10.5460 -10.5152 -10.4235 -10.4235 -10.3787 -10.3787 -10.3579 -10.3233
   -10.3233 -10.2967 -10.2709 -10.2709 -10.1642 -10.1165 -10.1007 -10.1007
    -4.6706  -4.6706  -4.6561  -4.6561  -4.6499  -4.6323  -4.6323  -4.6233
    -4.6054  -4.5871  -4.5871  -4.5737  -4.5504  -4.5504  -4.5184  -4.5184
    -4.4987  -4.4976  -4.4976  -4.4823  -4.4686  -4.4617  -4.4617  -4.4578
    -4.4533  -4.4533  -4.4526  -4.4364  -4.4364  -4.4132  -4.4022  -4.4022
    -4.3642  -4.3546  -4.3546  -4.3326  -4.3326  -4.3104  -4.3063  -4.2964
    -4.2964  -4.2715  -4.2693  -4.2640  -4.2640  -4.2344  -4.2326  -4.2326
    -4.2043  -4.2043  -4.1952  -4.1890  -4.1800  -4.1722  -4.1722  -4.1669
    -4.1620  -4.1620  -4.1474  -4.1474  -4.1402  -4.1402  -4.1377  -4.1138
    -4.1138  -4.0634  -4.0182  -4.0182  -3.9706  -3.9706  -3.9135  -3.8374
    -3.6165  -3.5953  -3.5953  -3.5324  -3.5324  -3.4866  -3.4317  -3.4317
     2.5393   2.5393   2.5989   2.6943   2.6943   2.7125   3.0340   3.0508
     3.0508   3.1122   3.1967   3.1967   3.8203   4.0423   4.1970   4.2011
     4.2011   4.4106   4.5056   4.5056   4.7052   4.7052   4.7146   4.9176
     4.9176   5.0179   5.0887   5.0887   5.2329   5.3439   5.3907   5.3907
     5.5873   5.6412   5.6412   5.8149   5.8149   5.8900   5.8900   5.9734
     6.1343   6.1822   6.1822   6.4504   6.4504   6.5148   6.5828   6.5828
     6.6727   6.7821   6.7821   6.8847   6.9845   7.0350   7.0350   7.1349
     7.2547   7.2547   7.3625   7.3625   7.3787   7.4314   7.4399   7.4399
     7.7401   7.7416   7.7416   7.7618   7.7650   7.7650   7.7915   7.7915
    12.4783  12.4783  12.4934  13.7250  14.4902  14.5128  14.5128  14.8662
    14.8662  15.0253  15.3374  15.4054  15.4054  15.4578  15.6099  15.6099

     occupation numbers 
     1.0000   1.0000   1.0000   1.0000   1.0000   1.0000   1.0000   1.0000
     1.0000   1.0000   1.0000   1.0000   1.0000   1.0000   1.0000   1.0000
     1.0000   1.0000   1.0000   1.0000   1.0000   1.0000   1.0000   1.0000
     1.0000   1.0000   1.0000   1.0000   1.0000   1.0000   1.0000   1.0000
     1.0000   1.0000   1.0000   1.0000   1.0000   1.0000   1.0000   1.0000
     1.0000   1.0000   1.0000   1.0000   1.0000   1.0000   1.0000   1.0000
     1.0000   1.0000   1.0000   1.0000   1.0000   1.0000   1.0000   1.0000
     1.0000   1.0000   1.0000   1.0000   1.0000   1.0000   1.0000   1.0000
     1.0000   1.0000   1.0000   1.0000   1.0000   1.0000   1.0000   1.0000
     1.0000   1.0000   1.0000   1.0000   1.0000   1.0000   1.0000   1.0000
     1.0000   1.0000   1.0000   1.0000   1.0000   1.0000   1.0000   1.0000
     1.0000   1.0000   1.0000   1.0000   1.0000   1.0000   1.0000   1.0000
     1.0000   1.0000   1.0000   1.0000   1.0000   1.0000   1.0000   1.0000
     1.0000   1.0000   1.0000   1.0000   1.0000   1.0000   1.0000   1.0000
     1.0000   1.0000   1.0000   1.0000   1.0000   1.0000   1.0000   1.0000
     1.0000   1.0000   1.0000   1.0000   1.0000   1.0000   1.0000   1.0000
     1.0000   1.0000   1.0000   1.0000   1.0000   1.0000   1.0000   1.0000
     1.0000   1.0000   1.0000   1.0000   1.0000   1.0000   1.0000   1.0000
     1.0000   1.0000   1.0000   1.0000   1.0000   1.0000   1.0000   1.0000
     1.0000   1.0000   1.0000   1.0000   1.0000   1.0000   1.0000   1.0000
     1.0000   1.0000   1.0000   1.0000   1.0000   1.0000   1.0000   1.0000
     1.0000   1.0000   1.0000   1.0000   1.0000   1.0000   1.0000   1.0000
     0.0000   0.0000   0.0000   0.0000   0.0000   0.0000   0.0000   0.0000
     0.0000   0.0000   0.0000   0.0000   0.0000   0.0000   0.0000   0.0000

          k =-0.0000-0.0000 0.5774 ( 44720 PWs)   bands (ev):

   -11.1162 -10.8876 -10.8787 -10.8176 -10.8039 -10.6754 -10.6165 -10.6095
   -10.5984 -10.5475 -10.3996 -10.3893 -10.3730 -10.3537 -10.3333 -10.3287
   -10.3177 -10.2482 -10.2318 -10.2169 -10.1792 -10.1480 -10.1447 -10.0792
    -4.6922  -4.6765  -4.6509  -4.6429  -4.6304  -4.6254  -4.6237  -4.6225
    -4.6191  -4.5970  -4.5743  -4.5543  -4.5533  -4.5459  -4.5409  -4.5303
    -4.5239  -4.5045  -4.4986  -4.4778  -4.4772  -4.4622  -4.4613  -4.4571
    -4.4520  -4.4439  -4.4342  -4.4288  -4.4238  -4.4200  -4.4019  -4.3720
    -4.3715  -4.3590  -4.3461  -4.3322  -4.3210  -4.3173  -4.3061  -4.3003
    -4.2967  -4.2965  -4.2822  -4.2735  -4.2719  -4.2523  -4.2455  -4.2317
    -4.2179  -4.2109  -4.1986  -4.1977  -4.1814  -4.1777  -4.1715  -4.1694
    -4.1618  -4.1597  -4.1523  -4.1502  -4.1446  -4.1440  -4.1406  -4.1301
    -4.1186  -4.1143  -3.9828  -3.9316  -3.9021  -3.8148  -3.8124  -3.7486
    -3.6812  -3.6792  -3.6452  -3.5858  -3.5502  -3.5108  -3.4805  -3.4169
     2.3173   2.4065   2.4424   2.5410   2.6625   2.6649   3.2096   3.2164
     3.2621   3.2942   3.3747   3.9776   3.9996   4.0370   4.0664   4.0789
     4.1323   4.1615   4.2322   4.3095   4.3469   4.5201   4.6378   4.8639
     4.9553   4.9789   5.0724   5.1485   5.3098   5.3151   5.3965   5.5535
     5.6324   5.6454   5.7486   5.8703   5.8794   5.8831   5.9481   6.0669
     6.0686   6.1477   6.2342   6.2561   6.3088   6.4295   6.4835   6.5311
     6.5450   6.7809   6.8443   6.9450   7.0247   7.0478   7.1728   7.1923
     7.3409   7.3533   7.4099   7.4135   7.5074   7.5154   7.5888   7.5945
     7.5989   7.6462   7.6723   7.6728   7.6735   7.7292   7.7522   7.7675
    11.8238  13.2882  13.3035  13.3356  13.3356  14.1740  14.5690  14.6295
    14.6547  14.8178  15.5480  15.5517  15.5790  15.6420  15.8295  15.9479

     occupation numbers 
     1.0000   1.0000   1.0000   1.0000   1.0000   1.0000   1.0000   1.0000
     1.0000   1.0000   1.0000   1.0000   1.0000   1.0000   1.0000   1.0000
     1.0000   1.0000   1.0000   1.0000   1.0000   1.0000   1.0000   1.0000
     1.0000   1.0000   1.0000   1.0000   1.0000   1.0000   1.0000   1.0000
     1.0000   1.0000   1.0000   1.0000   1.0000   1.0000   1.0000   1.0000
     1.0000   1.0000   1.0000   1.0000   1.0000   1.0000   1.0000   1.0000
     1.0000   1.0000   1.0000   1.0000   1.0000   1.0000   1.0000   1.0000
     1.0000   1.0000   1.0000   1.0000   1.0000   1.0000   1.0000   1.0000
     1.0000   1.0000   1.0000   1.0000   1.0000   1.0000   1.0000   1.0000
     1.0000   1.0000   1.0000   1.0000   1.0000   1.0000   1.0000   1.0000
     1.0000   1.0000   1.0000   1.0000   1.0000   1.0000   1.0000   1.0000
     1.0000   1.0000   1.0000   1.0000   1.0000   1.0000   1.0000   1.0000
     1.0000   1.0000   1.0000   1.0000   1.0000   1.0000   1.0000   1.0000
     1.0000   1.0000   1.0000   1.0000   1.0000   1.0000   1.0000   1.0000
     1.0000   1.0000   1.0000   1.0000   1.0000   1.0000   1.0000   1.0000
     1.0000   1.0000   1.0000   1.0000   1.0000   1.0000   1.0000   1.0000
     1.0000   1.0000   1.0000   1.0000   1.0000   1.0000   1.0000   1.0000
     1.0000   1.0000   1.0000   1.0000   1.0000   1.0000   1.0000   1.0000
     1.0000   1.0000   1.0000   1.0000   1.0000   1.0000   1.0000   1.0000
     1.0000   1.0000   1.0000   1.0000   1.0000   1.0000   1.0000   1.0000
     1.0000   1.0000   1.0000   1.0000   1.0000   1.0000   1.0000   1.0000
     1.0000   1.0000   1.0000   1.0000   1.0000   1.0000   1.0000   1.0000
     0.0000   0.0000   0.0000   0.0000   0.0000   0.0000   0.0000   0.0000
     0.0000   0.0000   0.0000   0.0000   0.0000   0.0000   0.0000   0.0000

     highest occupied, lowest unoccupied level (ev):     7.8856    9.9936

!    total energy              =   -2430.30794254 Ry
     estimated scf accuracy    <          5.4E-10 Ry

     convergence has been achieved in   2 iterations

     Using ACE for calculation of exact exchange
     ACE projected onto   192 (nbndproj) and applied to   192 (nbnd) bands

     total energy              =   -2430.30794254 Ry
     Harris-Foulkes estimate   =   -2430.30794254 Ry
     est. exchange err (dexx)  =          2.6E-09 Ry
     - averaged Fock potential =     140.34741288 Ry
     + Fock energy (ACE)       =     -70.17373412 Ry

     EXX: now go back to refine exchange calculation

     total cpu time spent up to now is      162.9 secs

     Self-consistent Calculation
[tb_dev] Currently allocated     1.53E-04 Mbytes, locked:    0 /   1
[tb_pin] Currently allocated     0.00E+00 Mbytes, locked:    0 /   0

     iteration #  1     ecut=    80.00 Ry     beta= 0.30
     Davidson diagonalization with overlap

---- Real-time Memory Report at c_bands before calling an iterative solver
          7203 MiB given to the printing process from OS
             0 MiB allocation reported by mallinfo(arena+hblkhd)
         24066 MiB available memory on the node where the printing process lives
     GPU memory used/free/total (MiB): 10284 / 85026 / 95311
------------------
     ethr =  6.31E-13,  avg # of iterations =  3.0

     Threshold (ethr) on eigenvalues was too large:
     Diagonalizing with lowered threshold

     Davidson diagonalization with overlap

---- Real-time Memory Report at c_bands before calling an iterative solver
          7203 MiB given to the printing process from OS
             0 MiB allocation reported by mallinfo(arena+hblkhd)
         24067 MiB available memory on the node where the printing process lives
     GPU memory used/free/total (MiB): 10284 / 85026 / 95311
------------------
     ethr =  1.70E-14,  avg # of iterations =  2.8

     total cpu time spent up to now is      164.9 secs

     End of self-consistent calculation

          k = 0.0000 0.0000 0.0000 ( 44411 PWs)   bands (ev):

   -11.3463 -10.7415 -10.7415 -10.6690 -10.6690 -10.6690 -10.5926 -10.5926
   -10.5926 -10.5759 -10.5759 -10.5759 -10.3059 -10.3059 -10.3059 -10.3042
   -10.3042 -10.3042 -10.2939 -10.2939 -10.1925 -10.1925 -10.1925 -10.0166
    -4.7148  -4.7148  -4.7148  -4.6341  -4.6341  -4.6341  -4.5879  -4.5879
    -4.5703  -4.5588  -4.5588  -4.5588  -4.5240  -4.5111  -4.5111  -4.5111
    -4.4932  -4.4932  -4.4932  -4.4907  -4.4907  -4.4805  -4.4436  -4.4436
    -4.4384  -4.4384  -4.4384  -4.4210  -4.4210  -4.4210  -4.3826  -4.3826
    -4.3826  -4.3427  -4.3427  -4.3127  -4.3127  -4.3127  -4.3122  -4.3122
    -4.3122  -4.3081  -4.2934  -4.2629  -4.2629  -4.2418  -4.2418  -4.2418
    -4.2371  -4.2371  -4.2371  -4.1871  -4.1871  -4.1871  -4.1541  -4.1541
    -4.1541  -4.1361  -4.1361  -4.1337  -4.1053  -4.1025  -4.1025  -4.1025
    -4.0819  -4.0819  -4.0819  -4.0377  -4.0377  -4.0161  -4.0161  -4.0161
    -3.6502  -3.6502  -3.6502  -3.5783  -3.5783  -3.2572  -3.2572  -3.2572
     2.4179   2.4449   2.4449   2.9569   2.9569   3.1028   3.1028   3.1028
     3.3160   3.3160   3.3160   3.5124   3.5124   3.5124   3.7135   4.0107
     4.0107   4.0107   4.4427   4.4427   4.4427   4.7014   4.8226   4.8226
     4.8226   4.8328   4.8328   4.8328   5.3876   5.6465   5.6465   5.6465
     5.6638   5.6638   6.0262   6.0262   6.0262   6.0643   6.0643   6.0643
     6.1515   6.1515   6.1515   6.1868   6.3212   6.3212   6.3789   6.3789
     6.3789   6.7344   6.7344   7.0578   7.0578   7.0578   7.1239   7.1239
     7.1239   7.4026   7.4026   7.4026   7.5349   7.5349   7.5349   7.5940
     7.5940   7.6266   7.6266   7.6266   7.6402   7.8856   7.8856   7.8856
     9.9936  14.4910  14.4910  14.4910  14.5878  14.6358  14.6358  14.6433
    14.6433  14.6433  14.7617  14.7617  14.7617  15.4796  15.4796  15.5975

     occupation numbers 
     1.0000   1.0000   1.0000   1.0000   1.0000   1.0000   1.0000   1.0000
     1.0000   1.0000   1.0000   1.0000   1.0000   1.0000   1.0000   1.0000
     1.0000   1.0000   1.0000   1.0000   1.0000   1.0000   1.0000   1.0000
     1.0000   1.0000   1.0000   1.0000   1.0000   1.0000   1.0000   1.0000
     1.0000   1.0000   1.0000   1.0000   1.0000   1.0000   1.0000   1.0000
     1.0000   1.0000   1.0000   1.0000   1.0000   1.0000   1.0000   1.0000
     1.0000   1.0000   1.0000   1.0000   1.0000   1.0000   1.0000   1.0000
     1.0000   1.0000   1.0000   1.0000   1.0000   1.0000   1.0000   1.0000
     1.0000   1.0000   1.0000   1.0000   1.0000   1.0000   1.0000   1.0000
     1.0000   1.0000   1.0000   1.0000   1.0000   1.0000   1.0000   1.0000
     1.0000   1.0000   1.0000   1.0000   1.0000   1.0000   1.0000   1.0000
     1.0000   1.0000   1.0000   1.0000   1.0000   1.0000   1.0000   1.0000
     1.0000   1.0000   1.0000   1.0000   1.0000   1.0000   1.0000   1.0000
     1.0000   1.0000   1.0000   1.0000   1.0000   1.0000   1.0000   1.0000
     1.0000   1.0000   1.0000   1.0000   1.0000   1.0000   1.0000   1.0000
     1.0000   1.0000   1.0000   1.0000   1.0000   1.0000   1.0000   1.0000
     1.0000   1.0000   1.0000   1.0000   1.0000   1.0000   1.0000   1.0000
     1.0000   1.0000   1.0000   1.0000   1.0000   1.0000   1.0000   1.0000
     1.0000   1.0000   1.0000   1.0000   1.0000   1.0000   1.0000   1.0000
     1.0000   1.0000   1.0000   1.0000   1.0000   1.0000   1.0000   1.0000
     1.0000   1.0000   1.0000   1.0000   1.0000   1.0000   1.0000   1.0000
     1.0000   1.0000   1.0000   1.0000   1.0000   1.0000   1.0000   1.0000
     0.0000   0.0000   0.0000   0.0000   0.0000   0.0000   0.0000   0.0000
     0.0000   0.0000   0.0000   0.0000   0.0000   0.0000   0.0000   0.0000

          k = 0.2887 0.2887-0.0000 ( 44579 PWs)   bands (ev):

   -11.2259 -10.9416 -10.7983 -10.7729 -10.7154 -10.6812 -10.5761 -10.5399
   -10.5208 -10.5078 -10.4926 -10.4432 -10.3795 -10.3629 -10.3247 -10.3236
   -10.3049 -10.2900 -10.2689 -10.2607 -10.1822 -10.1733 -10.1320 -10.0438
    -4.6896  -4.6760  -4.6566  -4.6529  -4.6473  -4.6210  -4.6171  -4.6053
    -4.5954  -4.5936  -4.5788  -4.5677  -4.5610  -4.5505  -4.5254  -4.5208
    -4.5186  -4.4922  -4.4880  -4.4790  -4.4735  -4.4673  -4.4614  -4.4478
    -4.4458  -4.4447  -4.4416  -4.4336  -4.4241  -4.4043  -4.3996  -4.3872
    -4.3868  -4.3593  -4.3425  -4.3382  -4.3296  -4.3168  -4.3085  -4.2932
    -4.2880  -4.2843  -4.2701  -4.2687  -4.2613  -4.2509  -4.2450  -4.2379
    -4.2169  -4.1999  -4.1949  -4.1860  -4.1791  -4.1762  -4.1674  -4.1611
    -4.1602  -4.1592  -4.1528  -4.1455  -4.1445  -4.1411  -4.1286  -4.1159
    -4.1032  -4.0812  -4.0654  -4.0295  -3.9865  -3.9800  -3.9253  -3.7768
    -3.7324  -3.6302  -3.6070  -3.5777  -3.5562  -3.3717  -3.3707  -3.3402
     2.4309   2.5984   2.6066   2.6476   2.8196   2.8774   2.9249   2.9731
     2.9971   3.1074   3.4873   3.5133   3.7917   3.8139   4.0024   4.0499
     4.1220   4.3598   4.5092   4.5104   4.6343   4.6820   4.7207   4.7946
     4.8436   4.8903   5.0612   5.1050   5.2676   5.2748   5.5076   5.5164
     5.5561   5.6624   5.7354   5.7838   5.8554   5.9432   5.9942   6.0853
     6.2374   6.2414   6.2827   6.3476   6.4118   6.4918   6.5348   6.6312
     6.7680   6.7762   6.8169   6.8685   6.9267   6.9480   6.9792   7.1110
     7.1926   7.2003   7.3066   7.4346   7.4438   7.4475   7.5133   7.5840
     7.6013   7.6437   7.6528   7.7144   7.7858   7.8116   7.8517   7.8813
    11.1356  12.9920  13.9960  14.0081  14.0809  14.1036  14.7290  14.8417
    15.0105  15.0984  15.1352  15.1790  15.2617  15.3440  15.5434  15.7020

     occupation numbers 
     1.0000   1.0000   1.0000   1.0000   1.0000   1.0000   1.0000   1.0000
     1.0000   1.0000   1.0000   1.0000   1.0000   1.0000   1.0000   1.0000
     1.0000   1.0000   1.0000   1.0000   1.0000   1.0000   1.0000   1.0000
     1.0000   1.0000   1.0000   1.0000   1.0000   1.0000   1.0000   1.0000
     1.0000   1.0000   1.0000   1.0000   1.0000   1.0000   1.0000   1.0000
     1.0000   1.0000   1.0000   1.0000   1.0000   1.0000   1.0000   1.0000
     1.0000   1.0000   1.0000   1.0000   1.0000   1.0000   1.0000   1.0000
     1.0000   1.0000   1.0000   1.0000   1.0000   1.0000   1.0000   1.0000
     1.0000   1.0000   1.0000   1.0000   1.0000   1.0000   1.0000   1.0000
     1.0000   1.0000   1.0000   1.0000   1.0000   1.0000   1.0000   1.0000
     1.0000   1.0000   1.0000   1.0000   1.0000   1.0000   1.0000   1.0000
     1.0000   1.0000   1.0000   1.0000   1.0000   1.0000   1.0000   1.0000
     1.0000   1.0000   1.0000   1.0000   1.0000   1.0000   1.0000   1.0000
     1.0000   1.0000   1.0000   1.0000   1.0000   1.0000   1.0000   1.0000
     1.0000   1.0000   1.0000   1.0000   1.0000   1.0000   1.0000   1.0000
     1.0000   1.0000   1.0000   1.0000   1.0000   1.0000   1.0000   1.0000
     1.0000   1.0000   1.0000   1.0000   1.0000   1.0000   1.0000   1.0000
     1.0000   1.0000   1.0000   1.0000   1.0000   1.0000   1.0000   1.0000
     1.0000   1.0000   1.0000   1.0000   1.0000   1.0000   1.0000   1.0000
     1.0000   1.0000   1.0000   1.0000   1.0000   1.0000   1.0000   1.0000
     1.0000   1.0000   1.0000   1.0000   1.0000   1.0000   1.0000   1.0000
     1.0000   1.0000   1.0000   1.0000   1.0000   1.0000   1.0000   1.0000
     0.0000   0.0000   0.0000   0.0000   0.0000   0.0000   0.0000   0.0000
     0.0000   0.0000   0.0000   0.0000   0.0000   0.0000   0.0000   0.0000

          k = 0.5774 0.2887 0.2887 ( 44587 PWs)   bands (ev):

   -11.0299 -11.0227 -11.0227 -10.8286 -10.6289 -10.6289 -10.5481 -10.5481
   -10.5459 -10.5152 -10.4235 -10.4235 -10.3787 -10.3787 -10.3579 -10.3233
   -10.3233 -10.2967 -10.2709 -10.2709 -10.1642 -10.1165 -10.1006 -10.1006
    -4.6706  -4.6706  -4.6561  -4.6561  -4.6499  -4.6323  -4.6323  -4.6233
    -4.6054  -4.5871  -4.5871  -4.5737  -4.5504  -4.5504  -4.5184  -4.5184
    -4.4987  -4.4976  -4.4976  -4.4823  -4.4686  -4.4617  -4.4617  -4.4578
    -4.4533  -4.4533  -4.4526  -4.4364  -4.4364  -4.4132  -4.4022  -4.4022
    -4.3642  -4.3546  -4.3546  -4.3326  -4.3326  -4.3104  -4.3063  -4.2964
    -4.2964  -4.2715  -4.2693  -4.2640  -4.2640  -4.2344  -4.2326  -4.2326
    -4.2043  -4.2043  -4.1952  -4.1890  -4.1800  -4.1722  -4.1722  -4.1669
    -4.1620  -4.1620  -4.1474  -4.1474  -4.1402  -4.1402  -4.1377  -4.1138
    -4.1138  -4.0634  -4.0182  -4.0182  -3.9706  -3.9706  -3.9134  -3.8374
    -3.6165  -3.5953  -3.5953  -3.5324  -3.5324  -3.4866  -3.4317  -3.4317
     2.5393   2.5393   2.5989   2.6943   2.6943   2.7125   3.0341   3.0508
     3.0508   3.1122   3.1967   3.1967   3.8203   4.0423   4.1971   4.2011
     4.2011   4.4107   4.5056   4.5056   4.7052   4.7052   4.7146   4.9176
     4.9176   5.0179   5.0887   5.0887   5.2329   5.3439   5.3907   5.3907
     5.5874   5.6412   5.6412   5.8149   5.8149   5.8901   5.8901   5.9734
     6.1343   6.1822   6.1822   6.4504   6.4504   6.5148   6.5828   6.5828
     6.6727   6.7821   6.7821   6.8847   6.9845   7.0350   7.0350   7.1349
     7.2547   7.2547   7.3625   7.3625   7.3787   7.4314   7.4399   7.4399
     7.7401   7.7417   7.7417   7.7618   7.7651   7.7651   7.7915   7.7915
    12.4784  12.4784  12.4934  13.7250  14.4902  14.5128  14.5128  14.8662
    14.8662  15.0253  15.3373  15.4054  15.4054  15.4576  15.6099  15.6099

     occupation numbers 
     1.0000   1.0000   1.0000   1.0000   1.0000   1.0000   1.0000   1.0000
     1.0000   1.0000   1.0000   1.0000   1.0000   1.0000   1.0000   1.0000
     1.0000   1.0000   1.0000   1.0000   1.0000   1.0000   1.0000   1.0000
     1.0000   1.0000   1.0000   1.0000   1.0000   1.0000   1.0000   1.0000
     1.0000   1.0000   1.0000   1.0000   1.0000   1.0000   1.0000   1.0000
     1.0000   1.0000   1.0000   1.0000   1.0000   1.0000   1.0000   1.0000
     1.0000   1.0000   1.0000   1.0000   1.0000   1.0000   1.0000   1.0000
     1.0000   1.0000   1.0000   1.0000   1.0000   1.0000   1.0000   1.0000
     1.0000   1.0000   1.0000   1.0000   1.0000   1.0000   1.0000   1.0000
     1.0000   1.0000   1.0000   1.0000   1.0000   1.0000   1.0000   1.0000
     1.0000   1.0000   1.0000   1.0000   1.0000   1.0000   1.0000   1.0000
     1.0000   1.0000   1.0000   1.0000   1.0000   1.0000   1.0000   1.0000
     1.0000   1.0000   1.0000   1.0000   1.0000   1.0000   1.0000   1.0000
     1.0000   1.0000   1.0000   1.0000   1.0000   1.0000   1.0000   1.0000
     1.0000   1.0000   1.0000   1.0000   1.0000   1.0000   1.0000   1.0000
     1.0000   1.0000   1.0000   1.0000   1.0000   1.0000   1.0000   1.0000
     1.0000   1.0000   1.0000   1.0000   1.0000   1.0000   1.0000   1.0000
     1.0000   1.0000   1.0000   1.0000   1.0000   1.0000   1.0000   1.0000
     1.0000   1.0000   1.0000   1.0000   1.0000   1.0000   1.0000   1.0000
     1.0000   1.0000   1.0000   1.0000   1.0000   1.0000   1.0000   1.0000
     1.0000   1.0000   1.0000   1.0000   1.0000   1.0000   1.0000   1.0000
     1.0000   1.0000   1.0000   1.0000   1.0000   1.0000   1.0000   1.0000
     0.0000   0.0000   0.0000   0.0000   0.0000   0.0000   0.0000   0.0000
     0.0000   0.0000   0.0000   0.0000   0.0000   0.0000   0.0000   0.0000

          k =-0.0000-0.0000 0.5774 ( 44720 PWs)   bands (ev):

   -11.1162 -10.8876 -10.8786 -10.8176 -10.8039 -10.6754 -10.6165 -10.6094
   -10.5984 -10.5475 -10.3996 -10.3892 -10.3730 -10.3537 -10.3333 -10.3287
   -10.3177 -10.2481 -10.2318 -10.2169 -10.1792 -10.1480 -10.1447 -10.0792
    -4.6922  -4.6765  -4.6509  -4.6429  -4.6304  -4.6254  -4.6237  -4.6225
    -4.6191  -4.5970  -4.5743  -4.5543  -4.5533  -4.5459  -4.5409  -4.5303
    -4.5239  -4.5045  -4.4986  -4.4778  -4.4772  -4.4622  -4.4613  -4.4571
    -4.4520  -4.4439  -4.4342  -4.4288  -4.4238  -4.4200  -4.4019  -4.3720
    -4.3715  -4.3590  -4.3461  -4.3322  -4.3210  -4.3173  -4.3061  -4.3003
    -4.2967  -4.2965  -4.2822  -4.2735  -4.2719  -4.2523  -4.2455  -4.2317
    -4.2179  -4.2109  -4.1986  -4.1977  -4.1814  -4.1777  -4.1715  -4.1694
    -4.1618  -4.1597  -4.1523  -4.1502  -4.1446  -4.1440  -4.1406  -4.1301
    -4.1186  -4.1143  -3.9828  -3.9316  -3.9021  -3.8148  -3.8124  -3.7486
    -3.6812  -3.6792  -3.6452  -3.5858  -3.5502  -3.5108  -3.4805  -3.4169
     2.3173   2.4065   2.4424   2.5410   2.6626   2.6649   3.2096   3.2164
     3.2621   3.2942   3.3747   3.9776   3.9996   4.0370   4.0665   4.0789
     4.1323   4.1615   4.2322   4.3095   4.3469   4.5201   4.6378   4.8639
     4.9553   4.9790   5.0724   5.1485   5.3098   5.3151   5.3965   5.5535
     5.6324   5.6454   5.7486   5.8703   5.8794   5.8831   5.9481   6.0669
     6.0686   6.1477   6.2342   6.2561   6.3088   6.4295   6.4835   6.5311
     6.5451   6.7809   6.8443   6.9450   7.0247   7.0479   7.1728   7.1923
     7.3409   7.3533   7.4100   7.4135   7.5075   7.5154   7.5888   7.5945
     7.5989   7.6462   7.6723   7.6729   7.6735   7.7292   7.7522   7.7675
    11.8238  13.2882  13.3036  13.3356  13.3356  14.1740  14.5690  14.6295
    14.6547  14.8178  15.5472  15.5516  15.5789  15.6415  15.8294  15.9479

     occupation numbers 
     1.0000   1.0000   1.0000   1.0000   1.0000   1.0000   1.0000   1.0000
     1.0000   1.0000   1.0000   1.0000   1.0000   1.0000   1.0000   1.0000
     1.0000   1.0000   1.0000   1.0000   1.0000   1.0000   1.0000   1.0000
     1.0000   1.0000   1.0000   1.0000   1.0000   1.0000   1.0000   1.0000
     1.0000   1.0000   1.0000   1.0000   1.0000   1.0000   1.0000   1.0000
     1.0000   1.0000   1.0000   1.0000   1.0000   1.0000   1.0000   1.0000
     1.0000   1.0000   1.0000   1.0000   1.0000   1.0000   1.0000   1.0000
     1.0000   1.0000   1.0000   1.0000   1.0000   1.0000   1.0000   1.0000
     1.0000   1.0000   1.0000   1.0000   1.0000   1.0000   1.0000   1.0000
     1.0000   1.0000   1.0000   1.0000   1.0000   1.0000   1.0000   1.0000
     1.0000   1.0000   1.0000   1.0000   1.0000   1.0000   1.0000   1.0000
     1.0000   1.0000   1.0000   1.0000   1.0000   1.0000   1.0000   1.0000
     1.0000   1.0000   1.0000   1.0000   1.0000   1.0000   1.0000   1.0000
     1.0000   1.0000   1.0000   1.0000   1.0000   1.0000   1.0000   1.0000
     1.0000   1.0000   1.0000   1.0000   1.0000   1.0000   1.0000   1.0000
     1.0000   1.0000   1.0000   1.0000   1.0000   1.0000   1.0000   1.0000
     1.0000   1.0000   1.0000   1.0000   1.0000   1.0000   1.0000   1.0000
     1.0000   1.0000   1.0000   1.0000   1.0000   1.0000   1.0000   1.0000
     1.0000   1.0000   1.0000   1.0000   1.0000   1.0000   1.0000   1.0000
     1.0000   1.0000   1.0000   1.0000   1.0000   1.0000   1.0000   1.0000
     1.0000   1.0000   1.0000   1.0000   1.0000   1.0000   1.0000   1.0000
     1.0000   1.0000   1.0000   1.0000   1.0000   1.0000   1.0000   1.0000
     0.0000   0.0000   0.0000   0.0000   0.0000   0.0000   0.0000   0.0000
     0.0000   0.0000   0.0000   0.0000   0.0000   0.0000   0.0000   0.0000

     highest occupied, lowest unoccupied level (ev):     7.8856    9.9936

!    total energy              =   -2430.30794254 Ry
     estimated scf accuracy    <          6.6E-11 Ry

     convergence has been achieved in   1 iterations

     Using ACE for calculation of exact exchange
     ACE projected onto   192 (nbndproj) and applied to   192 (nbnd) bands

!!   total energy              =   -2430.30794254 Ry
     Harris-Foulkes estimate   =   -2430.30794254 Ry
     est. exchange err (dexx)  =          1.2E-10 Ry
     - averaged Fock potential =     140.34746519 Ry
     + Fock energy (ACE)       =     -70.17373107 Ry

     EXX self-consistency reached

     Forces acting on atoms (cartesian axes, Ry/au):

     atom    1 type  1   force =     0.00000000   -0.00000000   -0.00000000
     atom    2 type  1   force =     0.00000000    0.00000000   -0.00000000
     atom    3 type  1   force =    -0.00000000   -0.00000000    0.00000000
     atom    4 type  1   force =     0.00000000    0.00000000    0.00000000
     atom    5 type  1   force =    -0.00037238   -0.00000000   -0.00000000
     atom    6 type  1   force =     0.00037238    0.00000000    0.00000000
     atom    7 type  1   force =    -0.00000000   -0.00037238   -0.00000000
     atom    8 type  1   force =    -0.00000000    0.00037238   -0.00000000
     atom    9 type  1   force =     0.00000000    0.00000000   -0.00037238
     atom   10 type  1   force =     0.00000000    0.00000000    0.00037238
     atom   11 type  1   force =     0.00037238    0.00000000    0.00000000
     atom   12 type  1   force =    -0.00037238   -0.00000000   -0.00000000
     atom   13 type  1   force =    -0.00000000    0.00037238   -0.00000000
     atom   14 type  1   force =    -0.00000000   -0.00037238   -0.00000000
     atom   15 type  1   force =    -0.00000000   -0.00000000    0.00037238
     atom   16 type  1   force =    -0.00000000   -0.00000000   -0.00037238
     atom   17 type  2   force =    -0.00363675   -0.00257797    0.00167425
     atom   18 type  2   force =     0.00363675    0.00257797    0.00167425
     atom   19 type  2   force =     0.00363675   -0.00257797   -0.00167425
     atom   20 type  2   force =    -0.00363675    0.00257797   -0.00167425
     atom   21 type  2   force =     0.00167425   -0.00363675   -0.00257797
     atom   22 type  2   force =     0.00167425    0.00363675    0.00257797
     atom   23 type  2   force =    -0.00167425    0.00363675   -0.00257797
     atom   24 type  2   force =    -0.00167425   -0.00363675    0.00257797
     atom   25 type  2   force =    -0.00257797    0.00167425   -0.00363675
     atom   26 type  2   force =     0.00257797    0.00167425    0.00363675
     atom   27 type  2   force =    -0.00257797   -0.00167425    0.00363675
     atom   28 type  2   force =     0.00257797   -0.00167425   -0.00363675
     atom   29 type  2   force =     0.00363675    0.00257797   -0.00167425
     atom   30 type  2   force =    -0.00363675   -0.00257797   -0.00167425
     atom   31 type  2   force =    -0.00363675    0.00257797    0.00167425
     atom   32 type  2   force =     0.00363675   -0.00257797    0.00167425
     atom   33 type  2   force =    -0.00167425    0.00363675    0.00257797
     atom   34 type  2   force =    -0.00167425   -0.00363675   -0.00257797
     atom   35 type  2   force =     0.00167425   -0.00363675    0.00257797
     atom   36 type  2   force =     0.00167425    0.00363675   -0.00257797
     atom   37 type  2   force =     0.00257797   -0.00167425    0.00363675
     atom   38 type  2   force =    -0.00257797   -0.00167425   -0.00363675
     atom   39 type  2   force =     0.00257797    0.00167425   -0.00363675
     atom   40 type  2   force =    -0.00257797    0.00167425    0.00363675
     The non-local contrib.  to forces
     atom    1 type  1   force =    -0.00000000   -0.00000000   -0.00000000
     atom    2 type  1   force =     0.00000000    0.00000000   -0.00000000
     atom    3 type  1   force =     0.00000000   -0.00000000    0.00000000
     atom    4 type  1   force =    -0.00000000    0.00000000    0.00000000
     atom    5 type  1   force =    -0.01009752   -0.00000000   -0.00000000
     atom    6 type  1   force =     0.01009752    0.00000000    0.00000000
     atom    7 type  1   force =     0.00000000   -0.01009752    0.00000000
     atom    8 type  1   force =    -0.00000000    0.01009752   -0.00000000
     atom    9 type  1   force =     0.00000000    0.00000000   -0.01009752
     atom   10 type  1   force =    -0.00000000   -0.00000000    0.01009752
     atom   11 type  1   force =     0.01009752    0.00000000    0.00000000
     atom   12 type  1   force =    -0.01009752   -0.00000000   -0.00000000
     atom   13 type  1   force =     0.00000000    0.01009752   -0.00000000
     atom   14 type  1   force =    -0.00000000   -0.01009752    0.00000000
     atom   15 type  1   force =    -0.00000000   -0.00000000    0.01009752
     atom   16 type  1   force =     0.00000000    0.00000000   -0.01009752
     atom   17 type  2   force =    -0.08426198   -0.04204296    0.07503086
     atom   18 type  2   force =     0.08426198    0.04204296    0.07503086
     atom   19 type  2   force =     0.08426198   -0.04204296   -0.07503086
     atom   20 type  2   force =    -0.08426198    0.04204296   -0.07503086
     atom   21 type  2   force =     0.07503086   -0.08426198   -0.04204296
     atom   22 type  2   force =     0.07503086    0.08426198    0.04204296
     atom   23 type  2   force =    -0.07503086    0.08426198   -0.04204296
     atom   24 type  2   force =    -0.07503086   -0.08426198    0.04204296
     atom   25 type  2   force =    -0.04204296    0.07503086   -0.08426198
     atom   26 type  2   force =     0.04204296    0.07503086    0.08426198
     atom   27 type  2   force =    -0.04204296   -0.07503086    0.08426198
     atom   28 type  2   force =     0.04204296   -0.07503086   -0.08426198
     atom   29 type  2   force =     0.08426198    0.04204296   -0.07503086
     atom   30 type  2   force =    -0.08426198   -0.04204296   -0.07503086
     atom   31 type  2   force =    -0.08426198    0.04204296    0.07503086
     atom   32 type  2   force =     0.08426198   -0.04204296    0.07503086
     atom   33 type  2   force =    -0.07503086    0.08426198    0.04204296
     atom   34 type  2   force =    -0.07503086   -0.08426198   -0.04204296
     atom   35 type  2   force =     0.07503086   -0.08426198    0.04204296
     atom   36 type  2   force =     0.07503086    0.08426198   -0.04204296
     atom   37 type  2   force =     0.04204296   -0.07503086    0.08426198
     atom   38 type  2   force =    -0.04204296   -0.07503086   -0.08426198
     atom   39 type  2   force =     0.04204296    0.07503086   -0.08426198
     atom   40 type  2   force =    -0.04204296    0.07503086    0.08426198
     The ionic contribution  to forces
     atom    1 type  1   force =    -0.00000000   -0.00000000   -0.00000000
     atom    2 type  1   force =    -0.00000000    0.00000000   -0.00000000
     atom    3 type  1   force =    -0.00000000   -0.00000000   -0.00000000
     atom    4 type  1   force =     0.00000000   -0.00000000   -0.00000000
     atom    5 type  1   force =     3.92015284    0.00000000   -0.00000000
     atom    6 type  1   force =    -3.92015284    0.00000000    0.00000000
     atom    7 type  1   force =     0.00000000    3.92015284   -0.00000000
     atom    8 type  1   force =     0.00000000   -3.92015284    0.00000000
     atom    9 type  1   force =     0.00000000   -0.00000000    3.92015284
     atom   10 type  1   force =     0.00000000    0.00000000   -3.92015284
     atom   11 type  1   force =    -3.92015284    0.00000000   -0.00000000
     atom   12 type  1   force =     3.92015284   -0.00000000    0.00000000
     atom   13 type  1   force =    -0.00000000   -3.92015284    0.00000000
     atom   14 type  1   force =     0.00000000    3.92015284   -0.00000000
     atom   15 type  1   force =     0.00000000   -0.00000000   -3.92015284
     atom   16 type  1   force =    -0.00000000    0.00000000    3.92015284
     atom   17 type  2   force =     2.58866876    1.73183117   -0.06463433
     atom   18 type  2   force =    -2.58866876   -1.73183117   -0.06463433
     atom   19 type  2   force =    -2.58866876    1.73183117    0.06463433
     atom   20 type  2   force =     2.58866876   -1.73183117    0.06463433
     atom   21 type  2   force =    -0.06463433    2.58866876    1.73183117
     atom   22 type  2   force =    -0.06463433   -2.58866876   -1.73183117
     atom   23 type  2   force =     0.06463433   -2.58866876    1.73183117
     atom   24 type  2   force =     0.06463433    2.58866876   -1.73183117
     atom   25 type  2   force =     1.73183117   -0.06463433    2.58866876
     atom   26 type  2   force =    -1.73183117   -0.06463433   -2.58866876
     atom   27 type  2   force =     1.73183117    0.06463433   -2.58866876
     atom   28 type  2   force =    -1.73183117    0.06463433    2.58866876
     atom   29 type  2   force =    -2.58866876   -1.73183117    0.06463433
     atom   30 type  2   force =     2.58866876    1.73183117    0.06463433
     atom   31 type  2   force =     2.58866876   -1.73183117   -0.06463433
     atom   32 type  2   force =    -2.58866876    1.73183117   -0.06463433
     atom   33 type  2   force =     0.06463433   -2.58866876   -1.73183117
     atom   34 type  2   force =     0.06463433    2.58866876    1.73183117
     atom   35 type  2   force =    -0.06463433    2.58866876   -1.73183117
     atom   36 type  2   force =    -0.06463433   -2.58866876    1.73183117
     atom   37 type  2   force =    -1.73183117    0.06463433   -2.58866876
     atom   38 type  2   force =     1.73183117    0.06463433    2.58866876
     atom   39 type  2   force =    -1.73183117   -0.06463433    2.58866876
     atom   40 type  2   force =     1.73183117   -0.06463433   -2.58866876
     The local contribution  to forces
     atom    1 type  1   force =     0.00000000    0.00000000    0.00000000
     atom    2 type  1   force =    -0.00000000    0.00000000    0.00000000
     atom    3 type  1   force =     0.00000000    0.00000000    0.00000000
     atom    4 type  1   force =     0.00000000    0.00000000    0.00000000
     atom    5 type  1   force =    -3.91043104    0.00000000    0.00000000
     atom    6 type  1   force =     3.91043104    0.00000000    0.00000000
     atom    7 type  1   force =    -0.00000000   -3.91043104    0.00000000
     atom    8 type  1   force =     0.00000000    3.91043104    0.00000000
     atom    9 type  1   force =     0.00000000    0.00000000   -3.91043104
     atom   10 type  1   force =     0.00000000    0.00000000    3.91043104
     atom   11 type  1   force =     3.91043104   -0.00000000    0.00000000
     atom   12 type  1   force =    -3.91043104    0.00000000    0.00000000
     atom   13 type  1   force =     0.00000000    3.91043104    0.00000000
     atom   14 type  1   force =     0.00000000   -3.91043104    0.00000000
     atom   15 type  1   force =    -0.00000000    0.00000000    3.91043104
     atom   16 type  1   force =     0.00000000    0.00000000   -3.91043104
     atom   17 type  2   force =    -2.50804455   -1.69236670   -0.00872245
     atom   18 type  2   force =     2.50804455    1.69236670   -0.00872245
     atom   19 type  2   force =     2.50804455   -1.69236670    0.00872245
     atom   20 type  2   force =    -2.50804455    1.69236670    0.00872245
     atom   21 type  2   force =    -0.00872245   -2.50804455   -1.69236670
     atom   22 type  2   force =    -0.00872245    2.50804455    1.69236670
     atom   23 type  2   force =     0.00872245    2.50804455   -1.69236670
     atom   24 type  2   force =     0.00872245   -2.50804455    1.69236670
     atom   25 type  2   force =    -1.69236670   -0.00872245   -2.50804455
     atom   26 type  2   force =     1.69236670   -0.00872245    2.50804455
     atom   27 type  2   force =    -1.69236670    0.00872245    2.50804455
     atom   28 type  2   force =     1.69236670    0.00872245   -2.50804455
     atom   29 type  2   force =     2.50804455    1.69236670    0.00872245
     atom   30 type  2   force =    -2.50804455   -1.69236670    0.00872245
     atom   31 type  2   force =    -2.50804455    1.69236670   -0.00872245
     atom   32 type  2   force =     2.50804455   -1.69236670   -0.00872245
     atom   33 type  2   force =     0.00872245    2.50804455    1.69236670
     atom   34 type  2   force =     0.00872245   -2.50804455   -1.69236670
     atom   35 type  2   force =    -0.00872245   -2.50804455    1.69236670
     atom   36 type  2   force =    -0.00872245    2.50804455   -1.69236670
     atom   37 type  2   force =     1.69236670    0.00872245    2.50804455
     atom   38 type  2   force =    -1.69236670    0.00872245   -2.50804455
     atom   39 type  2   force =     1.69236670   -0.00872245   -2.50804455
     atom   40 type  2   force =    -1.69236670   -0.00872245    2.50804455
     The core correction contribution to forces
     atom    1 type  1   force =     0.00000000    0.00000000    0.00000000
     atom    2 type  1   force =     0.00000000    0.00000000    0.00000000
     atom    3 type  1   force =     0.00000000    0.00000000    0.00000000
     atom    4 type  1   force =     0.00000000    0.00000000    0.00000000
     atom    5 type  1   force =     0.00000000    0.00000000    0.00000000
     atom    6 type  1   force =     0.00000000    0.00000000    0.00000000
     atom    7 type  1   force =     0.00000000    0.00000000    0.00000000
     atom    8 type  1   force =     0.00000000    0.00000000    0.00000000
     atom    9 type  1   force =     0.00000000    0.00000000    0.00000000
     atom   10 type  1   force =     0.00000000    0.00000000    0.00000000
     atom   11 type  1   force =     0.00000000    0.00000000    0.00000000
     atom   12 type  1   force =     0.00000000    0.00000000    0.00000000
     atom   13 type  1   force =     0.00000000    0.00000000    0.00000000
     atom   14 type  1   force =     0.00000000    0.00000000    0.00000000
     atom   15 type  1   force =     0.00000000    0.00000000    0.00000000
     atom   16 type  1   force =     0.00000000    0.00000000    0.00000000
     atom   17 type  2   force =     0.00000000    0.00000000    0.00000000
     atom   18 type  2   force =     0.00000000    0.00000000    0.00000000
     atom   19 type  2   force =     0.00000000    0.00000000    0.00000000
     atom   20 type  2   force =     0.00000000    0.00000000    0.00000000
     atom   21 type  2   force =     0.00000000    0.00000000    0.00000000
     atom   22 type  2   force =     0.00000000    0.00000000    0.00000000
     atom   23 type  2   force =     0.00000000    0.00000000    0.00000000
     atom   24 type  2   force =     0.00000000    0.00000000    0.00000000
     atom   25 type  2   force =     0.00000000    0.00000000    0.00000000
     atom   26 type  2   force =     0.00000000    0.00000000    0.00000000
     atom   27 type  2   force =     0.00000000    0.00000000    0.00000000
     atom   28 type  2   force =     0.00000000    0.00000000    0.00000000
     atom   29 type  2   force =     0.00000000    0.00000000    0.00000000
     atom   30 type  2   force =     0.00000000    0.00000000    0.00000000
     atom   31 type  2   force =     0.00000000    0.00000000    0.00000000
     atom   32 type  2   force =     0.00000000    0.00000000    0.00000000
     atom   33 type  2   force =     0.00000000    0.00000000    0.00000000
     atom   34 type  2   force =     0.00000000    0.00000000    0.00000000
     atom   35 type  2   force =     0.00000000    0.00000000    0.00000000
     atom   36 type  2   force =     0.00000000    0.00000000    0.00000000
     atom   37 type  2   force =     0.00000000    0.00000000    0.00000000
     atom   38 type  2   force =     0.00000000    0.00000000    0.00000000
     atom   39 type  2   force =     0.00000000    0.00000000    0.00000000
     atom   40 type  2   force =     0.00000000    0.00000000    0.00000000
     The Hubbard contrib.    to forces
     atom    1 type  1   force =     0.00000000    0.00000000    0.00000000
     atom    2 type  1   force =     0.00000000    0.00000000    0.00000000
     atom    3 type  1   force =     0.00000000    0.00000000    0.00000000
     atom    4 type  1   force =     0.00000000    0.00000000    0.00000000
     atom    5 type  1   force =     0.00000000    0.00000000    0.00000000
     atom    6 type  1   force =     0.00000000    0.00000000    0.00000000
     atom    7 type  1   force =     0.00000000    0.00000000    0.00000000
     atom    8 type  1   force =     0.00000000    0.00000000    0.00000000
     atom    9 type  1   force =     0.00000000    0.00000000    0.00000000
     atom   10 type  1   force =     0.00000000    0.00000000    0.00000000
     atom   11 type  1   force =     0.00000000    0.00000000    0.00000000
     atom   12 type  1   force =     0.00000000    0.00000000    0.00000000
     atom   13 type  1   force =     0.00000000    0.00000000    0.00000000
     atom   14 type  1   force =     0.00000000    0.00000000    0.00000000
     atom   15 type  1   force =     0.00000000    0.00000000    0.00000000
     atom   16 type  1   force =     0.00000000    0.00000000    0.00000000
     atom   17 type  2   force =     0.00000000    0.00000000    0.00000000
     atom   18 type  2   force =     0.00000000    0.00000000    0.00000000
     atom   19 type  2   force =     0.00000000    0.00000000    0.00000000
     atom   20 type  2   force =     0.00000000    0.00000000    0.00000000
     atom   21 type  2   force =     0.00000000    0.00000000    0.00000000
     atom   22 type  2   force =     0.00000000    0.00000000    0.00000000
     atom   23 type  2   force =     0.00000000    0.00000000    0.00000000
     atom   24 type  2   force =     0.00000000    0.00000000    0.00000000
     atom   25 type  2   force =     0.00000000    0.00000000    0.00000000
     atom   26 type  2   force =     0.00000000    0.00000000    0.00000000
     atom   27 type  2   force =     0.00000000    0.00000000    0.00000000
     atom   28 type  2   force =     0.00000000    0.00000000    0.00000000
     atom   29 type  2   force =     0.00000000    0.00000000    0.00000000
     atom   30 type  2   force =     0.00000000    0.00000000    0.00000000
     atom   31 type  2   force =     0.00000000    0.00000000    0.00000000
     atom   32 type  2   force =     0.00000000    0.00000000    0.00000000
     atom   33 type  2   force =     0.00000000    0.00000000    0.00000000
     atom   34 type  2   force =     0.00000000    0.00000000    0.00000000
     atom   35 type  2   force =     0.00000000    0.00000000    0.00000000
     atom   36 type  2   force =     0.00000000    0.00000000    0.00000000
     atom   37 type  2   force =     0.00000000    0.00000000    0.00000000
     atom   38 type  2   force =     0.00000000    0.00000000    0.00000000
     atom   39 type  2   force =     0.00000000    0.00000000    0.00000000
     atom   40 type  2   force =     0.00000000    0.00000000    0.00000000
     The SCF correction term to forces
     atom    1 type  1   force =    -0.00000000   -0.00000000   -0.00000000
     atom    2 type  1   force =     0.00000000    0.00000000    0.00000000
     atom    3 type  1   force =    -0.00000000   -0.00000000   -0.00000000
     atom    4 type  1   force =     0.00000000    0.00000000    0.00000000
     atom    5 type  1   force =     0.00000333    0.00000000   -0.00000000
     atom    6 type  1   force =    -0.00000333   -0.00000000    0.00000000
     atom    7 type  1   force =     0.00000000    0.00000333    0.00000000
     atom    8 type  1   force =     0.00000000   -0.00000333   -0.00000000
     atom    9 type  1   force =     0.00000000    0.00000000    0.00000333
     atom   10 type  1   force =    -0.00000000    0.00000000   -0.00000333
     atom   11 type  1   force =    -0.00000333    0.00000000    0.00000000
     atom   12 type  1   force =     0.00000333    0.00000000   -0.00000000
     atom   13 type  1   force =    -0.00000000   -0.00000333   -0.00000000
     atom   14 type  1   force =     0.00000000    0.00000333    0.00000000
     atom   15 type  1   force =    -0.00000000   -0.00000000   -0.00000333
     atom   16 type  1   force =     0.00000000   -0.00000000    0.00000333
     atom   17 type  2   force =     0.00000103    0.00000052    0.00000018
     atom   18 type  2   force =    -0.00000103   -0.00000052    0.00000018
     atom   19 type  2   force =    -0.00000103    0.00000052   -0.00000018
     atom   20 type  2   force =     0.00000103   -0.00000052   -0.00000018
     atom   21 type  2   force =     0.00000018    0.00000103    0.00000052
     atom   22 type  2   force =     0.00000018   -0.00000103   -0.00000052
     atom   23 type  2   force =    -0.00000018   -0.00000103    0.00000052
     atom   24 type  2   force =    -0.00000018    0.00000103   -0.00000052
     atom   25 type  2   force =     0.00000052    0.00000018    0.00000103
     atom   26 type  2   force =    -0.00000052    0.00000018   -0.00000103
     atom   27 type  2   force =     0.00000052   -0.00000018   -0.00000103
     atom   28 type  2   force =    -0.00000052   -0.00000018    0.00000103
     atom   29 type  2   force =    -0.00000103   -0.00000052   -0.00000018
     atom   30 type  2   force =     0.00000103    0.00000052   -0.00000018
     atom   31 type  2   force =     0.00000103   -0.00000052    0.00000018
     atom   32 type  2   force =    -0.00000103    0.00000052    0.00000018
     atom   33 type  2   force =    -0.00000018   -0.00000103   -0.00000052
     atom   34 type  2   force =    -0.00000018    0.00000103    0.00000052
     atom   35 type  2   force =     0.00000018    0.00000103   -0.00000052
     atom   36 type  2   force =     0.00000018   -0.00000103    0.00000052
     atom   37 type  2   force =    -0.00000052   -0.00000018   -0.00000103
     atom   38 type  2   force =     0.00000052   -0.00000018    0.00000103
     atom   39 type  2   force =    -0.00000052    0.00000018    0.00000103
     atom   40 type  2   force =     0.00000052    0.00000018   -0.00000103

     Total force =     0.023364     Total SCF correction =     0.000013


     Computing stress (Cartesian axis) and pressure

          total   stress  (Ry/bohr**3)                   (kbar)     P=       21.73
   0.00014775   0.00000000   0.00000000           21.73        0.00        0.00
   0.00000000   0.00014775   0.00000000            0.00       21.73        0.00
   0.00000000   0.00000000   0.00014775            0.00        0.00       21.73

     kinetic stress (kbar)  42419.28     -0.00     -0.00
                               -0.00  42419.28     -0.00
                               -0.00     -0.00  42419.28

     local   stress (kbar)  -7935.51     -0.00     -0.00
                               -0.00  -7935.51     -0.00
                               -0.00     -0.00  -7935.51

     nonloc. stress (kbar) -10298.65      0.00     -0.00
                                0.00 -10298.65     -0.00
                               -0.00     -0.00 -10298.65

     hartree stress (kbar)   7276.61      0.00     -0.00
                                0.00   7276.61      0.00
                               -0.00      0.00   7276.61

     exc-cor stress (kbar)  -3730.88      0.00      0.00
                                0.00  -3730.88      0.00
                                0.00      0.00  -3730.88

     corecor stress (kbar)      0.00      0.00      0.00
                                0.00      0.00      0.00
                                0.00      0.00      0.00

     ewald   stress (kbar) -26747.21     -0.00      0.00
                               -0.00 -26747.21      0.00
                                0.00      0.00 -26747.21

     hubbard stress (kbar)      0.00      0.00      0.00
                                0.00      0.00      0.00
                                0.00      0.00      0.00

     DFT-D   stress (kbar)      0.00      0.00      0.00
                                0.00      0.00      0.00
                                0.00      0.00      0.00

     XDM     stress (kbar)      0.00      0.00      0.00
                                0.00      0.00      0.00
                                0.00      0.00      0.00

     dft-nl  stress (kbar)      0.00      0.00      0.00
                                0.00      0.00      0.00
                                0.00      0.00      0.00

     TS-vdW  stress (kbar)      0.00      0.00      0.00
                                0.00      0.00      0.00
                                0.00      0.00      0.00

     MDB     stress (kbar)      0.00      0.00      0.00
                                0.00      0.00      0.00
                                0.00      0.00      0.00

     3D-RISM stress (kbar)      0.00      0.00      0.00
                                0.00      0.00      0.00
                                0.00      0.00      0.00

     EXX     stress (kbar)   -961.90     -0.00      0.00
                               -0.00   -961.90      0.00
                               -0.00      0.00   -961.90



     Writing all to output data dir ./tmp/nc.save/ :
     XML data file, charge density, pseudopotentials, collected wavefunctions
 
     init_run     :      0.69s CPU      1.34s WALL (       1 calls)
     electrons    :     49.85s CPU     50.68s WALL (       7 calls)
     forces       :      0.33s CPU      0.34s WALL (       1 calls)
     stress       :    537.77s CPU    541.69s WALL (       1 calls)

     Called by init_run:
     aceinit0     :      0.00s CPU      0.00s WALL (       1 calls)
     wfcinit      :      0.36s CPU      0.71s WALL (       1 calls)
     wfcinit:wfcr :      0.23s CPU      0.46s WALL (       4 calls)
     potinit      :      0.04s CPU      0.08s WALL (       1 calls)
     hinit0       :      0.09s CPU      0.14s WALL (       1 calls)

     Called by electrons:
     c_bands      :     39.85s CPU     40.34s WALL (      45 calls)
     sum_band     :      7.79s CPU      7.86s WALL (      45 calls)
     v_of_rho     :      0.58s CPU      0.65s WALL (      46 calls)
     v_h          :      0.30s CPU      0.32s WALL (      46 calls)
     v_xc         :      0.28s CPU      0.33s WALL (      46 calls)
     mix_rho      :      1.19s CPU      1.29s WALL (      45 calls)

     Called by c_bands:
     init_us_2    :      0.47s CPU      0.49s WALL (     372 calls)
     cegterg      :     28.26s CPU     28.62s WALL (     180 calls)

     Called by sum_band:
     sum_band:wei :      0.00s CPU      0.00s WALL (      45 calls)
                                        0.00s GPU  (      45 calls)
     sum_band:loo :      6.82s CPU      6.87s WALL (      45 calls)
                                        6.87s GPU  (      45 calls)
     sum_band:buf :      4.81s CPU      4.85s WALL (     180 calls)
                                        4.83s GPU  (     180 calls)
     sum_band:ini :      0.23s CPU      0.23s WALL (     180 calls)
                                        0.23s GPU  (     180 calls)

     Called by *egterg:
     cdiaghg      :      3.71s CPU      3.89s WALL (     785 calls)
                                        3.88s GPU  (     785 calls)
     cegterg:over :      0.79s CPU      0.80s WALL (     633 calls)
     cegterg:upda :      1.26s CPU      1.27s WALL (     633 calls)
     cegterg:last :      0.60s CPU      0.60s WALL (     514 calls)
     h_psi        :     21.34s CPU     21.74s WALL (     817 calls)
                                       21.73s GPU  (     817 calls)
     g_psi        :      0.00s CPU      0.27s WALL (     633 calls)
                                        0.27s GPU  (     633 calls)

     Called by h_psi:
     h_psi:calbec :      0.07s CPU      0.71s WALL (     817 calls)
                                        0.71s GPU  (     817 calls)
     vloc_psi     :     10.92s CPU     11.10s WALL (     817 calls)
                                       11.09s GPU  (     817 calls)
     add_vuspsi   :      1.09s CPU      1.64s WALL (     817 calls)
                                        1.63s GPU  (     817 calls)

     General routines
     calbec       :      4.49s CPU      4.65s WALL (     865 calls)
     fft          :      0.01s CPU      0.06s WALL (     460 calls)
                                        0.06s GPU  (     460 calls)
     ffts         :      0.00s CPU      0.00s WALL (      45 calls)
                                        0.00s GPU  (      45 calls)
     fftw         :      0.20s CPU      8.90s WALL (   16820 calls)
                                        8.81s GPU  (   16820 calls)
     fftc         :    300.05s CPU    344.37s WALL (  436224 calls)
                                       31.98s GPU  (  301056 calls)
     fftcw        :     21.62s CPU     22.06s WALL (   16896 calls)
                                        0.39s GPU  (   10752 calls)
 
     Parallel routines

     EXX routines
     exx_grid     :      0.00s CPU      0.00s WALL (       1 calls)
     exxinit      :     49.09s CPU     50.10s WALL (       7 calls)
     vexx         :     68.00s CPU     69.08s WALL (      28 calls)
     matcalc      :      4.65s CPU      4.69s WALL (     682 calls)
                                        0.21s GPU  (     654 calls)
     aceupdate    :      3.55s CPU      3.58s WALL (      28 calls)
     vexxace      :      8.82s CPU      9.04s WALL (     602 calls)
                                        9.04s GPU  (     602 calls)
     aceinit      :     76.14s CPU     77.28s WALL (      28 calls)
 
     PWSCF        :  11m57.50s CPU  12m 6.01s WALL

 
   This run was terminated on:  22:51:27  30Sep2026            

=------------------------------------------------------------------------------=
   JOB DONE.
=------------------------------------------------------------------------------=
Warning: ieee_invalid is signaling
Warning: ieee_divide_by_zero is signaling
Warning: ieee_underflow is signaling
Warning: ieee_inexact is signaling
FORTRAN STOP
