WARNING: Skipping mount /tmp [tmp]: /tmp doesn't exist in container

     Program PWSCF v.7.3.1 starts on  4Oct2026 at  2:40:46 

     This program is part of the open-source Quantum ESPRESSO suite
     for quantum simulation of materials; please cite
         "P. Giannozzi et al., J. Phys.:Condens. Matter 21 395502 (2009);
         "P. Giannozzi et al., J. Phys.:Condens. Matter 29 465901 (2017);
         "P. Giannozzi et al., J. Chem. Phys. 152 154105 (2020);
          URL http://www.quantum-espresso.org", 
     in publications or presentations arising from this work. More details at
     http://www.quantum-espresso.org/quote

     Parallel version (MPI & OpenMP), running on       1 processor cores
     Number of MPI processes:                 1
     Threads/MPI process:                     1

     MPI processes distributed on     1 nodes
     108583 MiB available memory on the printing compute node when the environment starts
 
     Reading input from scf.in

     Current dimensions of program PWSCF are:
     Max number of different atomic species (ntypx) = 10
     Max number of k-points (npk) =  40000
     Max angular momentum in pseudopotentials (lmaxx) =  4
     file In.pbe-dn-kjpaw_psl.1.0.0.UPF: wavefunction(s)  5S 5P 4D renormalized
     file O.pbe-n-kjpaw_psl.1.0.0.UPF: wavefunction(s)  2S 2P renormalized
     file H.pbe-kjpaw_psl.1.0.0.UPF: wavefunction(s)  1S renormalized
     Message from routine setup:
     using ibrav=0 with symmetry is DISCOURAGED, use correct ibrav instead
 
     Subspace diagonalization in iterative solution of the eigenvalue problem:
     a serial algorithm will be used

 
     G-vector sticks info
     --------------------
     sticks:   dense  smooth     PW     G-vecs:    dense   smooth      PW
     Sum       17157    8585   2225              7413139  2620949  345857
 
     Using Slab Decomposition
 


     bravais-lattice index     =            0
     lattice parameter (alat)  =      19.4980  a.u.
     unit-cell volume          =   32429.1815 (a.u.)^3
     number of atoms/cell      =          176
     number of atomic types    =            3
     number of electrons       =      1328.00
     number of Kohn-Sham states=          680
     kinetic-energy cutoff     =      71.0000  Ry
     charge density cutoff     =     568.0000  Ry
     scf convergence threshold =      1.0E-09
     mixing beta               =       0.2000
     number of iterations used =            8  local-TF  mixing
     Exchange-correlation= SLA  PW   PBX  PBC
                           (   1   4   3   4   0   0   0)

     GPU acceleration is ACTIVE.  1 visible GPUs per MPI rank
     GPU-aware MPI enabled


     GPU used by master process:

        Device Number: 0
        Device name: NVIDIA H100 NVL
        Compute capability : 90
        Ratio of single to double precision performance  : 2
        Memory Clock Rate (KHz): 2619000
        Memory Bus Width (bits): 6016
        Peak Memory Bandwidth (GB/s): ******

     celldm(1)=  19.498036  celldm(2)=   0.000000  celldm(3)=   0.000000
     celldm(4)=   0.000000  celldm(5)=   0.000000  celldm(6)=   0.000000

     crystal axes: (cart. coord. in units of alat)
               a(1) = (   1.000000   0.000000   0.000000 )  
               a(2) = (   0.000000   0.999087   0.000000 )  
               a(3) = (   0.000000   0.000000   4.378852 )  

     reciprocal axes: (cart. coord. in units 2 pi/alat)
               b(1) = (  1.000000  0.000000  0.000000 )  
               b(2) = (  0.000000  1.000914  0.000000 )  
               b(3) = (  0.000000  0.000000  0.228370 )  


     PseudoPot. # 1 for In read from file:
     ./In.pbe-dn-kjpaw_psl.1.0.0.UPF
     MD5 check sum: 235b15e6a7fdfd96486e0ecdcb5b12c6
     Pseudo is Projector augmented-wave + core cor, Zval = 13.0
     Generated using &quot;atomic&quot; code by A. Dal Corso  v.6.3
     Shape of augmentation charge: PSQ
     Using radial grid of 1241 points,  6 beta functions with: 
                l(1) =   0
                l(2) =   0
                l(3) =   1
                l(4) =   1
                l(5) =   2
                l(6) =   2
     Q(r) pseudized with 0 coefficients 


     PseudoPot. # 2 for O  read from file:
     ./O.pbe-n-kjpaw_psl.1.0.0.UPF
     MD5 check sum: e99d9cef9b487d1ca56f5b95ecd0fd7a
     Pseudo is Projector augmented-wave + core cor, Zval =  6.0
     Generated using &quot;atomic&quot; code by A. Dal Corso  v.6.3
     Shape of augmentation charge: PSQ
     Using radial grid of 1095 points,  4 beta functions with: 
                l(1) =   0
                l(2) =   0
                l(3) =   1
                l(4) =   1
     Q(r) pseudized with 0 coefficients 


     PseudoPot. # 3 for H  read from file:
     ./H.pbe-kjpaw_psl.1.0.0.UPF
     MD5 check sum: d81a744832360e4a8af0b0b5b123bc2a
     Pseudo is Projector augmented-wave, Zval =  1.0
     Generated using &quot;atomic&quot; code by A. Dal Corso  v.6.3MaX
     Shape of augmentation charge: PSQ
     Using radial grid of  929 points,  2 beta functions with: 
                l(1) =   0
                l(2) =   0
     Q(r) pseudized with 0 coefficients 


     atomic species   valence    mass     pseudopotential
     In               13.00   114.81800     In( 1.00)
     O                 6.00    15.99900     O ( 1.00)
     H                 1.00     1.00800     H ( 1.00)

      8 Sym. Ops., with inversion, found ( 6 have fractional translation)


                                    s                        frac. trans.

      isym =  1     identity                                     

 cryst.   s( 1) = (     1          0          0      )
                  (     0          1          0      )
                  (     0          0          1      )

 cart.    s( 1) = (  1.0000000  0.0000000  0.0000000 )
                  (  0.0000000  1.0000000  0.0000000 )
                  (  0.0000000  0.0000000  1.0000000 )


      isym =  2     180 deg rotation - cart. axis [0,0,1]        

 cryst.   s( 2) = (    -1          0          0      )    f =(  0.0000000 )
                  (     0         -1          0      )       (  0.5000000 )
                  (     0          0          1      )       (  0.0000000 )

 cart.    s( 2) = ( -1.0000000  0.0000000  0.0000000 )    f =(  0.0000000 )
                  (  0.0000000 -1.0000000  0.0000000 )       (  0.4995433 )
                  (  0.0000000  0.0000000  1.0000000 )       (  0.0000000 )


      isym =  3     180 deg rotation - cart. axis [0,1,0]        

 cryst.   s( 3) = (    -1          0          0      )    f =(  0.5000000 )
                  (     0          1          0      )       (  0.0000000 )
                  (     0          0         -1      )       (  0.0000000 )

 cart.    s( 3) = ( -1.0000000  0.0000000  0.0000000 )    f =(  0.5000000 )
                  (  0.0000000  1.0000000  0.0000000 )       (  0.0000000 )
                  (  0.0000000  0.0000000 -1.0000000 )       (  0.0000000 )


      isym =  4     180 deg rotation - cart. axis [1,0,0]        

 cryst.   s( 4) = (     1          0          0      )    f =( -0.5000000 )
                  (     0         -1          0      )       (  0.5000000 )
                  (     0          0         -1      )       (  0.0000000 )

 cart.    s( 4) = (  1.0000000  0.0000000  0.0000000 )    f =( -0.5000000 )
                  (  0.0000000 -1.0000000  0.0000000 )       (  0.4995433 )
                  (  0.0000000  0.0000000 -1.0000000 )       (  0.0000000 )


      isym =  5     inversion                                    

 cryst.   s( 5) = (    -1          0          0      )
                  (     0         -1          0      )
                  (     0          0         -1      )

 cart.    s( 5) = ( -1.0000000  0.0000000  0.0000000 )
                  (  0.0000000 -1.0000000  0.0000000 )
                  (  0.0000000  0.0000000 -1.0000000 )


      isym =  6     inv. 180 deg rotation - cart. axis [0,0,1]   

 cryst.   s( 6) = (     1          0          0      )    f =(  0.0000000 )
                  (     0          1          0      )       (  0.5000000 )
                  (     0          0         -1      )       (  0.0000000 )

 cart.    s( 6) = (  1.0000000  0.0000000  0.0000000 )    f =(  0.0000000 )
                  (  0.0000000  1.0000000  0.0000000 )       (  0.4995433 )
                  (  0.0000000  0.0000000 -1.0000000 )       (  0.0000000 )


      isym =  7     inv. 180 deg rotation - cart. axis [0,1,0]   

 cryst.   s( 7) = (     1          0          0      )    f =( -0.5000000 )
                  (     0         -1          0      )       (  0.0000000 )
                  (     0          0          1      )       (  0.0000000 )

 cart.    s( 7) = (  1.0000000  0.0000000  0.0000000 )    f =( -0.5000000 )
                  (  0.0000000 -1.0000000  0.0000000 )       (  0.0000000 )
                  (  0.0000000  0.0000000  1.0000000 )       (  0.0000000 )


      isym =  8     inv. 180 deg rotation - cart. axis [1,0,0]   

 cryst.   s( 8) = (    -1          0          0      )    f =(  0.5000000 )
                  (     0          1          0      )       (  0.5000000 )
                  (     0          0          1      )       (  0.0000000 )

 cart.    s( 8) = ( -1.0000000  0.0000000  0.0000000 )    f =(  0.5000000 )
                  (  0.0000000  1.0000000  0.0000000 )       (  0.4995433 )
                  (  0.0000000  0.0000000  1.0000000 )       (  0.0000000 )


   Cartesian axes

     site n.     atom                  positions (alat units)
         1        In     tau(   1) = (   0.2475443   0.2523154   1.4389793  )
         2        In     tau(   2) = (   0.7524557   0.2472279   1.4389793  )
         3        In     tau(   3) = (   0.2502748   0.2498150   1.9394110  )
         4        In     tau(   4) = (   0.2524557   0.7518587   1.4389793  )
         5        In     tau(   5) = (   0.4664954   0.4994667   1.9392039  )
         6        In     tau(   6) = (   0.0359158   0.5019578   1.4401297  )
         7        In     tau(   7) = (   0.7512482   0.4650386   1.6891257  )
         8        In     tau(   8) = (   0.2487518   0.0345047   1.6891257  )
         9        In     tau(   9) = (   0.5000000   0.7493149   1.6564928  )
        10        In     tau(  10) = (   0.0335046  -0.0000766   1.9392039  )
        11        In     tau(  11) = (   0.4640842   0.0024146   1.4401297  )
        12        In     tau(  12) = (   0.0000000   0.2497716   1.6564928  )
        13        O      tau(  13) = (   0.3890697   0.1563764   1.5691308  )
        14        O      tau(  14) = (   0.6109303   0.3431669   1.5691308  )
        15        O      tau(  15) = (   0.1103649   0.1547804   1.8080425  )
        16        O      tau(  16) = (   0.8896351   0.3447628   1.8080425  )
        17        O      tau(  17) = (   0.3810388   0.3935568   1.3438360  )
        18        O      tau(  18) = (   0.3837086   0.6098315   1.5364709  )
        19        O      tau(  19) = (   0.6189612   0.1059864   1.3438360  )
        20        O      tau(  20) = (   0.6162914   0.8887983   1.5364709  )
        21        O      tau(  21) = (   0.1548955   0.3830323   1.5805003  )
        22        O      tau(  22) = (   0.3460904   0.3819793   1.7995751  )
        23        O      tau(  23) = (   0.1837587   0.6023891   1.3068008  )
        24        O      tau(  24) = (   0.3455844   0.6172116   2.0791801  )
        25        O      tau(  25) = (   0.0990545   0.3423072   1.3161241  )
        26        O      tau(  26) = (   0.9009455   0.1572361   1.3161241  )
        27        O      tau(  27) = (   0.3898594   0.3452283   2.0715524  )
        28        O      tau(  28) = (   0.6101406   0.1543150   2.0715524  )
        29        O      tau(  29) = (   0.1162914   0.1102882   1.5364709  )
        30        O      tau(  30) = (   0.1189612   0.8931001   1.3438360  )
        31        O      tau(  31) = (   0.8837086   0.3892551   1.5364709  )
        32        O      tau(  32) = (   0.8810388   0.6055297   1.3438360  )
        33        O      tau(  33) = (   0.3162413   0.1028458   1.3068008  )
        34        O      tau(  34) = (   0.1544156   0.1176683   2.0791801  )
        35        O      tau(  35) = (   0.3451045   0.8825755   1.5805003  )
        36        O      tau(  36) = (   0.1539096   0.8815226   1.7995751  )
        37        In     tau(  37) = (   0.7502748   0.7492716   1.9394110  )
        38        In     tau(  38) = (   0.2497252   0.7493582   1.9394110  )
        39        In     tau(  39) = (   0.7475443   0.7467711   1.4389793  )
        40        In     tau(  40) = (   0.7497252   0.2497283   1.9394110  )
        41        In     tau(  41) = (   0.9640842  -0.0024146   1.4401297  )
        42        In     tau(  42) = (   0.5335046   0.0000766   1.9392039  )
        43        In     tau(  43) = (   0.0000000   0.2497716   2.1557213  )
        44        In     tau(  44) = (   0.0000000   0.7493149   1.7222710  )
        45        In     tau(  45) = (   0.5359158   0.4971287   1.4401297  )
        46        In     tau(  46) = (   0.9664954   0.4996198   1.9392039  )
        47        In     tau(  47) = (   0.2512482   0.5340479   1.6891257  )
        48        In     tau(  48) = (   0.7487518   0.9645819   1.6891257  )
        49        In     tau(  49) = (   0.5000000   0.2497716   1.7222710  )
        50        In     tau(  50) = (   0.5000000   0.7493149   2.1557213  )
        51        O      tau(  51) = (   0.8898594   0.6538583   2.0715524  )
        52        O      tau(  52) = (   0.1101406   0.8447716   2.0715524  )
        53        O      tau(  53) = (   0.5990545   0.6567794   1.3161241  )
        54        O      tau(  54) = (   0.4009455   0.8418504   1.3161241  )
        55        O      tau(  55) = (   0.8822894   0.8888322   1.8422341  )
        56        O      tau(  56) = (   0.8821677   0.1098284   2.0351332  )
        57        O      tau(  57) = (   0.1177106   0.6097976   1.8422341  )
        58        O      tau(  58) = (   0.1178323   0.3897149   2.0351332  )
        59        O      tau(  59) = (   0.6544156   0.8814183   2.0791801  )
        60        O      tau(  60) = (   0.8162413   0.8962407   1.3068008  )
        61        O      tau(  61) = (   0.6539096   0.1175639   1.7995751  )
        62        O      tau(  62) = (   0.8451045   0.1165110   1.5805003  )
        63        O      tau(  63) = (   0.6103649   0.8443061   1.8080425  )
        64        O      tau(  64) = (   0.3896351   0.6543237   1.8080425  )
        65        O      tau(  65) = (   0.8890697   0.8427101   1.5691308  )
        66        O      tau(  66) = (   0.1109303   0.6559197   1.5691308  )
        67        O      tau(  67) = (   0.6178323   0.6093716   2.0351332  )
        68        O      tau(  68) = (   0.6177106   0.3892890   1.8422341  )
        69        O      tau(  69) = (   0.3821677   0.8892582   2.0351332  )
        70        O      tau(  70) = (   0.3822894   0.1102543   1.8422341  )
        71        O      tau(  71) = (   0.8460904   0.6171072   1.7995751  )
        72        O      tau(  72) = (   0.6548955   0.6160543   1.5805003  )
        73        O      tau(  73) = (   0.8455844   0.3818750   2.0791801  )
        74        O      tau(  74) = (   0.6837587   0.3966974   1.3068008  )
        75        In     tau(  75) = (   0.2497252   0.2498150   2.4394411  )
        76        In     tau(  76) = (   0.7502748   0.2497283   2.4394411  )
        77        In     tau(  77) = (   0.2524557   0.2523154   2.9398727  )
        78        In     tau(  78) = (   0.2502748   0.7493582   2.4394411  )
        79        In     tau(  79) = (   0.4640842   0.5019578   2.9387223  )
        80        In     tau(  80) = (   0.0335046   0.4994667   2.4396481  )
        81        In     tau(  81) = (   0.7487518   0.4650386   2.6897264  )
        82        In     tau(  82) = (   0.2512482   0.0345047   2.6897264  )
        83        In     tau(  83) = (   0.5000000   0.7493149   2.6565810  )
        84        In     tau(  84) = (   0.5000000   0.2497716   2.2231307  )
        85        In     tau(  85) = (   0.0359158   0.0024146   2.9387223  )
        86        In     tau(  86) = (   0.4664954  -0.0000766   2.4396481  )
        87        In     tau(  87) = (   0.7500000   0.0334062   2.1894260  )
        88        In     tau(  88) = (   0.2500000   0.4661371   2.1894260  )
        89        In     tau(  89) = (   0.0000000   0.7493149   2.2231307  )
        90        In     tau(  90) = (   0.0000000   0.2497716   2.6565810  )
        91        O      tau(  91) = (   0.3896351   0.1547804   2.5708096  )
        92        O      tau(  92) = (   0.6103649   0.3447628   2.5708096  )
        93        O      tau(  93) = (   0.1109303   0.1563764   2.8097212  )
        94        O      tau(  94) = (   0.8890697   0.3431669   2.8097212  )
        95        O      tau(  95) = (   0.3821677   0.3897149   2.3437188  )
        96        O      tau(  96) = (   0.3822894   0.6097976   2.5366180  )
        97        O      tau(  97) = (   0.6178323   0.1098284   2.3437188  )
        98        O      tau(  98) = (   0.6177106   0.8888322   2.5366180  )
        99        O      tau(  99) = (   0.1539096   0.3819793   2.5792770  )
       100        O      tau( 100) = (   0.3451045   0.3830323   2.7983517  )
       101        O      tau( 101) = (   0.1544156   0.6172116   2.2996719  )
       102        O      tau( 102) = (   0.3162413   0.6023891   3.0720512  )
       103        O      tau( 103) = (   0.1101406   0.3452283   2.3072996  )
       104        O      tau( 104) = (   0.8898594   0.1543150   2.3072996  )
       105        O      tau( 105) = (   0.4009455   0.3423072   3.0627280  )
       106        O      tau( 106) = (   0.5990545   0.1572361   3.0627280  )
       107        O      tau( 107) = (   0.1177106   0.1102543   2.5366180  )
       108        O      tau( 108) = (   0.1178323   0.8892582   2.3437188  )
       109        O      tau( 109) = (   0.8822894   0.3892890   2.5366180  )
       110        O      tau( 110) = (   0.8821677   0.6093716   2.3437188  )
       111        O      tau( 111) = (   0.3455844   0.1176683   2.2996719  )
       112        O      tau( 112) = (   0.1837587   0.1028458   3.0720512  )
       113        O      tau( 113) = (   0.3460904   0.8815226   2.5792770  )
       114        O      tau( 114) = (   0.1548955   0.8825755   2.7983517  )
       115        In     tau( 115) = (   0.7524557   0.7467711   2.9398727  )
       116        In     tau( 116) = (   0.2475443   0.7518587   2.9398727  )
       117        In     tau( 117) = (   0.7497252   0.7492716   2.4394411  )
       118        In     tau( 118) = (   0.7475443   0.2472279   2.9398727  )
       119        In     tau( 119) = (   0.9664954   0.0000766   2.4396481  )
       120        In     tau( 120) = (   0.5359158  -0.0024146   2.9387223  )
       121        In     tau( 121) = (   0.2500000   0.9656804   2.1894260  )
       122        In     tau( 122) = (   0.7500000   0.5329494   2.1894260  )
       123        In     tau( 123) = (   0.0000000   0.7493149   2.7223593  )
       124        In     tau( 124) = (   0.5335046   0.4996198   2.4396481  )
       125        In     tau( 125) = (   0.9640842   0.4971287   2.9387223  )
       126        In     tau( 126) = (   0.2487518   0.5340479   2.6897264  )
       127        In     tau( 127) = (   0.7512482   0.9645819   2.6897264  )
       128        In     tau( 128) = (   0.5000000   0.2497716   2.7223593  )
       129        O      tau( 129) = (   0.9009455   0.6567794   3.0627280  )
       130        O      tau( 130) = (   0.0990545   0.8418504   3.0627280  )
       131        O      tau( 131) = (   0.6101406   0.6538583   2.3072996  )
       132        O      tau( 132) = (   0.3898594   0.8447716   2.3072996  )
       133        O      tau( 133) = (   0.8837086   0.8887983   2.8423812  )
       134        O      tau( 134) = (   0.8810388   0.1059864   3.0350160  )
       135        O      tau( 135) = (   0.1162914   0.6098315   2.8423812  )
       136        O      tau( 136) = (   0.1189612   0.3935568   3.0350160  )
       137        O      tau( 137) = (   0.6837587   0.8962407   3.0720512  )
       138        O      tau( 138) = (   0.8455844   0.8814183   2.2996719  )
       139        O      tau( 139) = (   0.6548955   0.1165110   2.7983517  )
       140        O      tau( 140) = (   0.8460904   0.1175639   2.5792770  )
       141        O      tau( 141) = (   0.6109303   0.8427101   2.8097212  )
       142        O      tau( 142) = (   0.3890697   0.6559197   2.8097212  )
       143        O      tau( 143) = (   0.8896351   0.8443061   2.5708096  )
       144        O      tau( 144) = (   0.1103649   0.6543237   2.5708096  )
       145        O      tau( 145) = (   0.6189612   0.6055297   3.0350160  )
       146        O      tau( 146) = (   0.6162914   0.3892551   2.8423812  )
       147        O      tau( 147) = (   0.3810388   0.8931001   3.0350160  )
       148        O      tau( 148) = (   0.3837086   0.1102882   2.8423812  )
       149        O      tau( 149) = (   0.8451045   0.6160543   2.7983517  )
       150        O      tau( 150) = (   0.6539096   0.6171072   2.5792770  )
       151        O      tau( 151) = (   0.8162413   0.3966974   3.0720512  )
       152        O      tau( 152) = (   0.6544156   0.3818750   2.2996719  )
       153        H      tau( 153) = (   0.3222976   0.4631522   1.3149352  )
       154        H      tau( 154) = (   0.6777024   0.0363910   1.3149352  )
       155        H      tau( 155) = (   0.1357120   0.6463843   1.2384941  )
       156        H      tau( 156) = (   0.1377726   0.3795544   1.2387193  )
       157        H      tau( 157) = (   0.8622274   0.1199888   1.2387193  )
       158        H      tau( 158) = (   0.1777024   0.9626955   1.3149352  )
       159        H      tau( 159) = (   0.8222976   0.5359343   1.3149352  )
       160        H      tau( 160) = (   0.3642880   0.1468410   1.2384941  )
       161        H      tau( 161) = (   0.6377726   0.6195321   1.2387193  )
       162        H      tau( 162) = (   0.3622274   0.8790977   1.2387193  )
       163        H      tau( 163) = (   0.8642880   0.8522455   1.2384941  )
       164        H      tau( 164) = (   0.6357120   0.3527022   1.2384941  )
       165        H      tau( 165) = (   0.3642880   0.6463843   3.1403579  )
       166        H      tau( 166) = (   0.3622274   0.3795544   3.1401328  )
       167        H      tau( 167) = (   0.6377726   0.1199888   3.1401328  )
       168        H      tau( 168) = (   0.1357120   0.1468410   3.1403579  )
       169        H      tau( 169) = (   0.8622274   0.6195321   3.1401328  )
       170        H      tau( 170) = (   0.1377726   0.8790977   3.1401328  )
       171        H      tau( 171) = (   0.8222976   0.0363910   3.0639169  )
       172        H      tau( 172) = (   0.1777024   0.4631522   3.0639169  )
       173        H      tau( 173) = (   0.6357120   0.8522455   3.1403579  )
       174        H      tau( 174) = (   0.6777024   0.5359343   3.0639169  )
       175        H      tau( 175) = (   0.3222976   0.9626955   3.0639169  )
       176        H      tau( 176) = (   0.8642880   0.3527022   3.1403579  )

   Crystallographic axes

     site n.     atom                  positions (cryst. coord.)
         1        In     tau(   1) = (  0.2475443  0.2525461  0.3286202  )
         2        In     tau(   2) = (  0.7524557  0.2474539  0.3286202  )
         3        In     tau(   3) = (  0.2502748  0.2500434  0.4429040  )
         4        In     tau(   4) = (  0.2524557  0.7525461  0.3286202  )
         5        In     tau(   5) = (  0.4664954  0.4999234  0.4428567  )
         6        In     tau(   6) = (  0.0359158  0.5024168  0.3288829  )
         7        In     tau(   7) = (  0.7512482  0.4654638  0.3857462  )
         8        In     tau(   8) = (  0.2487518  0.0345362  0.3857462  )
         9        In     tau(   9) = (  0.5000000  0.7500000  0.3782939  )
        10        In     tau(  10) = (  0.0335046 -0.0000766  0.4428567  )
        11        In     tau(  11) = (  0.4640842  0.0024168  0.3288829  )
        12        In     tau(  12) = (  0.0000000  0.2500000  0.3782939  )
        13        O      tau(  13) = (  0.3890697  0.1565194  0.3583430  )
        14        O      tau(  14) = (  0.6109303  0.3434806  0.3583430  )
        15        O      tau(  15) = (  0.1103649  0.1549220  0.4129033  )
        16        O      tau(  16) = (  0.8896351  0.3450780  0.4129033  )
        17        O      tau(  17) = (  0.3810388  0.3939167  0.3068923  )
        18        O      tau(  18) = (  0.3837086  0.6103890  0.3508844  )
        19        O      tau(  19) = (  0.6189612  0.1060833  0.3068923  )
        20        O      tau(  20) = (  0.6162914  0.8896110  0.3508844  )
        21        O      tau(  21) = (  0.1548955  0.3833825  0.3609394  )
        22        O      tau(  22) = (  0.3460904  0.3823286  0.4109696  )
        23        O      tau(  23) = (  0.1837587  0.6029399  0.2984346  )
        24        O      tau(  24) = (  0.3455844  0.6177759  0.4748231  )
        25        O      tau(  25) = (  0.0990545  0.3426201  0.3005637  )
        26        O      tau(  26) = (  0.9009455  0.1573799  0.3005637  )
        27        O      tau(  27) = (  0.3898594  0.3455439  0.4730812  )
        28        O      tau(  28) = (  0.6101406  0.1544561  0.4730812  )
        29        O      tau(  29) = (  0.1162914  0.1103890  0.3508844  )
        30        O      tau(  30) = (  0.1189612  0.8939167  0.3068923  )
        31        O      tau(  31) = (  0.8837086  0.3896110  0.3508844  )
        32        O      tau(  32) = (  0.8810388  0.6060833  0.3068923  )
        33        O      tau(  33) = (  0.3162413  0.1029399  0.2984346  )
        34        O      tau(  34) = (  0.1544156  0.1177759  0.4748231  )
        35        O      tau(  35) = (  0.3451045  0.8833825  0.3609394  )
        36        O      tau(  36) = (  0.1539096  0.8823286  0.4109696  )
        37        In     tau(  37) = (  0.7502748  0.7499566  0.4429040  )
        38        In     tau(  38) = (  0.2497252  0.7500434  0.4429040  )
        39        In     tau(  39) = (  0.7475443  0.7474539  0.3286202  )
        40        In     tau(  40) = (  0.7497252  0.2499566  0.4429040  )
        41        In     tau(  41) = (  0.9640842 -0.0024168  0.3288829  )
        42        In     tau(  42) = (  0.5335046  0.0000766  0.4428567  )
        43        In     tau(  43) = (  0.0000000  0.2500000  0.4923028  )
        44        In     tau(  44) = (  0.0000000  0.7500000  0.3933156  )
        45        In     tau(  45) = (  0.5359158  0.4975832  0.3288829  )
        46        In     tau(  46) = (  0.9664954  0.5000766  0.4428567  )
        47        In     tau(  47) = (  0.2512482  0.5345362  0.3857462  )
        48        In     tau(  48) = (  0.7487518  0.9654638  0.3857462  )
        49        In     tau(  49) = (  0.5000000  0.2500000  0.3933156  )
        50        In     tau(  50) = (  0.5000000  0.7500000  0.4923028  )
        51        O      tau(  51) = (  0.8898594  0.6544561  0.4730812  )
        52        O      tau(  52) = (  0.1101406  0.8455439  0.4730812  )
        53        O      tau(  53) = (  0.5990545  0.6573799  0.3005637  )
        54        O      tau(  54) = (  0.4009455  0.8426201  0.3005637  )
        55        O      tau(  55) = (  0.8822894  0.8896449  0.4207116  )
        56        O      tau(  56) = (  0.8821677  0.1099288  0.4647641  )
        57        O      tau(  57) = (  0.1177106  0.6103551  0.4207116  )
        58        O      tau(  58) = (  0.1178323  0.3900712  0.4647641  )
        59        O      tau(  59) = (  0.6544156  0.8822241  0.4748231  )
        60        O      tau(  60) = (  0.8162413  0.8970601  0.2984346  )
        61        O      tau(  61) = (  0.6539096  0.1176714  0.4109696  )
        62        O      tau(  62) = (  0.8451045  0.1166175  0.3609394  )
        63        O      tau(  63) = (  0.6103649  0.8450780  0.4129033  )
        64        O      tau(  64) = (  0.3896351  0.6549220  0.4129033  )
        65        O      tau(  65) = (  0.8890697  0.8434806  0.3583430  )
        66        O      tau(  66) = (  0.1109303  0.6565194  0.3583430  )
        67        O      tau(  67) = (  0.6178323  0.6099288  0.4647641  )
        68        O      tau(  68) = (  0.6177106  0.3896449  0.4207116  )
        69        O      tau(  69) = (  0.3821677  0.8900712  0.4647641  )
        70        O      tau(  70) = (  0.3822894  0.1103551  0.4207116  )
        71        O      tau(  71) = (  0.8460904  0.6176714  0.4109696  )
        72        O      tau(  72) = (  0.6548955  0.6166175  0.3609394  )
        73        O      tau(  73) = (  0.8455844  0.3822241  0.4748231  )
        74        O      tau(  74) = (  0.6837587  0.3970601  0.2984346  )
        75        In     tau(  75) = (  0.2497252  0.2500434  0.5570960  )
        76        In     tau(  76) = (  0.7502748  0.2499566  0.5570960  )
        77        In     tau(  77) = (  0.2524557  0.2525461  0.6713798  )
        78        In     tau(  78) = (  0.2502748  0.7500434  0.5570960  )
        79        In     tau(  79) = (  0.4640842  0.5024168  0.6711171  )
        80        In     tau(  80) = (  0.0335046  0.4999234  0.5571433  )
        81        In     tau(  81) = (  0.7487518  0.4654638  0.6142538  )
        82        In     tau(  82) = (  0.2512482  0.0345362  0.6142538  )
        83        In     tau(  83) = (  0.5000000  0.7500000  0.6066844  )
        84        In     tau(  84) = (  0.5000000  0.2500000  0.5076972  )
        85        In     tau(  85) = (  0.0359158  0.0024168  0.6711171  )
        86        In     tau(  86) = (  0.4664954 -0.0000766  0.5571433  )
        87        In     tau(  87) = (  0.7500000  0.0334367  0.5000000  )
        88        In     tau(  88) = (  0.2500000  0.4665633  0.5000000  )
        89        In     tau(  89) = (  0.0000000  0.7500000  0.5076972  )
        90        In     tau(  90) = (  0.0000000  0.2500000  0.6066844  )
        91        O      tau(  91) = (  0.3896351  0.1549220  0.5870967  )
        92        O      tau(  92) = (  0.6103649  0.3450780  0.5870967  )
        93        O      tau(  93) = (  0.1109303  0.1565194  0.6416570  )
        94        O      tau(  94) = (  0.8890697  0.3434806  0.6416570  )
        95        O      tau(  95) = (  0.3821677  0.3900712  0.5352359  )
        96        O      tau(  96) = (  0.3822894  0.6103551  0.5792884  )
        97        O      tau(  97) = (  0.6178323  0.1099288  0.5352359  )
        98        O      tau(  98) = (  0.6177106  0.8896449  0.5792884  )
        99        O      tau(  99) = (  0.1539096  0.3823286  0.5890304  )
       100        O      tau( 100) = (  0.3451045  0.3833825  0.6390606  )
       101        O      tau( 101) = (  0.1544156  0.6177759  0.5251769  )
       102        O      tau( 102) = (  0.3162413  0.6029399  0.7015654  )
       103        O      tau( 103) = (  0.1101406  0.3455439  0.5269188  )
       104        O      tau( 104) = (  0.8898594  0.1544561  0.5269188  )
       105        O      tau( 105) = (  0.4009455  0.3426201  0.6994363  )
       106        O      tau( 106) = (  0.5990545  0.1573799  0.6994363  )
       107        O      tau( 107) = (  0.1177106  0.1103551  0.5792884  )
       108        O      tau( 108) = (  0.1178323  0.8900712  0.5352359  )
       109        O      tau( 109) = (  0.8822894  0.3896449  0.5792884  )
       110        O      tau( 110) = (  0.8821677  0.6099288  0.5352359  )
       111        O      tau( 111) = (  0.3455844  0.1177759  0.5251769  )
       112        O      tau( 112) = (  0.1837587  0.1029399  0.7015654  )
       113        O      tau( 113) = (  0.3460904  0.8823286  0.5890304  )
       114        O      tau( 114) = (  0.1548955  0.8833825  0.6390606  )
       115        In     tau( 115) = (  0.7524557  0.7474539  0.6713798  )
       116        In     tau( 116) = (  0.2475443  0.7525461  0.6713798  )
       117        In     tau( 117) = (  0.7497252  0.7499566  0.5570960  )
       118        In     tau( 118) = (  0.7475443  0.2474539  0.6713798  )
       119        In     tau( 119) = (  0.9664954  0.0000766  0.5571433  )
       120        In     tau( 120) = (  0.5359158 -0.0024168  0.6711171  )
       121        In     tau( 121) = (  0.2500000  0.9665633  0.5000000  )
       122        In     tau( 122) = (  0.7500000  0.5334367  0.5000000  )
       123        In     tau( 123) = (  0.0000000  0.7500000  0.6217061  )
       124        In     tau( 124) = (  0.5335046  0.5000766  0.5571433  )
       125        In     tau( 125) = (  0.9640842  0.4975832  0.6711171  )
       126        In     tau( 126) = (  0.2487518  0.5345362  0.6142538  )
       127        In     tau( 127) = (  0.7512482  0.9654638  0.6142538  )
       128        In     tau( 128) = (  0.5000000  0.2500000  0.6217061  )
       129        O      tau( 129) = (  0.9009455  0.6573799  0.6994363  )
       130        O      tau( 130) = (  0.0990545  0.8426201  0.6994363  )
       131        O      tau( 131) = (  0.6101406  0.6544561  0.5269188  )
       132        O      tau( 132) = (  0.3898594  0.8455439  0.5269188  )
       133        O      tau( 133) = (  0.8837086  0.8896110  0.6491156  )
       134        O      tau( 134) = (  0.8810388  0.1060833  0.6931077  )
       135        O      tau( 135) = (  0.1162914  0.6103890  0.6491156  )
       136        O      tau( 136) = (  0.1189612  0.3939167  0.6931077  )
       137        O      tau( 137) = (  0.6837587  0.8970601  0.7015654  )
       138        O      tau( 138) = (  0.8455844  0.8822241  0.5251769  )
       139        O      tau( 139) = (  0.6548955  0.1166175  0.6390606  )
       140        O      tau( 140) = (  0.8460904  0.1176714  0.5890304  )
       141        O      tau( 141) = (  0.6109303  0.8434806  0.6416570  )
       142        O      tau( 142) = (  0.3890697  0.6565194  0.6416570  )
       143        O      tau( 143) = (  0.8896351  0.8450780  0.5870967  )
       144        O      tau( 144) = (  0.1103649  0.6549220  0.5870967  )
       145        O      tau( 145) = (  0.6189612  0.6060833  0.6931077  )
       146        O      tau( 146) = (  0.6162914  0.3896110  0.6491156  )
       147        O      tau( 147) = (  0.3810388  0.8939167  0.6931077  )
       148        O      tau( 148) = (  0.3837086  0.1103890  0.6491156  )
       149        O      tau( 149) = (  0.8451045  0.6166175  0.6390606  )
       150        O      tau( 150) = (  0.6539096  0.6176714  0.5890304  )
       151        O      tau( 151) = (  0.8162413  0.3970601  0.7015654  )
       152        O      tau( 152) = (  0.6544156  0.3822241  0.5251769  )
       153        H      tau( 153) = (  0.3222976  0.4635757  0.3002922  )
       154        H      tau( 154) = (  0.6777024  0.0364243  0.3002922  )
       155        H      tau( 155) = (  0.1357120  0.6469753  0.2828353  )
       156        H      tau( 156) = (  0.1377726  0.3799015  0.2828868  )
       157        H      tau( 157) = (  0.8622274  0.1200985  0.2828868  )
       158        H      tau( 158) = (  0.1777024  0.9635757  0.3002922  )
       159        H      tau( 159) = (  0.8222976  0.5364243  0.3002922  )
       160        H      tau( 160) = (  0.3642880  0.1469753  0.2828353  )
       161        H      tau( 161) = (  0.6377726  0.6200985  0.2828868  )
       162        H      tau( 162) = (  0.3622274  0.8799015  0.2828868  )
       163        H      tau( 163) = (  0.8642880  0.8530247  0.2828353  )
       164        H      tau( 164) = (  0.6357120  0.3530247  0.2828353  )
       165        H      tau( 165) = (  0.3642880  0.6469753  0.7171647  )
       166        H      tau( 166) = (  0.3622274  0.3799015  0.7171132  )
       167        H      tau( 167) = (  0.6377726  0.1200985  0.7171132  )
       168        H      tau( 168) = (  0.1357120  0.1469753  0.7171647  )
       169        H      tau( 169) = (  0.8622274  0.6200985  0.7171132  )
       170        H      tau( 170) = (  0.1377726  0.8799015  0.7171132  )
       171        H      tau( 171) = (  0.8222976  0.0364243  0.6997078  )
       172        H      tau( 172) = (  0.1777024  0.4635757  0.6997078  )
       173        H      tau( 173) = (  0.6357120  0.8530247  0.7171647  )
       174        H      tau( 174) = (  0.6777024  0.5364243  0.6997078  )
       175        H      tau( 175) = (  0.3222976  0.9635757  0.6997078  )
       176        H      tau( 176) = (  0.8642880  0.3530247  0.7171647  )

     number of k points=     4
                       cart. coord. in units 2pi/alat
        k(    1) = (   0.0000000   0.0000000   0.0000000), wk =   0.2222222
        k(    2) = (   0.0000000   0.3336381   0.0000000), wk =   0.4444444
        k(    3) = (   0.3333333   0.0000000   0.0000000), wk =   0.4444444
        k(    4) = (   0.3333333   0.3336381   0.0000000), wk =   0.8888889

                       cryst. coord.
        k(    1) = (   0.0000000   0.0000000   0.0000000), wk =   0.2222222
        k(    2) = (   0.0000000   0.3333333   0.0000000), wk =   0.4444444
        k(    3) = (   0.3333333   0.0000000   0.0000000), wk =   0.4444444
        k(    4) = (   0.3333333   0.3333333   0.0000000), wk =   0.8888889

     Dense  grid:  7413139 G-vectors     FFT dimensions: ( 150, 150, 648)

     Smooth grid:  2620949 G-vectors     FFT dimensions: ( 108, 108, 480)

     Dynamical RAM for                 wfc:    3399.40 MB

     Dynamical RAM for     wfc (w. buffer):   16996.99 MB

     Dynamical RAM for           str. fact:     339.35 MB

     Dynamical RAM for           local pot:       0.00 MB

     Dynamical RAM for          nlocal pot:    9118.39 MB

     Dynamical RAM for                qrad:       5.74 MB

     Dynamical RAM for          rho,v,vnew:     673.06 MB

     Dynamical RAM for               rhoin:     224.35 MB

     Dynamical RAM for            rho*nmix:    1809.85 MB

     Dynamical RAM for           G-vectors:     444.18 MB

     Dynamical RAM for          h,s,v(r/c):      84.67 MB

     Dynamical RAM for          <psi|beta>:      18.93 MB

     Dynamical RAM for                 psi:    6798.80 MB

     Dynamical RAM for                hpsi:    6798.80 MB

     Dynamical RAM for                spsi:    6798.80 MB

     Dynamical RAM for      wfcinit/wfcrot:    9137.43 MB

     Dynamical RAM for           addusdens:   31898.58 MB

     Dynamical RAM for          addusforce:   53447.46 MB

     Dynamical RAM for         addusstress:   22736.22 MB

     Estimated static dynamical RAM per process >      28.14 GB

     Estimated max dynamical RAM per process >      82.10 GB

     Initial potential from superposition of free atoms

     starting charge    1327.7914, renormalised to    1328.0000

     negative rho (up, down):  1.715E-03 0.000E+00
     Starting wfcs are  912 randomized atomic wfcs
     Checking if some PAW data can be deallocated... 

     total cpu time spent up to now is       75.3 secs

     Self-consistent Calculation
[tb_dev] Currently allocated     7.82E+01 Mbytes, locked:    0 /   6
[tb_pin] Currently allocated     0.00E+00 Mbytes, locked:    0 /   0

     iteration #  1     ecut=    71.00 Ry     beta= 0.20
     Davidson diagonalization with overlap

---- Real-time Memory Report at c_bands before calling an iterative solver
         29850 MiB given to the printing process from OS
             0 MiB allocation reported by mallinfo(arena+hblkhd)
         78446 MiB available memory on the node where the printing process lives
     GPU memory used/free/total (MiB): 57980 / 37330 / 95311
------------------
     ethr =  1.00E-02,  avg # of iterations =  2.0

     negative rho (up, down):  4.696E-04 0.000E+00

     total cpu time spent up to now is      217.4 secs

     total energy              =  -27038.81530561 Ry
     estimated scf accuracy    <      46.75874362 Ry
[tb_dev] Currently allocated     1.34E-03 Mbytes, locked:    0 /   2
[tb_pin] Currently allocated     0.00E+00 Mbytes, locked:    0 /   0

     iteration #  2     ecut=    71.00 Ry     beta= 0.20
     Davidson diagonalization with overlap

---- Real-time Memory Report at c_bands before calling an iterative solver
         30379 MiB given to the printing process from OS
             0 MiB allocation reported by mallinfo(arena+hblkhd)
         79973 MiB available memory on the node where the printing process lives
     GPU memory used/free/total (MiB): 80092 / 15218 / 95311
------------------
     ethr =  3.52E-03,  avg # of iterations =  1.5

     negative rho (up, down):  1.327E-03 0.000E+00

     total cpu time spent up to now is      250.5 secs

     total energy              =  -27024.55848496 Ry
     estimated scf accuracy    <      30.20372744 Ry
[tb_dev] Currently allocated     1.34E-03 Mbytes, locked:    0 /   2
[tb_pin] Currently allocated     0.00E+00 Mbytes, locked:    0 /   0

     iteration #  3     ecut=    71.00 Ry     beta= 0.20
     Davidson diagonalization with overlap

---- Real-time Memory Report at c_bands before calling an iterative solver
         30448 MiB given to the printing process from OS
             0 MiB allocation reported by mallinfo(arena+hblkhd)
         79917 MiB available memory on the node where the printing process lives
     GPU memory used/free/total (MiB): 80092 / 15218 / 95311
------------------
     ethr =  2.27E-03,  avg # of iterations =  4.3

     negative rho (up, down):  4.002E-04 0.000E+00

     total cpu time spent up to now is      403.5 secs

     total energy              =  -27034.34494230 Ry
     estimated scf accuracy    <       1.42770200 Ry
[tb_dev] Currently allocated     1.34E-03 Mbytes, locked:    0 /   2
[tb_pin] Currently allocated     0.00E+00 Mbytes, locked:    0 /   0

     iteration #  4     ecut=    71.00 Ry     beta= 0.20
     Davidson diagonalization with overlap

---- Real-time Memory Report at c_bands before calling an iterative solver
         30570 MiB given to the printing process from OS
             0 MiB allocation reported by mallinfo(arena+hblkhd)
         79763 MiB available memory on the node where the printing process lives
     GPU memory used/free/total (MiB): 83430 / 11880 / 95311
------------------
     ethr =  1.08E-04,  avg # of iterations =  7.3

     negative rho (up, down):  5.981E-08 0.000E+00

     total cpu time spent up to now is      698.2 secs

     total energy              =  -27034.95163771 Ry
     estimated scf accuracy    <       2.59287463 Ry
[tb_dev] Currently allocated     1.34E-03 Mbytes, locked:    0 /   2
[tb_pin] Currently allocated     0.00E+00 Mbytes, locked:    0 /   0

     iteration #  5     ecut=    71.00 Ry     beta= 0.20
     Davidson diagonalization with overlap

---- Real-time Memory Report at c_bands before calling an iterative solver
         30611 MiB given to the printing process from OS
             0 MiB allocation reported by mallinfo(arena+hblkhd)
         79761 MiB available memory on the node where the printing process lives
     GPU memory used/free/total (MiB): 83432 / 11878 / 95311
------------------
     ethr =  1.08E-04,  avg # of iterations =  6.0

     negative rho (up, down):  4.628E-08 0.000E+00

     total cpu time spent up to now is      741.6 secs

     total energy              =  -27035.10877564 Ry
     estimated scf accuracy    <       8.47876224 Ry
[tb_dev] Currently allocated     1.34E-03 Mbytes, locked:    0 /   2
[tb_pin] Currently allocated     0.00E+00 Mbytes, locked:    0 /   0

     iteration #  6     ecut=    71.00 Ry     beta= 0.20
     Davidson diagonalization with overlap

---- Real-time Memory Report at c_bands before calling an iterative solver
         30761 MiB given to the printing process from OS
             0 MiB allocation reported by mallinfo(arena+hblkhd)
         79646 MiB available memory on the node where the printing process lives
     GPU memory used/free/total (MiB): 83432 / 11878 / 95311
------------------
     ethr =  1.08E-04,  avg # of iterations =  6.8

     total cpu time spent up to now is      781.0 secs

     total energy              =  -27035.46361822 Ry
     estimated scf accuracy    <       1.13800238 Ry
[tb_dev] Currently allocated     1.34E-03 Mbytes, locked:    0 /   2
[tb_pin] Currently allocated     0.00E+00 Mbytes, locked:    0 /   0

     iteration #  7     ecut=    71.00 Ry     beta= 0.20
     Davidson diagonalization with overlap

---- Real-time Memory Report at c_bands before calling an iterative solver
         30919 MiB given to the printing process from OS
             0 MiB allocation reported by mallinfo(arena+hblkhd)
         79604 MiB available memory on the node where the printing process lives
     GPU memory used/free/total (MiB): 83432 / 11878 / 95311
------------------
     ethr =  8.57E-05,  avg # of iterations =  4.3

     total cpu time spent up to now is      814.5 secs

     total energy              =  -27035.52659041 Ry
     estimated scf accuracy    <       0.37757150 Ry
[tb_dev] Currently allocated     1.34E-03 Mbytes, locked:    0 /   2
[tb_pin] Currently allocated     0.00E+00 Mbytes, locked:    0 /   0

     iteration #  8     ecut=    71.00 Ry     beta= 0.20
     Davidson diagonalization with overlap

---- Real-time Memory Report at c_bands before calling an iterative solver
         31079 MiB given to the printing process from OS
             0 MiB allocation reported by mallinfo(arena+hblkhd)
         78877 MiB available memory on the node where the printing process lives
     GPU memory used/free/total (MiB): 83432 / 11878 / 95311
------------------
     ethr =  2.84E-05,  avg # of iterations =  5.0

     total cpu time spent up to now is      861.3 secs

     total energy              =  -27035.68727513 Ry
     estimated scf accuracy    <       0.11103523 Ry
[tb_dev] Currently allocated     1.34E-03 Mbytes, locked:    0 /   2
[tb_pin] Currently allocated     0.00E+00 Mbytes, locked:    0 /   0

     iteration #  9     ecut=    71.00 Ry     beta= 0.20
     Davidson diagonalization with overlap

---- Real-time Memory Report at c_bands before calling an iterative solver
         31238 MiB given to the printing process from OS
             0 MiB allocation reported by mallinfo(arena+hblkhd)
         78375 MiB available memory on the node where the printing process lives
     GPU memory used/free/total (MiB): 83432 / 11878 / 95311
------------------
     ethr =  8.36E-06,  avg # of iterations =  2.0

     negative rho (up, down):  3.040E-05 0.000E+00

     total cpu time spent up to now is      894.3 secs

     total energy              =  -27035.70133342 Ry
     estimated scf accuracy    <       0.09447106 Ry
[tb_dev] Currently allocated     1.34E-03 Mbytes, locked:    0 /   2
[tb_pin] Currently allocated     0.00E+00 Mbytes, locked:    0 /   0

     iteration # 10     ecut=    71.00 Ry     beta= 0.20
     Davidson diagonalization with overlap

---- Real-time Memory Report at c_bands before calling an iterative solver
         31396 MiB given to the printing process from OS
             0 MiB allocation reported by mallinfo(arena+hblkhd)
         78268 MiB available memory on the node where the printing process lives
     GPU memory used/free/total (MiB): 83436 / 11874 / 95311
------------------
     ethr =  7.11E-06,  avg # of iterations =  5.0

     negative rho (up, down):  2.444E-02 0.000E+00

     total cpu time spent up to now is      930.1 secs

     total energy              =  -27035.71791572 Ry
     estimated scf accuracy    <       0.15531456 Ry
[tb_dev] Currently allocated     1.34E-03 Mbytes, locked:    0 /   2
[tb_pin] Currently allocated     0.00E+00 Mbytes, locked:    0 /   0

     iteration # 11     ecut=    71.00 Ry     beta= 0.20
     Davidson diagonalization with overlap

---- Real-time Memory Report at c_bands before calling an iterative solver
         31396 MiB given to the printing process from OS
             0 MiB allocation reported by mallinfo(arena+hblkhd)
         78335 MiB available memory on the node where the printing process lives
     GPU memory used/free/total (MiB): 83438 / 11872 / 95311
------------------
     c_bands:  1 eigenvalues not converged
     ethr =  7.11E-06,  avg # of iterations =  6.5

     negative rho (up, down):  1.162E-01 0.000E+00

     total cpu time spent up to now is      964.4 secs

     total energy              =  -27035.79750690 Ry
     estimated scf accuracy    <       0.15514417 Ry
[tb_dev] Currently allocated     1.34E-03 Mbytes, locked:    0 /   2
[tb_pin] Currently allocated     0.00E+00 Mbytes, locked:    0 /   0

     iteration # 12     ecut=    71.00 Ry     beta= 0.20
     Davidson diagonalization with overlap

---- Real-time Memory Report at c_bands before calling an iterative solver
         31396 MiB given to the printing process from OS
             0 MiB allocation reported by mallinfo(arena+hblkhd)
         78281 MiB available memory on the node where the printing process lives
     GPU memory used/free/total (MiB): 83438 / 11872 / 95311
------------------
     ethr =  7.11E-06,  avg # of iterations =  9.8

     negative rho (up, down):  1.060E-01 0.000E+00

     total cpu time spent up to now is     1005.0 secs

     total energy              =  -27035.88235440 Ry
     estimated scf accuracy    <       0.66655147 Ry
[tb_dev] Currently allocated     1.34E-03 Mbytes, locked:    0 /   2
[tb_pin] Currently allocated     0.00E+00 Mbytes, locked:    0 /   0

     iteration # 13     ecut=    71.00 Ry     beta= 0.20
     Davidson diagonalization with overlap

---- Real-time Memory Report at c_bands before calling an iterative solver
         31396 MiB given to the printing process from OS
             0 MiB allocation reported by mallinfo(arena+hblkhd)
         78420 MiB available memory on the node where the printing process lives
     GPU memory used/free/total (MiB): 83438 / 11872 / 95311
------------------
     ethr =  7.11E-06,  avg # of iterations =  1.8

     negative rho (up, down):  5.155E-02 0.000E+00

     total cpu time spent up to now is     1036.7 secs

     total energy              =  -27035.81843868 Ry
     estimated scf accuracy    <       0.72546516 Ry
[tb_dev] Currently allocated     1.34E-03 Mbytes, locked:    0 /   2
[tb_pin] Currently allocated     0.00E+00 Mbytes, locked:    0 /   0

     iteration # 14     ecut=    71.00 Ry     beta= 0.20
     Davidson diagonalization with overlap

---- Real-time Memory Report at c_bands before calling an iterative solver
         31396 MiB given to the printing process from OS
             0 MiB allocation reported by mallinfo(arena+hblkhd)
         78234 MiB available memory on the node where the printing process lives
     GPU memory used/free/total (MiB): 83438 / 11872 / 95311
------------------
     ethr =  7.11E-06,  avg # of iterations =  1.5

     negative rho (up, down):  6.188E-02 0.000E+00

     total cpu time spent up to now is     1068.3 secs

     total energy              =  -27035.63435625 Ry
     estimated scf accuracy    <       0.61020235 Ry
[tb_dev] Currently allocated     1.34E-03 Mbytes, locked:    0 /   2
[tb_pin] Currently allocated     0.00E+00 Mbytes, locked:    0 /   0

     iteration # 15     ecut=    71.00 Ry     beta= 0.20
     Davidson diagonalization with overlap

---- Real-time Memory Report at c_bands before calling an iterative solver
         31396 MiB given to the printing process from OS
             0 MiB allocation reported by mallinfo(arena+hblkhd)
         78320 MiB available memory on the node where the printing process lives
     GPU memory used/free/total (MiB): 83438 / 11872 / 95311
------------------
     ethr =  7.11E-06,  avg # of iterations =  5.0

     negative rho (up, down):  4.097E-02 0.000E+00

     total cpu time spent up to now is     1107.5 secs

     total energy              =  -27035.68522803 Ry
     estimated scf accuracy    <       0.11931156 Ry
[tb_dev] Currently allocated     1.34E-03 Mbytes, locked:    0 /   2
[tb_pin] Currently allocated     0.00E+00 Mbytes, locked:    0 /   0

     iteration # 16     ecut=    71.00 Ry     beta= 0.20
     Davidson diagonalization with overlap

---- Real-time Memory Report at c_bands before calling an iterative solver
         31396 MiB given to the printing process from OS
             0 MiB allocation reported by mallinfo(arena+hblkhd)
         78253 MiB available memory on the node where the printing process lives
     GPU memory used/free/total (MiB): 83438 / 11872 / 95311
------------------
     ethr =  7.11E-06,  avg # of iterations =  2.0

     negative rho (up, down):  9.815E-02 0.000E+00

     total cpu time spent up to now is     1139.5 secs

     total energy              =  -27035.64324950 Ry
     estimated scf accuracy    <       0.09059650 Ry
[tb_dev] Currently allocated     1.34E-03 Mbytes, locked:    0 /   2
[tb_pin] Currently allocated     0.00E+00 Mbytes, locked:    0 /   0

     iteration # 17     ecut=    71.00 Ry     beta= 0.20
     Davidson diagonalization with overlap

---- Real-time Memory Report at c_bands before calling an iterative solver
         31396 MiB given to the printing process from OS
             0 MiB allocation reported by mallinfo(arena+hblkhd)
         78192 MiB available memory on the node where the printing process lives
     GPU memory used/free/total (MiB): 83494 / 11816 / 95311
------------------
     ethr =  6.82E-06,  avg # of iterations =  8.5

     negative rho (up, down):  6.741E-02 0.000E+00

     total cpu time spent up to now is     1179.8 secs

     total energy              =  -27035.68081375 Ry
     estimated scf accuracy    <       0.10257307 Ry
[tb_dev] Currently allocated     1.34E-03 Mbytes, locked:    0 /   2
[tb_pin] Currently allocated     0.00E+00 Mbytes, locked:    0 /   0

     iteration # 18     ecut=    71.00 Ry     beta= 0.20
     Davidson diagonalization with overlap

---- Real-time Memory Report at c_bands before calling an iterative solver
         31396 MiB given to the printing process from OS
             0 MiB allocation reported by mallinfo(arena+hblkhd)
         77685 MiB available memory on the node where the printing process lives
     GPU memory used/free/total (MiB): 83494 / 11816 / 95311
------------------
     ethr =  6.82E-06,  avg # of iterations =  2.0

     negative rho (up, down):  6.716E-02 0.000E+00

     total cpu time spent up to now is     1211.7 secs

     total energy              =  -27035.67226943 Ry
     estimated scf accuracy    <       0.06956689 Ry
[tb_dev] Currently allocated     1.34E-03 Mbytes, locked:    0 /   2
[tb_pin] Currently allocated     0.00E+00 Mbytes, locked:    0 /   0

     iteration # 19     ecut=    71.00 Ry     beta= 0.20
     Davidson diagonalization with overlap

---- Real-time Memory Report at c_bands before calling an iterative solver
         31396 MiB given to the printing process from OS
             0 MiB allocation reported by mallinfo(arena+hblkhd)
         77673 MiB available memory on the node where the printing process lives
     GPU memory used/free/total (MiB): 83494 / 11816 / 95311
------------------
     ethr =  5.24E-06,  avg # of iterations =  4.3

     negative rho (up, down):  9.995E-02 0.000E+00

     total cpu time spent up to now is     1244.5 secs

     total energy              =  -27035.66346636 Ry
     estimated scf accuracy    <       0.04312650 Ry
[tb_dev] Currently allocated     1.34E-03 Mbytes, locked:    0 /   2
[tb_pin] Currently allocated     0.00E+00 Mbytes, locked:    0 /   0

     iteration # 20     ecut=    71.00 Ry     beta= 0.20
     Davidson diagonalization with overlap

---- Real-time Memory Report at c_bands before calling an iterative solver
         31396 MiB given to the printing process from OS
             0 MiB allocation reported by mallinfo(arena+hblkhd)
         77523 MiB available memory on the node where the printing process lives
     GPU memory used/free/total (MiB): 83494 / 11816 / 95311
------------------
     ethr =  3.25E-06,  avg # of iterations =  5.0

     negative rho (up, down):  1.563E-01 0.000E+00

     total cpu time spent up to now is     1283.4 secs

     total energy              =  -27035.66065848 Ry
     estimated scf accuracy    <       0.05921248 Ry
[tb_dev] Currently allocated     1.34E-03 Mbytes, locked:    0 /   2
[tb_pin] Currently allocated     0.00E+00 Mbytes, locked:    0 /   0

     iteration # 21     ecut=    71.00 Ry     beta= 0.20
     Davidson diagonalization with overlap

---- Real-time Memory Report at c_bands before calling an iterative solver
         31396 MiB given to the printing process from OS
             0 MiB allocation reported by mallinfo(arena+hblkhd)
         77565 MiB available memory on the node where the printing process lives
     GPU memory used/free/total (MiB): 83494 / 11816 / 95311
------------------
     ethr =  3.25E-06,  avg # of iterations = 13.8

     negative rho (up, down):  1.762E-01 0.000E+00

     total cpu time spent up to now is     1319.6 secs

     total energy              =  -27035.66492786 Ry
     estimated scf accuracy    <       0.02272707 Ry
[tb_dev] Currently allocated     1.34E-03 Mbytes, locked:    0 /   2
[tb_pin] Currently allocated     0.00E+00 Mbytes, locked:    0 /   0

     iteration # 22     ecut=    71.00 Ry     beta= 0.20
     Davidson diagonalization with overlap

---- Real-time Memory Report at c_bands before calling an iterative solver
         31396 MiB given to the printing process from OS
             0 MiB allocation reported by mallinfo(arena+hblkhd)
         78996 MiB available memory on the node where the printing process lives
     GPU memory used/free/total (MiB): 83494 / 11816 / 95311
------------------
     c_bands:  1 eigenvalues not converged
     ethr =  1.71E-06,  avg # of iterations = 14.3

     negative rho (up, down):  1.742E-01 0.000E+00

     total cpu time spent up to now is     1363.1 secs

     total energy              =  -27035.65307431 Ry
     estimated scf accuracy    <       0.07867461 Ry
[tb_dev] Currently allocated     1.34E-03 Mbytes, locked:    0 /   2
[tb_pin] Currently allocated     0.00E+00 Mbytes, locked:    0 /   0

     iteration # 23     ecut=    71.00 Ry     beta= 0.20
     Davidson diagonalization with overlap

---- Real-time Memory Report at c_bands before calling an iterative solver
         31396 MiB given to the printing process from OS
             0 MiB allocation reported by mallinfo(arena+hblkhd)
         78917 MiB available memory on the node where the printing process lives
     GPU memory used/free/total (MiB): 83494 / 11816 / 95311
------------------
     ethr =  1.71E-06,  avg # of iterations = 12.5

     negative rho (up, down):  1.184E-01 0.000E+00

     total cpu time spent up to now is     1408.6 secs

     total energy              =  -27035.66265624 Ry
     estimated scf accuracy    <       0.06267387 Ry
[tb_dev] Currently allocated     1.34E-03 Mbytes, locked:    0 /   2
[tb_pin] Currently allocated     0.00E+00 Mbytes, locked:    0 /   0

     iteration # 24     ecut=    71.00 Ry     beta= 0.20
     Davidson diagonalization with overlap

---- Real-time Memory Report at c_bands before calling an iterative solver
         31396 MiB given to the printing process from OS
             0 MiB allocation reported by mallinfo(arena+hblkhd)
         78893 MiB available memory on the node where the printing process lives
     GPU memory used/free/total (MiB): 83494 / 11816 / 95311
------------------
     ethr =  1.71E-06,  avg # of iterations =  6.8

     negative rho (up, down):  8.175E-02 0.000E+00

     total cpu time spent up to now is     1444.4 secs

     total energy              =  -27035.66388009 Ry
     estimated scf accuracy    <       0.01689991 Ry
[tb_dev] Currently allocated     1.34E-03 Mbytes, locked:    0 /   2
[tb_pin] Currently allocated     0.00E+00 Mbytes, locked:    0 /   0

     iteration # 25     ecut=    71.00 Ry     beta= 0.20
     Davidson diagonalization with overlap

---- Real-time Memory Report at c_bands before calling an iterative solver
         31396 MiB given to the printing process from OS
             0 MiB allocation reported by mallinfo(arena+hblkhd)
         78819 MiB available memory on the node where the printing process lives
     GPU memory used/free/total (MiB): 83500 / 11810 / 95311
------------------
     ethr =  1.27E-06,  avg # of iterations =  5.3

     negative rho (up, down):  5.661E-02 0.000E+00

     total cpu time spent up to now is     1478.7 secs

     total energy              =  -27035.66627778 Ry
     estimated scf accuracy    <       0.01140974 Ry
[tb_dev] Currently allocated     1.34E-03 Mbytes, locked:    0 /   2
[tb_pin] Currently allocated     0.00E+00 Mbytes, locked:    0 /   0

     iteration # 26     ecut=    71.00 Ry     beta= 0.20
     Davidson diagonalization with overlap

---- Real-time Memory Report at c_bands before calling an iterative solver
         31396 MiB given to the printing process from OS
             0 MiB allocation reported by mallinfo(arena+hblkhd)
         79008 MiB available memory on the node where the printing process lives
     GPU memory used/free/total (MiB): 83500 / 11810 / 95311
------------------
     ethr =  8.59E-07,  avg # of iterations =  2.8

     negative rho (up, down):  4.100E-02 0.000E+00

     total cpu time spent up to now is     1511.6 secs

     total energy              =  -27035.66529708 Ry
     estimated scf accuracy    <       0.00993517 Ry
[tb_dev] Currently allocated     1.34E-03 Mbytes, locked:    0 /   2
[tb_pin] Currently allocated     0.00E+00 Mbytes, locked:    0 /   0

     iteration # 27     ecut=    71.00 Ry     beta= 0.20
     Davidson diagonalization with overlap

---- Real-time Memory Report at c_bands before calling an iterative solver
         31396 MiB given to the printing process from OS
             0 MiB allocation reported by mallinfo(arena+hblkhd)
         79020 MiB available memory on the node where the printing process lives
     GPU memory used/free/total (MiB): 83500 / 11810 / 95311
------------------
     ethr =  7.48E-07,  avg # of iterations =  2.0

     negative rho (up, down):  3.132E-02 0.000E+00

     total cpu time spent up to now is     1543.5 secs

     total energy              =  -27035.66470931 Ry
     estimated scf accuracy    <       0.00678451 Ry
[tb_dev] Currently allocated     1.34E-03 Mbytes, locked:    0 /   2
[tb_pin] Currently allocated     0.00E+00 Mbytes, locked:    0 /   0

     iteration # 28     ecut=    71.00 Ry     beta= 0.20
     Davidson diagonalization with overlap

---- Real-time Memory Report at c_bands before calling an iterative solver
         31396 MiB given to the printing process from OS
             0 MiB allocation reported by mallinfo(arena+hblkhd)
         79007 MiB available memory on the node where the printing process lives
     GPU memory used/free/total (MiB): 83500 / 11810 / 95311
------------------
     ethr =  5.11E-07,  avg # of iterations =  5.3

     negative rho (up, down):  2.406E-02 0.000E+00

     total cpu time spent up to now is     1577.1 secs

     total energy              =  -27035.66419014 Ry
     estimated scf accuracy    <       0.00407758 Ry
[tb_dev] Currently allocated     1.34E-03 Mbytes, locked:    0 /   2
[tb_pin] Currently allocated     0.00E+00 Mbytes, locked:    0 /   0

     iteration # 29     ecut=    71.00 Ry     beta= 0.20
     Davidson diagonalization with overlap

---- Real-time Memory Report at c_bands before calling an iterative solver
         31396 MiB given to the printing process from OS
             0 MiB allocation reported by mallinfo(arena+hblkhd)
         79086 MiB available memory on the node where the printing process lives
     GPU memory used/free/total (MiB): 83500 / 11810 / 95311
------------------
     ethr =  3.07E-07,  avg # of iterations =  5.3

     negative rho (up, down):  1.267E-02 0.000E+00

     total cpu time spent up to now is     1611.7 secs

     total energy              =  -27035.66443290 Ry
     estimated scf accuracy    <       0.00121328 Ry
[tb_dev] Currently allocated     1.34E-03 Mbytes, locked:    0 /   2
[tb_pin] Currently allocated     0.00E+00 Mbytes, locked:    0 /   0

     iteration # 30     ecut=    71.00 Ry     beta= 0.20
     Davidson diagonalization with overlap

---- Real-time Memory Report at c_bands before calling an iterative solver
         31396 MiB given to the printing process from OS
             0 MiB allocation reported by mallinfo(arena+hblkhd)
         79095 MiB available memory on the node where the printing process lives
     GPU memory used/free/total (MiB): 83500 / 11810 / 95311
------------------
     ethr =  9.14E-08,  avg # of iterations = 15.0

     negative rho (up, down):  1.243E-02 0.000E+00

     total cpu time spent up to now is     1653.5 secs

     total energy              =  -27035.66481134 Ry
     estimated scf accuracy    <       0.00067694 Ry
[tb_dev] Currently allocated     1.34E-03 Mbytes, locked:    0 /   2
[tb_pin] Currently allocated     0.00E+00 Mbytes, locked:    0 /   0

     iteration # 31     ecut=    71.00 Ry     beta= 0.20
     Davidson diagonalization with overlap

---- Real-time Memory Report at c_bands before calling an iterative solver
         31396 MiB given to the printing process from OS
             0 MiB allocation reported by mallinfo(arena+hblkhd)
         78995 MiB available memory on the node where the printing process lives
     GPU memory used/free/total (MiB): 83500 / 11810 / 95311
------------------
     ethr =  5.10E-08,  avg # of iterations =  5.5

     negative rho (up, down):  2.901E-03 0.000E+00

     total cpu time spent up to now is     1687.1 secs

     total energy              =  -27035.66484539 Ry
     estimated scf accuracy    <       0.00020453 Ry
[tb_dev] Currently allocated     1.34E-03 Mbytes, locked:    0 /   2
[tb_pin] Currently allocated     0.00E+00 Mbytes, locked:    0 /   0

     iteration # 32     ecut=    71.00 Ry     beta= 0.20
     Davidson diagonalization with overlap

---- Real-time Memory Report at c_bands before calling an iterative solver
         31396 MiB given to the printing process from OS
             0 MiB allocation reported by mallinfo(arena+hblkhd)
         78979 MiB available memory on the node where the printing process lives
     GPU memory used/free/total (MiB): 83500 / 11810 / 95311
------------------
     ethr =  1.54E-08,  avg # of iterations =  5.0

     negative rho (up, down):  4.496E-03 0.000E+00

     total cpu time spent up to now is     1727.9 secs

     total energy              =  -27035.66483889 Ry
     estimated scf accuracy    <       0.00058936 Ry
[tb_dev] Currently allocated     1.34E-03 Mbytes, locked:    0 /   2
[tb_pin] Currently allocated     0.00E+00 Mbytes, locked:    0 /   0

     iteration # 33     ecut=    71.00 Ry     beta= 0.20
     Davidson diagonalization with overlap

---- Real-time Memory Report at c_bands before calling an iterative solver
         31396 MiB given to the printing process from OS
             0 MiB allocation reported by mallinfo(arena+hblkhd)
         79084 MiB available memory on the node where the printing process lives
     GPU memory used/free/total (MiB): 83500 / 11810 / 95311
------------------
     ethr =  1.54E-08,  avg # of iterations =  5.8

     negative rho (up, down):  3.365E-03 0.000E+00

     total cpu time spent up to now is     1765.6 secs

     total energy              =  -27035.66488819 Ry
     estimated scf accuracy    <       0.00010281 Ry
[tb_dev] Currently allocated     1.34E-03 Mbytes, locked:    0 /   2
[tb_pin] Currently allocated     0.00E+00 Mbytes, locked:    0 /   0

     iteration # 34     ecut=    71.00 Ry     beta= 0.20
     Davidson diagonalization with overlap

---- Real-time Memory Report at c_bands before calling an iterative solver
         31396 MiB given to the printing process from OS
             0 MiB allocation reported by mallinfo(arena+hblkhd)
         79075 MiB available memory on the node where the printing process lives
     GPU memory used/free/total (MiB): 83500 / 11810 / 95311
------------------
     ethr =  7.74E-09,  avg # of iterations =  2.0

     negative rho (up, down):  5.402E-04 0.000E+00

     total cpu time spent up to now is     1798.2 secs

     total energy              =  -27035.66491207 Ry
     estimated scf accuracy    <       0.00006339 Ry
[tb_dev] Currently allocated     1.34E-03 Mbytes, locked:    0 /   2
[tb_pin] Currently allocated     0.00E+00 Mbytes, locked:    0 /   0

     iteration # 35     ecut=    71.00 Ry     beta= 0.20
     Davidson diagonalization with overlap

---- Real-time Memory Report at c_bands before calling an iterative solver
         31396 MiB given to the printing process from OS
             0 MiB allocation reported by mallinfo(arena+hblkhd)
         79094 MiB available memory on the node where the printing process lives
     GPU memory used/free/total (MiB): 83500 / 11810 / 95311
------------------
     ethr =  4.77E-09,  avg # of iterations =  6.3

     negative rho (up, down):  1.529E-03 0.000E+00

     total cpu time spent up to now is     1842.5 secs

     total energy              =  -27035.66488324 Ry
     estimated scf accuracy    <       0.00026123 Ry
[tb_dev] Currently allocated     1.34E-03 Mbytes, locked:    0 /   2
[tb_pin] Currently allocated     0.00E+00 Mbytes, locked:    0 /   0

     iteration # 36     ecut=    71.00 Ry     beta= 0.20
     Davidson diagonalization with overlap

---- Real-time Memory Report at c_bands before calling an iterative solver
         31396 MiB given to the printing process from OS
             0 MiB allocation reported by mallinfo(arena+hblkhd)
        149693 MiB available memory on the node where the printing process lives
     GPU memory used/free/total (MiB): 83500 / 11810 / 95311
------------------
     ethr =  4.77E-09,  avg # of iterations =  5.0

     negative rho (up, down):  1.405E-03 0.000E+00

     total cpu time spent up to now is     1881.7 secs

     total energy              =  -27035.66491589 Ry
     estimated scf accuracy    <       0.00004659 Ry
[tb_dev] Currently allocated     1.34E-03 Mbytes, locked:    0 /   2
[tb_pin] Currently allocated     0.00E+00 Mbytes, locked:    0 /   0

     iteration # 37     ecut=    71.00 Ry     beta= 0.20
     Davidson diagonalization with overlap

---- Real-time Memory Report at c_bands before calling an iterative solver
         31396 MiB given to the printing process from OS
             0 MiB allocation reported by mallinfo(arena+hblkhd)
        149586 MiB available memory on the node where the printing process lives
     GPU memory used/free/total (MiB): 83500 / 11810 / 95311
------------------
     ethr =  3.51E-09,  avg # of iterations =  2.0

     negative rho (up, down):  1.546E-03 0.000E+00

     total cpu time spent up to now is     1914.8 secs

     total energy              =  -27035.66491842 Ry
     estimated scf accuracy    <       0.00004153 Ry
[tb_dev] Currently allocated     1.34E-03 Mbytes, locked:    0 /   2
[tb_pin] Currently allocated     0.00E+00 Mbytes, locked:    0 /   0

     iteration # 38     ecut=    71.00 Ry     beta= 0.20
     Davidson diagonalization with overlap

---- Real-time Memory Report at c_bands before calling an iterative solver
         31396 MiB given to the printing process from OS
             0 MiB allocation reported by mallinfo(arena+hblkhd)
        144041 MiB available memory on the node where the printing process lives
     GPU memory used/free/total (MiB): 83500 / 11810 / 95311
------------------
     ethr =  3.13E-09,  avg # of iterations =  2.8

     negative rho (up, down):  2.746E-03 0.000E+00

     total cpu time spent up to now is     1949.6 secs

     total energy              =  -27035.66492395 Ry
     estimated scf accuracy    <       0.00003216 Ry
[tb_dev] Currently allocated     1.34E-03 Mbytes, locked:    0 /   2
[tb_pin] Currently allocated     0.00E+00 Mbytes, locked:    0 /   0

     iteration # 39     ecut=    71.00 Ry     beta= 0.20
     Davidson diagonalization with overlap

---- Real-time Memory Report at c_bands before calling an iterative solver
         31397 MiB given to the printing process from OS
             0 MiB allocation reported by mallinfo(arena+hblkhd)
        140417 MiB available memory on the node where the printing process lives
     GPU memory used/free/total (MiB): 83500 / 11810 / 95311
------------------
     ethr =  2.42E-09,  avg # of iterations =  5.0

     negative rho (up, down):  2.646E-03 0.000E+00

     total cpu time spent up to now is     1991.9 secs

     total energy              =  -27035.66492319 Ry
     estimated scf accuracy    <       0.00009121 Ry
[tb_dev] Currently allocated     1.34E-03 Mbytes, locked:    0 /   2
[tb_pin] Currently allocated     0.00E+00 Mbytes, locked:    0 /   0

     iteration # 40     ecut=    71.00 Ry     beta= 0.20
     Davidson diagonalization with overlap

---- Real-time Memory Report at c_bands before calling an iterative solver
         31397 MiB given to the printing process from OS
             0 MiB allocation reported by mallinfo(arena+hblkhd)
        135035 MiB available memory on the node where the printing process lives
     GPU memory used/free/total (MiB): 83500 / 11810 / 95311
------------------
     ethr =  2.42E-09,  avg # of iterations =  5.3

     negative rho (up, down):  2.302E-03 0.000E+00

     total cpu time spent up to now is     2030.6 secs

     total energy              =  -27035.66491946 Ry
     estimated scf accuracy    <       0.00003559 Ry
[tb_dev] Currently allocated     1.34E-03 Mbytes, locked:    0 /   2
[tb_pin] Currently allocated     0.00E+00 Mbytes, locked:    0 /   0

     iteration # 41     ecut=    71.00 Ry     beta= 0.20
     Davidson diagonalization with overlap

---- Real-time Memory Report at c_bands before calling an iterative solver
         31397 MiB given to the printing process from OS
             0 MiB allocation reported by mallinfo(arena+hblkhd)
        136079 MiB available memory on the node where the printing process lives
     GPU memory used/free/total (MiB): 83500 / 11810 / 95311
------------------
     ethr =  2.42E-09,  avg # of iterations =  2.0

     negative rho (up, down):  2.440E-03 0.000E+00

     total cpu time spent up to now is     2063.0 secs

     total energy              =  -27035.66491947 Ry
     estimated scf accuracy    <       0.00001124 Ry
[tb_dev] Currently allocated     1.34E-03 Mbytes, locked:    0 /   2
[tb_pin] Currently allocated     0.00E+00 Mbytes, locked:    0 /   0

     iteration # 42     ecut=    71.00 Ry     beta= 0.20
     Davidson diagonalization with overlap

---- Real-time Memory Report at c_bands before calling an iterative solver
         31398 MiB given to the printing process from OS
             0 MiB allocation reported by mallinfo(arena+hblkhd)
        136082 MiB available memory on the node where the printing process lives
     GPU memory used/free/total (MiB): 83500 / 11810 / 95311
------------------
     ethr =  8.46E-10,  avg # of iterations =  7.5

     negative rho (up, down):  2.752E-03 0.000E+00

     total cpu time spent up to now is     2107.8 secs

     total energy              =  -27035.66492139 Ry
     estimated scf accuracy    <       0.00010259 Ry
[tb_dev] Currently allocated     1.34E-03 Mbytes, locked:    0 /   2
[tb_pin] Currently allocated     0.00E+00 Mbytes, locked:    0 /   0

     iteration # 43     ecut=    71.00 Ry     beta= 0.20
     Davidson diagonalization with overlap

---- Real-time Memory Report at c_bands before calling an iterative solver
         31398 MiB given to the printing process from OS
             0 MiB allocation reported by mallinfo(arena+hblkhd)
        136364 MiB available memory on the node where the printing process lives
     GPU memory used/free/total (MiB): 83500 / 11810 / 95311
------------------
     ethr =  8.46E-10,  avg # of iterations =  6.8

     negative rho (up, down):  2.979E-03 0.000E+00

     total cpu time spent up to now is     2150.5 secs

     total energy              =  -27035.66492979 Ry
     estimated scf accuracy    <       0.00002494 Ry
[tb_dev] Currently allocated     1.34E-03 Mbytes, locked:    0 /   2
[tb_pin] Currently allocated     0.00E+00 Mbytes, locked:    0 /   0

     iteration # 44     ecut=    71.00 Ry     beta= 0.20
     Davidson diagonalization with overlap

---- Real-time Memory Report at c_bands before calling an iterative solver
         31398 MiB given to the printing process from OS
             0 MiB allocation reported by mallinfo(arena+hblkhd)
        136263 MiB available memory on the node where the printing process lives
     GPU memory used/free/total (MiB): 83500 / 11810 / 95311
------------------
     ethr =  8.46E-10,  avg # of iterations =  1.8

     negative rho (up, down):  3.204E-03 0.000E+00

     total cpu time spent up to now is     2182.1 secs

     total energy              =  -27035.66492234 Ry
     estimated scf accuracy    <       0.00001840 Ry
[tb_dev] Currently allocated     1.34E-03 Mbytes, locked:    0 /   2
[tb_pin] Currently allocated     0.00E+00 Mbytes, locked:    0 /   0

     iteration # 45     ecut=    71.00 Ry     beta= 0.20
     Davidson diagonalization with overlap

---- Real-time Memory Report at c_bands before calling an iterative solver
         31398 MiB given to the printing process from OS
             0 MiB allocation reported by mallinfo(arena+hblkhd)
        136408 MiB available memory on the node where the printing process lives
     GPU memory used/free/total (MiB): 83500 / 11810 / 95311
------------------
     ethr =  8.46E-10,  avg # of iterations =  5.8

     negative rho (up, down):  2.914E-03 0.000E+00

     total cpu time spent up to now is     2223.7 secs

     total energy              =  -27035.66492878 Ry
     estimated scf accuracy    <       0.00001013 Ry
[tb_dev] Currently allocated     1.34E-03 Mbytes, locked:    0 /   2
[tb_pin] Currently allocated     0.00E+00 Mbytes, locked:    0 /   0

     iteration # 46     ecut=    71.00 Ry     beta= 0.20
     Davidson diagonalization with overlap

---- Real-time Memory Report at c_bands before calling an iterative solver
         31398 MiB given to the printing process from OS
             0 MiB allocation reported by mallinfo(arena+hblkhd)
        136422 MiB available memory on the node where the printing process lives
     GPU memory used/free/total (MiB): 83500 / 11810 / 95311
------------------
     ethr =  7.63E-10,  avg # of iterations =  1.0

     negative rho (up, down):  2.776E-03 0.000E+00

     total cpu time spent up to now is     2254.5 secs

     total energy              =  -27035.66492639 Ry
     estimated scf accuracy    <       0.00000645 Ry
[tb_dev] Currently allocated     1.34E-03 Mbytes, locked:    0 /   2
[tb_pin] Currently allocated     0.00E+00 Mbytes, locked:    0 /   0

     iteration # 47     ecut=    71.00 Ry     beta= 0.20
     Davidson diagonalization with overlap

---- Real-time Memory Report at c_bands before calling an iterative solver
         31398 MiB given to the printing process from OS
             0 MiB allocation reported by mallinfo(arena+hblkhd)
        136485 MiB available memory on the node where the printing process lives
     GPU memory used/free/total (MiB): 83500 / 11810 / 95311
------------------
     ethr =  4.86E-10,  avg # of iterations =  5.3

     negative rho (up, down):  2.788E-03 0.000E+00

     total cpu time spent up to now is     2288.6 secs

     total energy              =  -27035.66492624 Ry
     estimated scf accuracy    <       0.00000255 Ry
[tb_dev] Currently allocated     1.34E-03 Mbytes, locked:    0 /   2
[tb_pin] Currently allocated     0.00E+00 Mbytes, locked:    0 /   0

     iteration # 48     ecut=    71.00 Ry     beta= 0.20
     Davidson diagonalization with overlap

---- Real-time Memory Report at c_bands before calling an iterative solver
         31398 MiB given to the printing process from OS
             0 MiB allocation reported by mallinfo(arena+hblkhd)
        136468 MiB available memory on the node where the printing process lives
     GPU memory used/free/total (MiB): 83500 / 11810 / 95311
------------------
     ethr =  1.92E-10,  avg # of iterations =  5.0

     negative rho (up, down):  2.604E-03 0.000E+00

     total cpu time spent up to now is     2327.1 secs

     total energy              =  -27035.66492729 Ry
     estimated scf accuracy    <       0.00000130 Ry
[tb_dev] Currently allocated     1.34E-03 Mbytes, locked:    0 /   2
[tb_pin] Currently allocated     0.00E+00 Mbytes, locked:    0 /   0

     iteration # 49     ecut=    71.00 Ry     beta= 0.20
     Davidson diagonalization with overlap

---- Real-time Memory Report at c_bands before calling an iterative solver
         31398 MiB given to the printing process from OS
             0 MiB allocation reported by mallinfo(arena+hblkhd)
        136481 MiB available memory on the node where the printing process lives
     GPU memory used/free/total (MiB): 83500 / 11810 / 95311
------------------
     ethr =  9.82E-11,  avg # of iterations =  2.0

     negative rho (up, down):  2.437E-03 0.000E+00

     total cpu time spent up to now is     2359.0 secs

     total energy              =  -27035.66492674 Ry
     estimated scf accuracy    <       0.00000111 Ry
[tb_dev] Currently allocated     1.34E-03 Mbytes, locked:    0 /   2
[tb_pin] Currently allocated     0.00E+00 Mbytes, locked:    0 /   0

     iteration # 50     ecut=    71.00 Ry     beta= 0.20
     Davidson diagonalization with overlap

---- Real-time Memory Report at c_bands before calling an iterative solver
         31398 MiB given to the printing process from OS
             0 MiB allocation reported by mallinfo(arena+hblkhd)
        136503 MiB available memory on the node where the printing process lives
     GPU memory used/free/total (MiB): 83500 / 11810 / 95311
------------------
     ethr =  8.35E-11,  avg # of iterations =  5.0

     negative rho (up, down):  2.464E-03 0.000E+00

     total cpu time spent up to now is     2393.5 secs

     total energy              =  -27035.66492690 Ry
     estimated scf accuracy    <       0.00000029 Ry
[tb_dev] Currently allocated     1.34E-03 Mbytes, locked:    0 /   2
[tb_pin] Currently allocated     0.00E+00 Mbytes, locked:    0 /   0

     iteration # 51     ecut=    71.00 Ry     beta= 0.20
     Davidson diagonalization with overlap

---- Real-time Memory Report at c_bands before calling an iterative solver
         31398 MiB given to the printing process from OS
             0 MiB allocation reported by mallinfo(arena+hblkhd)
        136522 MiB available memory on the node where the printing process lives
     GPU memory used/free/total (MiB): 83500 / 11810 / 95311
------------------
     ethr =  2.20E-11,  avg # of iterations =  6.0

     negative rho (up, down):  2.485E-03 0.000E+00

     total cpu time spent up to now is     2431.3 secs

     total energy              =  -27035.66492696 Ry
     estimated scf accuracy    <       0.00000028 Ry
[tb_dev] Currently allocated     1.34E-03 Mbytes, locked:    0 /   2
[tb_pin] Currently allocated     0.00E+00 Mbytes, locked:    0 /   0

     iteration # 52     ecut=    71.00 Ry     beta= 0.20
     Davidson diagonalization with overlap

---- Real-time Memory Report at c_bands before calling an iterative solver
         31398 MiB given to the printing process from OS
             0 MiB allocation reported by mallinfo(arena+hblkhd)
        136459 MiB available memory on the node where the printing process lives
     GPU memory used/free/total (MiB): 83500 / 11810 / 95311
------------------
     ethr =  2.08E-11,  avg # of iterations =  3.8

     negative rho (up, down):  2.400E-03 0.000E+00

     total cpu time spent up to now is     2463.9 secs

     total energy              =  -27035.66492697 Ry
     estimated scf accuracy    <       0.00000027 Ry
[tb_dev] Currently allocated     1.34E-03 Mbytes, locked:    0 /   2
[tb_pin] Currently allocated     0.00E+00 Mbytes, locked:    0 /   0

     iteration # 53     ecut=    71.00 Ry     beta= 0.20
     Davidson diagonalization with overlap

---- Real-time Memory Report at c_bands before calling an iterative solver
         31398 MiB given to the printing process from OS
             0 MiB allocation reported by mallinfo(arena+hblkhd)
        136536 MiB available memory on the node where the printing process lives
     GPU memory used/free/total (MiB): 83500 / 11810 / 95311
------------------
     ethr =  2.00E-11,  avg # of iterations =  5.0

     negative rho (up, down):  2.323E-03 0.000E+00

     total cpu time spent up to now is     2503.4 secs

     total energy              =  -27035.66492711 Ry
     estimated scf accuracy    <       0.00000127 Ry
[tb_dev] Currently allocated     1.34E-03 Mbytes, locked:    0 /   2
[tb_pin] Currently allocated     0.00E+00 Mbytes, locked:    0 /   0

     iteration # 54     ecut=    71.00 Ry     beta= 0.20
     Davidson diagonalization with overlap

---- Real-time Memory Report at c_bands before calling an iterative solver
         31398 MiB given to the printing process from OS
             0 MiB allocation reported by mallinfo(arena+hblkhd)
        136484 MiB available memory on the node where the printing process lives
     GPU memory used/free/total (MiB): 83500 / 11810 / 95311
------------------
     ethr =  2.00E-11,  avg # of iterations =  1.0

     negative rho (up, down):  2.262E-03 0.000E+00

     total cpu time spent up to now is     2534.3 secs

     total energy              =  -27035.66492707 Ry
     estimated scf accuracy    <       0.00000119 Ry
[tb_dev] Currently allocated     1.34E-03 Mbytes, locked:    0 /   2
[tb_pin] Currently allocated     0.00E+00 Mbytes, locked:    0 /   0

     iteration # 55     ecut=    71.00 Ry     beta= 0.20
     Davidson diagonalization with overlap

---- Real-time Memory Report at c_bands before calling an iterative solver
         31398 MiB given to the printing process from OS
             0 MiB allocation reported by mallinfo(arena+hblkhd)
        136522 MiB available memory on the node where the printing process lives
     GPU memory used/free/total (MiB): 83500 / 11810 / 95311
------------------
     ethr =  2.00E-11,  avg # of iterations =  2.0

     negative rho (up, down):  2.280E-03 0.000E+00

     total cpu time spent up to now is     2566.1 secs

     total energy              =  -27035.66492694 Ry
     estimated scf accuracy    <       0.00000099 Ry
[tb_dev] Currently allocated     1.34E-03 Mbytes, locked:    0 /   2
[tb_pin] Currently allocated     0.00E+00 Mbytes, locked:    0 /   0

     iteration # 56     ecut=    71.00 Ry     beta= 0.20
     Davidson diagonalization with overlap

---- Real-time Memory Report at c_bands before calling an iterative solver
         31398 MiB given to the printing process from OS
             0 MiB allocation reported by mallinfo(arena+hblkhd)
        136523 MiB available memory on the node where the printing process lives
     GPU memory used/free/total (MiB): 83500 / 11810 / 95311
------------------
     ethr =  2.00E-11,  avg # of iterations =  2.0

     negative rho (up, down):  2.282E-03 0.000E+00

     total cpu time spent up to now is     2598.2 secs

     total energy              =  -27035.66492676 Ry
     estimated scf accuracy    <       0.00000068 Ry
[tb_dev] Currently allocated     1.34E-03 Mbytes, locked:    0 /   2
[tb_pin] Currently allocated     0.00E+00 Mbytes, locked:    0 /   0

     iteration # 57     ecut=    71.00 Ry     beta= 0.20
     Davidson diagonalization with overlap

---- Real-time Memory Report at c_bands before calling an iterative solver
         31398 MiB given to the printing process from OS
             0 MiB allocation reported by mallinfo(arena+hblkhd)
        136319 MiB available memory on the node where the printing process lives
     GPU memory used/free/total (MiB): 83502 / 11808 / 95311
------------------
     ethr =  2.00E-11,  avg # of iterations =  5.0

     negative rho (up, down):  2.198E-03 0.000E+00

     total cpu time spent up to now is     2635.3 secs

     total energy              =  -27035.66492683 Ry
     estimated scf accuracy    <       0.00000013 Ry
[tb_dev] Currently allocated     1.34E-03 Mbytes, locked:    0 /   2
[tb_pin] Currently allocated     0.00E+00 Mbytes, locked:    0 /   0

     iteration # 58     ecut=    71.00 Ry     beta= 0.20
     Davidson diagonalization with overlap

---- Real-time Memory Report at c_bands before calling an iterative solver
         31398 MiB given to the printing process from OS
             0 MiB allocation reported by mallinfo(arena+hblkhd)
        136355 MiB available memory on the node where the printing process lives
     GPU memory used/free/total (MiB): 83502 / 11808 / 95311
------------------
     ethr =  9.89E-12,  avg # of iterations =  5.0

     negative rho (up, down):  2.200E-03 0.000E+00

     total cpu time spent up to now is     2673.9 secs

     total energy              =  -27035.66492688 Ry
     estimated scf accuracy    <       0.00000017 Ry
[tb_dev] Currently allocated     1.34E-03 Mbytes, locked:    0 /   2
[tb_pin] Currently allocated     0.00E+00 Mbytes, locked:    0 /   0

     iteration # 59     ecut=    71.00 Ry     beta= 0.20
     Davidson diagonalization with overlap

---- Real-time Memory Report at c_bands before calling an iterative solver
         31398 MiB given to the printing process from OS
             0 MiB allocation reported by mallinfo(arena+hblkhd)
        136349 MiB available memory on the node where the printing process lives
     GPU memory used/free/total (MiB): 83502 / 11808 / 95311
------------------
     ethr =  9.89E-12,  avg # of iterations =  4.5

     negative rho (up, down):  2.165E-03 0.000E+00

     total cpu time spent up to now is     2711.0 secs

     total energy              =  -27035.66492693 Ry
     estimated scf accuracy    <       0.00000010 Ry
[tb_dev] Currently allocated     1.34E-03 Mbytes, locked:    0 /   2
[tb_pin] Currently allocated     0.00E+00 Mbytes, locked:    0 /   0

     iteration # 60     ecut=    71.00 Ry     beta= 0.20
     Davidson diagonalization with overlap

---- Real-time Memory Report at c_bands before calling an iterative solver
         31398 MiB given to the printing process from OS
             0 MiB allocation reported by mallinfo(arena+hblkhd)
        136337 MiB available memory on the node where the printing process lives
     GPU memory used/free/total (MiB): 83502 / 11808 / 95311
------------------
     ethr =  7.34E-12,  avg # of iterations =  2.0

     negative rho (up, down):  2.142E-03 0.000E+00

     total cpu time spent up to now is     2743.0 secs

     total energy              =  -27035.66492697 Ry
     estimated scf accuracy    <       0.00000008 Ry
[tb_dev] Currently allocated     1.34E-03 Mbytes, locked:    0 /   2
[tb_pin] Currently allocated     0.00E+00 Mbytes, locked:    0 /   0

     iteration # 61     ecut=    71.00 Ry     beta= 0.20
     Davidson diagonalization with overlap

---- Real-time Memory Report at c_bands before calling an iterative solver
         31398 MiB given to the printing process from OS
             0 MiB allocation reported by mallinfo(arena+hblkhd)
        136335 MiB available memory on the node where the printing process lives
     GPU memory used/free/total (MiB): 83502 / 11808 / 95311
------------------
     ethr =  6.15E-12,  avg # of iterations =  1.8

     negative rho (up, down):  2.129E-03 0.000E+00

     total cpu time spent up to now is     2774.7 secs

     total energy              =  -27035.66492692 Ry
     estimated scf accuracy    <       0.00000007 Ry
[tb_dev] Currently allocated     1.34E-03 Mbytes, locked:    0 /   2
[tb_pin] Currently allocated     0.00E+00 Mbytes, locked:    0 /   0

     iteration # 62     ecut=    71.00 Ry     beta= 0.20
     Davidson diagonalization with overlap

---- Real-time Memory Report at c_bands before calling an iterative solver
         31398 MiB given to the printing process from OS
             0 MiB allocation reported by mallinfo(arena+hblkhd)
        136383 MiB available memory on the node where the printing process lives
     GPU memory used/free/total (MiB): 83502 / 11808 / 95311
------------------
     ethr =  5.47E-12,  avg # of iterations =  2.8

     negative rho (up, down):  2.127E-03 0.000E+00

     total cpu time spent up to now is     2807.8 secs

     total energy              =  -27035.66492687 Ry
     estimated scf accuracy    <       0.00000005 Ry
[tb_dev] Currently allocated     1.34E-03 Mbytes, locked:    0 /   2
[tb_pin] Currently allocated     0.00E+00 Mbytes, locked:    0 /   0

     iteration # 63     ecut=    71.00 Ry     beta= 0.20
     Davidson diagonalization with overlap

---- Real-time Memory Report at c_bands before calling an iterative solver
         31398 MiB given to the printing process from OS
             0 MiB allocation reported by mallinfo(arena+hblkhd)
        136360 MiB available memory on the node where the printing process lives
     GPU memory used/free/total (MiB): 83502 / 11808 / 95311
------------------
     ethr =  4.02E-12,  avg # of iterations =  5.0

     negative rho (up, down):  2.121E-03 0.000E+00

     total cpu time spent up to now is     2845.2 secs

     total energy              =  -27035.66492689 Ry
     estimated scf accuracy    <       0.00000007 Ry
[tb_dev] Currently allocated     1.34E-03 Mbytes, locked:    0 /   2
[tb_pin] Currently allocated     0.00E+00 Mbytes, locked:    0 /   0

     iteration # 64     ecut=    71.00 Ry     beta= 0.20
     Davidson diagonalization with overlap

---- Real-time Memory Report at c_bands before calling an iterative solver
         31398 MiB given to the printing process from OS
             0 MiB allocation reported by mallinfo(arena+hblkhd)
        136316 MiB available memory on the node where the printing process lives
     GPU memory used/free/total (MiB): 83502 / 11808 / 95311
------------------
     ethr =  4.02E-12,  avg # of iterations =  5.5

     negative rho (up, down):  2.133E-03 0.000E+00

     total cpu time spent up to now is     2882.4 secs

     total energy              =  -27035.66492689 Ry
     estimated scf accuracy    <       0.00000003 Ry
[tb_dev] Currently allocated     1.34E-03 Mbytes, locked:    0 /   2
[tb_pin] Currently allocated     0.00E+00 Mbytes, locked:    0 /   0

     iteration # 65     ecut=    71.00 Ry     beta= 0.20
     Davidson diagonalization with overlap

---- Real-time Memory Report at c_bands before calling an iterative solver
         31398 MiB given to the printing process from OS
             0 MiB allocation reported by mallinfo(arena+hblkhd)
        136465 MiB available memory on the node where the printing process lives
     GPU memory used/free/total (MiB): 84182 / 11128 / 95311
------------------
     ethr =  2.50E-12,  avg # of iterations =  4.3

     negative rho (up, down):  2.094E-03 0.000E+00

     total cpu time spent up to now is     2915.8 secs

     total energy              =  -27035.66492689 Ry
     estimated scf accuracy    <       0.00000003 Ry
[tb_dev] Currently allocated     1.34E-03 Mbytes, locked:    0 /   2
[tb_pin] Currently allocated     0.00E+00 Mbytes, locked:    0 /   0

     iteration # 66     ecut=    71.00 Ry     beta= 0.20
     Davidson diagonalization with overlap

---- Real-time Memory Report at c_bands before calling an iterative solver
         31398 MiB given to the printing process from OS
             0 MiB allocation reported by mallinfo(arena+hblkhd)
        136439 MiB available memory on the node where the printing process lives
     GPU memory used/free/total (MiB): 84182 / 11128 / 95311
------------------
     ethr =  2.00E-12,  avg # of iterations =  6.0

     negative rho (up, down):  2.085E-03 0.000E+00

     total cpu time spent up to now is     2950.3 secs

     total energy              =  -27035.66492689 Ry
     estimated scf accuracy    <       0.00000003 Ry
[tb_dev] Currently allocated     1.34E-03 Mbytes, locked:    0 /   2
[tb_pin] Currently allocated     0.00E+00 Mbytes, locked:    0 /   0

     iteration # 67     ecut=    71.00 Ry     beta= 0.20
     Davidson diagonalization with overlap

---- Real-time Memory Report at c_bands before calling an iterative solver
         31398 MiB given to the printing process from OS
             0 MiB allocation reported by mallinfo(arena+hblkhd)
        136522 MiB available memory on the node where the printing process lives
     GPU memory used/free/total (MiB): 84182 / 11128 / 95311
------------------
     ethr =  2.00E-12,  avg # of iterations =  2.0

     negative rho (up, down):  2.084E-03 0.000E+00

     total cpu time spent up to now is     2982.3 secs

     total energy              =  -27035.66492691 Ry
     estimated scf accuracy    <       0.00000003 Ry
[tb_dev] Currently allocated     1.34E-03 Mbytes, locked:    0 /   2
[tb_pin] Currently allocated     0.00E+00 Mbytes, locked:    0 /   0

     iteration # 68     ecut=    71.00 Ry     beta= 0.20
     Davidson diagonalization with overlap

---- Real-time Memory Report at c_bands before calling an iterative solver
         31398 MiB given to the printing process from OS
             0 MiB allocation reported by mallinfo(arena+hblkhd)
        136420 MiB available memory on the node where the printing process lives
     GPU memory used/free/total (MiB): 84182 / 11128 / 95311
------------------
     ethr =  1.93E-12,  avg # of iterations =  2.0

     negative rho (up, down):  2.092E-03 0.000E+00

     total cpu time spent up to now is     3014.4 secs

     total energy              =  -27035.66492691 Ry
     estimated scf accuracy    <       0.00000003 Ry
[tb_dev] Currently allocated     1.34E-03 Mbytes, locked:    0 /   2
[tb_pin] Currently allocated     0.00E+00 Mbytes, locked:    0 /   0

     iteration # 69     ecut=    71.00 Ry     beta= 0.20
     Davidson diagonalization with overlap

---- Real-time Memory Report at c_bands before calling an iterative solver
         31398 MiB given to the printing process from OS
             0 MiB allocation reported by mallinfo(arena+hblkhd)
        136489 MiB available memory on the node where the printing process lives
     GPU memory used/free/total (MiB): 84182 / 11128 / 95311
------------------
     ethr =  1.91E-12,  avg # of iterations =  1.8

     negative rho (up, down):  2.097E-03 0.000E+00

     total cpu time spent up to now is     3045.9 secs

     total energy              =  -27035.66492688 Ry
     estimated scf accuracy    <       0.00000001 Ry
[tb_dev] Currently allocated     1.34E-03 Mbytes, locked:    0 /   2
[tb_pin] Currently allocated     0.00E+00 Mbytes, locked:    0 /   0

     iteration # 70     ecut=    71.00 Ry     beta= 0.20
     Davidson diagonalization with overlap

---- Real-time Memory Report at c_bands before calling an iterative solver
         31398 MiB given to the printing process from OS
             0 MiB allocation reported by mallinfo(arena+hblkhd)
        136508 MiB available memory on the node where the printing process lives
     GPU memory used/free/total (MiB): 84182 / 11128 / 95311
------------------
     ethr =  8.65E-13,  avg # of iterations =  5.0

     negative rho (up, down):  2.088E-03 0.000E+00

     total cpu time spent up to now is     3084.9 secs

     total energy              =  -27035.66492688 Ry
     estimated scf accuracy    <       0.00000001 Ry
[tb_dev] Currently allocated     1.34E-03 Mbytes, locked:    0 /   2
[tb_pin] Currently allocated     0.00E+00 Mbytes, locked:    0 /   0

     iteration # 71     ecut=    71.00 Ry     beta= 0.20
     Davidson diagonalization with overlap

---- Real-time Memory Report at c_bands before calling an iterative solver
         31398 MiB given to the printing process from OS
             0 MiB allocation reported by mallinfo(arena+hblkhd)
        136664 MiB available memory on the node where the printing process lives
     GPU memory used/free/total (MiB): 84182 / 11128 / 95311
------------------
     ethr =  8.54E-13,  avg # of iterations =  5.8

     negative rho (up, down):  2.088E-03 0.000E+00

     total cpu time spent up to now is     3120.6 secs

     total energy              =  -27035.66492691 Ry
     estimated scf accuracy    <          3.0E-09 Ry
[tb_dev] Currently allocated     1.34E-03 Mbytes, locked:    0 /   2
[tb_pin] Currently allocated     0.00E+00 Mbytes, locked:    0 /   0

     iteration # 72     ecut=    71.00 Ry     beta= 0.20
     Davidson diagonalization with overlap

---- Real-time Memory Report at c_bands before calling an iterative solver
         31398 MiB given to the printing process from OS
             0 MiB allocation reported by mallinfo(arena+hblkhd)
        136602 MiB available memory on the node where the printing process lives
     GPU memory used/free/total (MiB): 84182 / 11128 / 95311
------------------
     ethr =  2.23E-13,  avg # of iterations =  5.0

     negative rho (up, down):  2.089E-03 0.000E+00

     total cpu time spent up to now is     3154.3 secs

     total energy              =  -27035.66492691 Ry
     estimated scf accuracy    <          1.8E-09 Ry
[tb_dev] Currently allocated     1.34E-03 Mbytes, locked:    0 /   2
[tb_pin] Currently allocated     0.00E+00 Mbytes, locked:    0 /   0

     iteration # 73     ecut=    71.00 Ry     beta= 0.20
     Davidson diagonalization with overlap

---- Real-time Memory Report at c_bands before calling an iterative solver
         31398 MiB given to the printing process from OS
             0 MiB allocation reported by mallinfo(arena+hblkhd)
        136544 MiB available memory on the node where the printing process lives
     GPU memory used/free/total (MiB): 84182 / 11128 / 95311
------------------
     ethr =  1.32E-13,  avg # of iterations =  5.0

     negative rho (up, down):  2.090E-03 0.000E+00

     total cpu time spent up to now is     3191.4 secs

     total energy              =  -27035.66492691 Ry
     estimated scf accuracy    <          1.5E-09 Ry
[tb_dev] Currently allocated     1.34E-03 Mbytes, locked:    0 /   2
[tb_pin] Currently allocated     0.00E+00 Mbytes, locked:    0 /   0

     iteration # 74     ecut=    71.00 Ry     beta= 0.20
     Davidson diagonalization with overlap

---- Real-time Memory Report at c_bands before calling an iterative solver
         31398 MiB given to the printing process from OS
             0 MiB allocation reported by mallinfo(arena+hblkhd)
        136540 MiB available memory on the node where the printing process lives
     GPU memory used/free/total (MiB): 84182 / 11128 / 95311
------------------
     ethr =  1.09E-13,  avg # of iterations =  2.0

     negative rho (up, down):  2.094E-03 0.000E+00

     total cpu time spent up to now is     3223.6 secs

     total energy              =  -27035.66492692 Ry
     estimated scf accuracy    <          1.1E-09 Ry
[tb_dev] Currently allocated     1.34E-03 Mbytes, locked:    0 /   2
[tb_pin] Currently allocated     0.00E+00 Mbytes, locked:    0 /   0

     iteration # 75     ecut=    71.00 Ry     beta= 0.20
     Davidson diagonalization with overlap

---- Real-time Memory Report at c_bands before calling an iterative solver
         31398 MiB given to the printing process from OS
             0 MiB allocation reported by mallinfo(arena+hblkhd)
        136454 MiB available memory on the node where the printing process lives
     GPU memory used/free/total (MiB): 84182 / 11128 / 95311
------------------
     ethr =  1.00E-13,  avg # of iterations =  6.3

     negative rho (up, down):  2.107E-03 0.000E+00

     total cpu time spent up to now is     3257.1 secs

     End of self-consistent calculation

          k = 0.0000 0.0000 0.0000 (327585 PWs)   bands (ev):

   -18.2609 -18.2609 -18.1465 -18.1465 -18.1181 -18.1181 -18.0704 -18.0704
   -17.9186 -17.9186 -17.8538 -17.8538 -17.8262 -17.8262 -17.7687 -17.7686
   -17.7677 -17.7677 -17.7430 -17.7430 -17.6798 -17.6798 -17.6718 -17.6718
   -17.3303 -17.1972 -16.9778 -16.9721 -16.9623 -16.9222 -16.8826 -16.8824
   -16.8734 -16.8654 -16.8513 -16.8473 -16.8286 -16.7921 -16.7828 -16.7776
   -16.7606 -16.7531 -16.7516 -16.7475 -16.7432 -16.7410 -16.7391 -16.7379
   -16.7301 -16.7063 -16.6856 -16.6713 -16.6549 -16.6129 -16.5991 -16.5924
   -16.5730 -16.5595 -16.5330 -16.5309 -16.5264 -16.5214 -16.5105 -16.5080
   -16.4848 -16.4834 -16.4813 -16.4809 -16.4807 -16.4719 -16.4602 -16.4601
   -16.4536 -16.4495 -16.4470 -16.4403 -16.4393 -16.4234 -16.4198 -16.4051
   -16.3883 -16.3881 -16.3798 -16.3729 -16.3557 -16.3532 -16.3380 -16.3260
   -16.3212 -16.3051 -16.3047 -16.2918 -16.2891 -16.2852 -16.2068 -16.1464
   -12.3997 -12.3990 -12.3975 -12.3747 -12.3691 -12.3684 -12.3593 -12.3592
   -12.3500 -12.3496 -12.3424 -12.3415 -12.3396 -12.3388 -12.3385 -12.3342
   -12.3330 -12.3278 -12.3277 -12.3261 -12.3242 -12.3213 -12.3207 -12.3172
   -12.3170 -12.3161 -12.3121 -12.3111 -12.3090 -12.3080 -12.3060 -12.3054
   -12.3032 -12.3002 -12.2993 -12.2991 -12.2976 -12.2960 -12.2911 -12.2911
   -12.2834 -12.2793 -12.2771 -12.2752 -12.2740 -12.2714 -12.2684 -12.2670
   -12.2669 -12.2641 -12.2613 -12.2610 -12.2594 -12.2591 -12.2543 -12.2530
   -12.2509 -12.2499 -12.2483 -12.2482 -12.2466 -12.2465 -12.2452 -12.2450
   -12.2440 -12.2391 -12.2390 -12.2383 -12.2357 -12.2338 -12.2337 -12.2303
   -12.2296 -12.2286 -12.2283 -12.2274 -12.2261 -12.2257 -12.2198 -12.2195
   -12.2169 -12.2168 -12.2165 -12.2148 -12.2143 -12.2109 -12.2102 -12.2095
   -12.2042 -12.2035 -12.2022 -12.1990 -12.1975 -12.1967 -12.1964 -12.1941
   -12.1935 -12.1922 -12.1903 -12.1896 -12.1840 -12.1803 -12.1784 -12.1756
   -12.1710 -12.1690 -12.1658 -12.1620 -12.1613 -12.1606 -12.1564 -12.1551
   -12.1550 -12.1549 -12.1526 -12.1494 -12.1474 -12.1444 -12.1403 -12.1364
   -12.1350 -12.1332 -12.1294 -12.1260 -12.1260 -12.1250 -12.1249 -12.1248
   -12.1227 -12.1195 -12.1175 -12.1175 -12.1155 -12.1142 -12.1134 -12.1126
   -12.1092 -12.1088 -12.1073 -12.1070 -12.1063 -12.1061 -12.1032 -12.0993
   -12.0964 -12.0962 -12.0959 -12.0949 -12.0947 -12.0939 -12.0935 -12.0934
   -12.0913 -12.0887 -12.0866 -12.0852 -12.0843 -12.0805 -12.0771 -12.0765
   -12.0728 -12.0716 -12.0703 -12.0673 -12.0667 -12.0640 -12.0639 -12.0626
   -12.0593 -12.0585 -12.0559 -12.0537 -12.0480 -12.0445 -12.0386 -12.0384
   -12.0383 -12.0373 -12.0357 -12.0353 -12.0319 -12.0278 -12.0224 -12.0210
   -12.0201 -12.0168 -12.0137 -12.0097 -12.0088 -12.0058 -12.0052 -12.0033
   -12.0014 -12.0011 -12.0001 -11.9986 -11.9981 -11.9973 -11.9966 -11.9935
   -11.9887 -11.9854 -11.9848 -11.9847 -11.9844 -11.9806 -11.9792 -11.9787
   -11.9770 -11.9739 -11.9728 -11.9715 -11.9683 -11.9653 -11.9651 -11.9627
   -11.9621 -11.9619 -11.9596 -11.9574 -11.9476 -11.9465 -11.9424 -11.9421
   -11.9383 -11.9333 -11.9327 -11.9246 -11.9156 -11.9054 -11.8838 -11.8568
   -11.8534 -11.8438 -11.8352 -11.8319 -11.8318 -11.8310 -11.7906 -11.7818
   -11.7546 -11.7267 -11.7200 -11.7128 -11.6939 -11.6898 -11.6148 -11.6070
   -11.5804 -11.5657 -11.5471 -11.5315 -11.5305 -11.5229 -11.4943 -11.4601
   -11.3962 -11.3881 -11.3797 -11.3791 -11.3739 -11.3672 -11.3583 -11.3536
   -11.3466 -11.3316 -11.3309 -11.3064 -11.2908 -11.2831 -11.2703 -11.2693
   -11.2670 -11.2434 -11.1428 -11.1142 -11.0997 -11.0063 -11.0001 -10.9999
    -5.8378  -5.8377  -5.6723  -5.6722  -5.6632  -5.6632  -5.6498  -5.6463
    -5.5194  -5.5187  -5.4421  -5.4403  -5.3786  -5.3785  -5.3633  -5.3549
    -5.1825  -5.1795  -5.0532  -4.9913  -4.9891  -4.9558  -4.9472  -4.9206
    -4.8668  -4.7969  -4.7830  -4.7749  -4.7447  -4.7213  -4.7128  -4.7127
    -4.6965  -4.6710  -4.6513  -4.6411  -4.6252  -4.6086  -4.5777  -4.5540
    -4.4768  -4.3845  -4.3682  -4.3250  -4.3194  -4.2810  -4.2482  -4.2372
    -4.2331  -4.2270  -4.2001  -4.1695  -4.1576  -4.1475  -4.1465  -4.0993
    -4.0702  -4.0412  -3.9770  -3.9107  -3.8259  -3.7808  -3.7782  -3.7364
    -3.6925  -3.6734  -3.6579  -3.6354  -3.5557  -3.5445  -3.5268  -3.5211
    -3.5178  -3.4891  -3.4488  -3.4310  -3.4179  -3.4149  -3.3994  -3.3858
    -3.3614  -3.3253  -3.2821  -3.2558  -3.2518  -3.1886  -3.1622  -3.1371
    -3.0865  -3.0522  -3.0408  -3.0260  -3.0036  -2.9955  -2.9600  -2.9573
    -2.9414  -2.9314  -2.9305  -2.7897  -2.7753  -2.7726  -2.7723  -2.7695
    -2.7627  -2.7508  -2.7127  -2.6915  -2.6394  -2.6290  -2.6101  -2.5721
    -2.5591  -2.5590  -2.5048  -2.4433  -2.4355  -2.4305  -2.4270  -2.4259
    -2.3868  -2.3744  -2.3602  -2.3141  -2.2697  -2.2669  -2.2176  -2.1389
    -2.1371  -2.1274  -2.0861  -2.0849  -2.0730  -2.0649  -2.0144  -1.9873
    -1.9798  -1.9738  -1.9710  -1.9617  -1.9536  -1.9412  -1.9193  -1.9072
    -1.9036  -1.8952  -1.8500  -1.7988  -1.7917  -1.7848  -1.7696  -1.7651
    -1.7606  -1.7057  -1.6931  -1.6872  -1.6818  -1.6701  -1.6656  -1.6234
    -1.6016  -1.5932  -1.5924  -1.5898  -1.5832  -1.5594  -1.5541  -1.5341
    -1.5176  -1.5073  -1.5058  -1.5026  -1.5022  -1.5010  -1.4915  -1.4666
    -1.4564  -1.4449  -1.4039  -1.3749  -1.3570  -1.3561  -1.3086  -1.3041
    -1.3013  -1.3004  -1.2936  -1.2621  -1.2249  -1.2194  -1.2042  -1.1889
    -1.1636  -1.1536  -1.1524  -1.1396  -1.1328  -1.1054  -1.1010  -1.0744
    -1.0408  -0.9915  -0.9841  -0.9814  -0.9770  -0.9734  -0.9685  -0.9359
    -0.9063  -0.9035  -0.8570  -0.8277  -0.8177  -0.8021  -0.7985  -0.7935
    -0.7698  -0.7530  -0.7319  -0.7266  -0.7085  -0.6598  -0.6173  -0.6121
    -0.5859  -0.5725  -0.5610  -0.5589  -0.5575  -0.5217  -0.5216  -0.5184
    -0.4956  -0.4864  -0.4806  -0.4764  -0.4699  -0.4518  -0.4392  -0.4353
    -0.4197  -0.4060  -0.3753  -0.3752  -0.3497  -0.3482  -0.3163  -0.3128
    -0.3032  -0.3005  -0.2993  -0.2903  -0.2757  -0.2526  -0.2480  -0.2480
    -0.2478  -0.2399  -0.2389  -0.2224  -0.2209  -0.2096  -0.2025  -0.1888
    -0.1874  -0.1868  -0.1825  -0.1752  -0.1662  -0.1629  -0.1554  -0.1540
    -0.1535  -0.1520  -0.1335  -0.1309  -0.1166  -0.0968  -0.0955  -0.0826
    -0.0629  -0.0433  -0.0244  -0.0031   0.0061   0.0250   0.0380   0.0473
     1.2712   1.9904   2.7973   3.5926   4.0052   4.0188   4.0257   4.0393
     4.2872   4.3198   4.3260   4.3398   4.3521   4.6942   4.7334   4.7679

     occupation numbers 
     1.0000   1.0000   1.0000   1.0000   1.0000   1.0000   1.0000   1.0000
     1.0000   1.0000   1.0000   1.0000   1.0000   1.0000   1.0000   1.0000
     1.0000   1.0000   1.0000   1.0000   1.0000   1.0000   1.0000   1.0000
     1.0000   1.0000   1.0000   1.0000   1.0000   1.0000   1.0000   1.0000
     1.0000   1.0000   1.0000   1.0000   1.0000   1.0000   1.0000   1.0000
     1.0000   1.0000   1.0000   1.0000   1.0000   1.0000   1.0000   1.0000
     1.0000   1.0000   1.0000   1.0000   1.0000   1.0000   1.0000   1.0000
     1.0000   1.0000   1.0000   1.0000   1.0000   1.0000   1.0000   1.0000
     1.0000   1.0000   1.0000   1.0000   1.0000   1.0000   1.0000   1.0000
     1.0000   1.0000   1.0000   1.0000   1.0000   1.0000   1.0000   1.0000
     1.0000   1.0000   1.0000   1.0000   1.0000   1.0000   1.0000   1.0000
     1.0000   1.0000   1.0000   1.0000   1.0000   1.0000   1.0000   1.0000
     1.0000   1.0000   1.0000   1.0000   1.0000   1.0000   1.0000   1.0000
     1.0000   1.0000   1.0000   1.0000   1.0000   1.0000   1.0000   1.0000
     1.0000   1.0000   1.0000   1.0000   1.0000   1.0000   1.0000   1.0000
     1.0000   1.0000   1.0000   1.0000   1.0000   1.0000   1.0000   1.0000
     1.0000   1.0000   1.0000   1.0000   1.0000   1.0000   1.0000   1.0000
     1.0000   1.0000   1.0000   1.0000   1.0000   1.0000   1.0000   1.0000
     1.0000   1.0000   1.0000   1.0000   1.0000   1.0000   1.0000   1.0000
     1.0000   1.0000   1.0000   1.0000   1.0000   1.0000   1.0000   1.0000
     1.0000   1.0000   1.0000   1.0000   1.0000   1.0000   1.0000   1.0000
     1.0000   1.0000   1.0000   1.0000   1.0000   1.0000   1.0000   1.0000
     1.0000   1.0000   1.0000   1.0000   1.0000   1.0000   1.0000   1.0000
     1.0000   1.0000   1.0000   1.0000   1.0000   1.0000   1.0000   1.0000
     1.0000   1.0000   1.0000   1.0000   1.0000   1.0000   1.0000   1.0000
     1.0000   1.0000   1.0000   1.0000   1.0000   1.0000   1.0000   1.0000
     1.0000   1.0000   1.0000   1.0000   1.0000   1.0000   1.0000   1.0000
     1.0000   1.0000   1.0000   1.0000   1.0000   1.0000   1.0000   1.0000
     1.0000   1.0000   1.0000   1.0000   1.0000   1.0000   1.0000   1.0000
     1.0000   1.0000   1.0000   1.0000   1.0000   1.0000   1.0000   1.0000
     1.0000   1.0000   1.0000   1.0000   1.0000   1.0000   1.0000   1.0000
     1.0000   1.0000   1.0000   1.0000   1.0000   1.0000   1.0000   1.0000
     1.0000   1.0000   1.0000   1.0000   1.0000   1.0000   1.0000   1.0000
     1.0000   1.0000   1.0000   1.0000   1.0000   1.0000   1.0000   1.0000
     1.0000   1.0000   1.0000   1.0000   1.0000   1.0000   1.0000   1.0000
     1.0000   1.0000   1.0000   1.0000   1.0000   1.0000   1.0000   1.0000
     1.0000   1.0000   1.0000   1.0000   1.0000   1.0000   1.0000   1.0000
     1.0000   1.0000   1.0000   1.0000   1.0000   1.0000   1.0000   1.0000
     1.0000   1.0000   1.0000   1.0000   1.0000   1.0000   1.0000   1.0000
     1.0000   1.0000   1.0000   1.0000   1.0000   1.0000   1.0000   1.0000
     1.0000   1.0000   1.0000   1.0000   1.0000   1.0000   1.0000   1.0000
     1.0000   1.0000   1.0000   1.0000   1.0000   1.0000   1.0000   1.0000
     1.0000   1.0000   1.0000   1.0000   1.0000   1.0000   1.0000   1.0000
     1.0000   1.0000   1.0000   1.0000   1.0000   1.0000   1.0000   1.0000
     1.0000   1.0000   1.0000   1.0000   1.0000   1.0000   1.0000   1.0000
     1.0000   1.0000   1.0000   1.0000   1.0000   1.0000   1.0000   1.0000
     1.0000   1.0000   1.0000   1.0000   1.0000   1.0000   1.0000   1.0000
     1.0000   1.0000   1.0000   1.0000   1.0000   1.0000   1.0000   1.0000
     1.0000   1.0000   1.0000   1.0000   1.0000   1.0000   1.0000   1.0000
     1.0000   1.0000   1.0000   1.0000   1.0000   1.0000   1.0000   1.0000
     1.0000   1.0000   1.0000   1.0000   1.0000   1.0000   1.0000   1.0000
     1.0000   1.0000   1.0000   1.0000   1.0000   1.0000   1.0000   1.0000
     1.0000   1.0000   1.0000   1.0000   1.0000   1.0000   1.0000   1.0000
     1.0000   1.0000   1.0000   1.0000   1.0000   1.0000   1.0000   1.0000
     1.0000   1.0000   1.0000   1.0000   1.0000   1.0000   1.0000   1.0000
     1.0000   1.0000   1.0000   1.0000   1.0000   1.0000   1.0000   1.0000
     1.0000   1.0000   1.0000   1.0000   1.0000   1.0000   1.0000   1.0000
     1.0000   1.0000   1.0000   1.0000   1.0000   1.0000   1.0000   1.0000
     1.0000   1.0000   1.0000   1.0000   1.0000   1.0000   1.0000   1.0000
     1.0000   1.0000   1.0000   1.0000   1.0000   1.0000   1.0000   1.0000
     1.0000   1.0000   1.0000   1.0000   1.0000   1.0000   1.0000   1.0000
     1.0000   1.0000   1.0000   1.0000   1.0000   1.0000   1.0000   1.0000
     1.0000   1.0000   1.0000   1.0000   1.0000   1.0000   1.0000   1.0000
     1.0000   1.0000   1.0000   1.0000   1.0000   1.0000   1.0000   1.0000
     1.0000   1.0000   1.0000   1.0000   1.0000   1.0000   1.0000   1.0000
     1.0000   1.0000   1.0000   1.0000   1.0000   1.0000   1.0000   1.0000
     1.0000   1.0000   1.0000   1.0000   1.0000   1.0000   1.0000   1.0000
     1.0000   1.0000   1.0000   1.0000   1.0000   1.0000   1.0000   1.0000
     1.0000   1.0000   1.0000   1.0000   1.0000   1.0000   1.0000   1.0000
     1.0000   1.0000   1.0000   1.0000   1.0000   1.0000   1.0000   1.0000
     1.0000   1.0000   1.0000   1.0000   1.0000   1.0000   1.0000   1.0000
     1.0000   1.0000   1.0000   1.0000   1.0000   1.0000   1.0000   1.0000
     1.0000   1.0000   1.0000   1.0000   1.0000   1.0000   1.0000   1.0000
     1.0000   1.0000   1.0000   1.0000   1.0000   1.0000   1.0000   1.0000
     1.0000   1.0000   1.0000   1.0000   1.0000   1.0000   1.0000   1.0000
     1.0000   1.0000   1.0000   1.0000   1.0000   1.0000   1.0000   1.0000
     1.0000   1.0000   1.0000   1.0000   1.0000   1.0000   1.0000   1.0000
     1.0000   1.0000   1.0000   1.0000   1.0000   1.0000   1.0000   1.0000
     1.0000   1.0000   1.0000   1.0000   1.0000   1.0000   1.0000   1.0000
     1.0000   1.0000   1.0000   1.0000   1.0000   1.0000   1.0000   1.0000
     1.0000   1.0000   1.0000   1.0000   1.0000   1.0000   1.0000   1.0000
     1.0000   1.0000   1.0000   1.0000   1.0000   1.0000   1.0000   1.0000
     1.0000   1.0000   1.0000   1.0000   1.0000   1.0000   1.0000   1.0000
     0.0000   0.0000   0.0000   0.0000   0.0000   0.0000   0.0000   0.0000
     0.0000   0.0000   0.0000   0.0000   0.0000   0.0000   0.0000   0.0000

          k = 0.0000 0.3336 0.0000 (327620 PWs)   bands (ev):

   -18.2332 -18.2332 -18.1655 -18.1654 -18.1307 -18.1307 -18.0934 -18.0934
   -17.8828 -17.8828 -17.8415 -17.8415 -17.8304 -17.8304 -17.7866 -17.7866
   -17.7579 -17.7579 -17.7457 -17.7457 -17.6816 -17.6816 -17.6770 -17.6770
   -17.2771 -17.1542 -17.1308 -17.0377 -16.9581 -16.9401 -16.9044 -16.8865
   -16.8762 -16.8727 -16.8330 -16.8286 -16.8179 -16.7981 -16.7942 -16.7892
   -16.7859 -16.7616 -16.7334 -16.7324 -16.7202 -16.7190 -16.7073 -16.6933
   -16.6720 -16.6696 -16.6527 -16.6428 -16.6116 -16.6074 -16.6002 -16.5867
   -16.5781 -16.5543 -16.5496 -16.5495 -16.5493 -16.5274 -16.5257 -16.5216
   -16.5176 -16.4977 -16.4854 -16.4802 -16.4766 -16.4764 -16.4625 -16.4583
   -16.4575 -16.4553 -16.4436 -16.4319 -16.4294 -16.4208 -16.4203 -16.4197
   -16.4173 -16.4027 -16.3944 -16.3806 -16.3519 -16.3339 -16.3320 -16.3266
   -16.3134 -16.3121 -16.3121 -16.2931 -16.2776 -16.2383 -16.2268 -16.1720
   -12.3829 -12.3828 -12.3819 -12.3705 -12.3571 -12.3524 -12.3509 -12.3490
   -12.3486 -12.3435 -12.3435 -12.3403 -12.3371 -12.3359 -12.3337 -12.3336
   -12.3315 -12.3279 -12.3275 -12.3249 -12.3244 -12.3225 -12.3200 -12.3196
   -12.3192 -12.3184 -12.3144 -12.3136 -12.3126 -12.3097 -12.3079 -12.3042
   -12.3034 -12.2958 -12.2956 -12.2923 -12.2908 -12.2906 -12.2892 -12.2891
   -12.2878 -12.2874 -12.2871 -12.2852 -12.2817 -12.2815 -12.2792 -12.2735
   -12.2717 -12.2700 -12.2687 -12.2678 -12.2650 -12.2629 -12.2616 -12.2597
   -12.2579 -12.2527 -12.2482 -12.2479 -12.2474 -12.2471 -12.2455 -12.2444
   -12.2406 -12.2402 -12.2376 -12.2358 -12.2330 -12.2327 -12.2322 -12.2303
   -12.2300 -12.2298 -12.2264 -12.2263 -12.2261 -12.2237 -12.2218 -12.2201
   -12.2200 -12.2177 -12.2167 -12.2154 -12.2125 -12.2103 -12.2100 -12.2096
   -12.2094 -12.2043 -12.2009 -12.2000 -12.1991 -12.1986 -12.1935 -12.1915
   -12.1886 -12.1873 -12.1870 -12.1855 -12.1842 -12.1827 -12.1816 -12.1800
   -12.1781 -12.1769 -12.1746 -12.1716 -12.1694 -12.1677 -12.1653 -12.1648
   -12.1638 -12.1593 -12.1585 -12.1577 -12.1547 -12.1521 -12.1501 -12.1473
   -12.1472 -12.1398 -12.1344 -12.1338 -12.1315 -12.1314 -12.1297 -12.1292
   -12.1274 -12.1268 -12.1238 -12.1233 -12.1228 -12.1212 -12.1205 -12.1146
   -12.1131 -12.1056 -12.1048 -12.1046 -12.1031 -12.1019 -12.1002 -12.0995
   -12.0994 -12.0965 -12.0946 -12.0917 -12.0898 -12.0887 -12.0846 -12.0835
   -12.0824 -12.0823 -12.0810 -12.0788 -12.0749 -12.0734 -12.0717 -12.0713
   -12.0698 -12.0687 -12.0657 -12.0656 -12.0625 -12.0606 -12.0570 -12.0569
   -12.0499 -12.0488 -12.0485 -12.0471 -12.0386 -12.0355 -12.0344 -12.0344
   -12.0279 -12.0279 -12.0271 -12.0263 -12.0246 -12.0216 -12.0216 -12.0206
   -12.0179 -12.0157 -12.0143 -12.0102 -12.0091 -12.0091 -12.0076 -12.0057
   -12.0037 -12.0008 -11.9981 -11.9962 -11.9950 -11.9946 -11.9930 -11.9909
   -11.9878 -11.9870 -11.9852 -11.9850 -11.9838 -11.9824 -11.9816 -11.9811
   -11.9787 -11.9774 -11.9769 -11.9765 -11.9732 -11.9726 -11.9707 -11.9692
   -11.9610 -11.9571 -11.9567 -11.9530 -11.9508 -11.9476 -11.9473 -11.9461
   -11.9432 -11.9340 -11.9268 -11.9218 -11.9212 -11.9018 -11.8985 -11.8861
   -11.8661 -11.8472 -11.8418 -11.8118 -11.8109 -11.7806 -11.7730 -11.7606
   -11.7508 -11.7235 -11.7168 -11.6953 -11.6808 -11.6785 -11.6584 -11.6419
   -11.6058 -11.5562 -11.5473 -11.5350 -11.5242 -11.5059 -11.4886 -11.4773
   -11.4657 -11.4355 -11.4135 -11.4073 -11.4071 -11.3661 -11.3548 -11.3441
   -11.3318 -11.3270 -11.3020 -11.2948 -11.2746 -11.2713 -11.2197 -11.2053
   -11.2040 -11.1914 -11.1296 -11.1258 -11.1122 -11.0599 -11.0531 -11.0325
    -5.8137  -5.8134  -5.7454  -5.7445  -5.6692  -5.6691  -5.6566  -5.6559
    -5.5008  -5.4987  -5.4688  -5.4664  -5.3076  -5.3062  -5.3059  -5.3019
    -5.0754  -5.0715  -4.9969  -4.9717  -4.9339  -4.9201  -4.9061  -4.8627
    -4.8573  -4.8352  -4.8001  -4.7971  -4.7924  -4.7919  -4.7742  -4.7236
    -4.7202  -4.6622  -4.6423  -4.6092  -4.5991  -4.5764  -4.5637  -4.5316
    -4.4909  -4.4891  -4.4822  -4.4323  -4.4229  -4.4008  -4.3955  -4.3382
    -4.3200  -4.2943  -4.2827  -4.2392  -4.2342  -4.2000  -4.0940  -4.0937
    -4.0885  -4.0851  -3.9328  -3.8260  -3.8226  -3.7899  -3.7602  -3.7498
    -3.7198  -3.7133  -3.7042  -3.6878  -3.6336  -3.6022  -3.5798  -3.5020
    -3.4867  -3.4393  -3.4143  -3.3944  -3.3509  -3.3298  -3.3271  -3.2594
    -3.2530  -3.2505  -3.1947  -3.1944  -3.1839  -3.0833  -3.0763  -3.0394
    -3.0232  -2.9952  -2.9849  -2.9697  -2.9592  -2.9553  -2.9465  -2.9251
    -2.9061  -2.8705  -2.8524  -2.8123  -2.7898  -2.7882  -2.7496  -2.7263
    -2.6969  -2.6942  -2.6817  -2.6394  -2.6102  -2.5806  -2.5798  -2.5653
    -2.5203  -2.5192  -2.4848  -2.4601  -2.4599  -2.4513  -2.4422  -2.3896
    -2.3551  -2.3477  -2.3390  -2.3007  -2.2943  -2.2842  -2.2721  -2.2232
    -2.2160  -2.1946  -2.1763  -2.1539  -2.1390  -2.0981  -2.0884  -2.0786
    -2.0474  -2.0416  -2.0348  -2.0076  -1.9772  -1.9700  -1.9626  -1.9559
    -1.9500  -1.9027  -1.8616  -1.8499  -1.8443  -1.8229  -1.8053  -1.7912
    -1.7875  -1.7820  -1.7507  -1.7481  -1.7304  -1.7249  -1.6757  -1.6694
    -1.6333  -1.6051  -1.5974  -1.5732  -1.5664  -1.5549  -1.5434  -1.5269
    -1.5253  -1.5092  -1.4881  -1.4814  -1.4790  -1.4110  -1.4065  -1.4053
    -1.3952  -1.3720  -1.3712  -1.3489  -1.3161  -1.3121  -1.3039  -1.2751
    -1.2651  -1.2583  -1.2439  -1.2312  -1.2264  -1.2162  -1.1919  -1.1689
    -1.1632  -1.1445  -1.1365  -1.0990  -1.0863  -1.0600  -1.0437  -1.0351
    -0.9914  -0.9780  -0.9703  -0.9668  -0.9389  -0.9318  -0.9252  -0.9175
    -0.8898  -0.8772  -0.8366  -0.8358  -0.8334  -0.8185  -0.7972  -0.7950
    -0.7915  -0.7837  -0.7575  -0.7331  -0.7116  -0.7036  -0.6918  -0.6861
    -0.6683  -0.6401  -0.6344  -0.6263  -0.6096  -0.6064  -0.5516  -0.5458
    -0.5451  -0.5248  -0.5169  -0.5047  -0.4822  -0.4697  -0.4611  -0.4347
    -0.4313  -0.4040  -0.4036  -0.4009  -0.3814  -0.3641  -0.3619  -0.3505
    -0.3106  -0.3092  -0.3066  -0.3046  -0.2924  -0.2908  -0.2856  -0.2814
    -0.2465  -0.2409  -0.2359  -0.2282  -0.2265  -0.2254  -0.2252  -0.1989
    -0.1962  -0.1919  -0.1856  -0.1766  -0.1655  -0.1584  -0.1514  -0.1437
    -0.1170  -0.1089  -0.0995  -0.0958  -0.0947  -0.0897  -0.0844  -0.0824
    -0.0746  -0.0335  -0.0286  -0.0203   0.0078   0.0148   0.0183   0.0401
     1.8693   2.4305   2.9363   3.1286   3.3428   3.8517   3.8785   4.2287
     4.2552   4.4567   4.4882   4.4891   4.5106   4.7314   4.7823   4.8166

     occupation numbers 
     1.0000   1.0000   1.0000   1.0000   1.0000   1.0000   1.0000   1.0000
     1.0000   1.0000   1.0000   1.0000   1.0000   1.0000   1.0000   1.0000
     1.0000   1.0000   1.0000   1.0000   1.0000   1.0000   1.0000   1.0000
     1.0000   1.0000   1.0000   1.0000   1.0000   1.0000   1.0000   1.0000
     1.0000   1.0000   1.0000   1.0000   1.0000   1.0000   1.0000   1.0000
     1.0000   1.0000   1.0000   1.0000   1.0000   1.0000   1.0000   1.0000
     1.0000   1.0000   1.0000   1.0000   1.0000   1.0000   1.0000   1.0000
     1.0000   1.0000   1.0000   1.0000   1.0000   1.0000   1.0000   1.0000
     1.0000   1.0000   1.0000   1.0000   1.0000   1.0000   1.0000   1.0000
     1.0000   1.0000   1.0000   1.0000   1.0000   1.0000   1.0000   1.0000
     1.0000   1.0000   1.0000   1.0000   1.0000   1.0000   1.0000   1.0000
     1.0000   1.0000   1.0000   1.0000   1.0000   1.0000   1.0000   1.0000
     1.0000   1.0000   1.0000   1.0000   1.0000   1.0000   1.0000   1.0000
     1.0000   1.0000   1.0000   1.0000   1.0000   1.0000   1.0000   1.0000
     1.0000   1.0000   1.0000   1.0000   1.0000   1.0000   1.0000   1.0000
     1.0000   1.0000   1.0000   1.0000   1.0000   1.0000   1.0000   1.0000
     1.0000   1.0000   1.0000   1.0000   1.0000   1.0000   1.0000   1.0000
     1.0000   1.0000   1.0000   1.0000   1.0000   1.0000   1.0000   1.0000
     1.0000   1.0000   1.0000   1.0000   1.0000   1.0000   1.0000   1.0000
     1.0000   1.0000   1.0000   1.0000   1.0000   1.0000   1.0000   1.0000
     1.0000   1.0000   1.0000   1.0000   1.0000   1.0000   1.0000   1.0000
     1.0000   1.0000   1.0000   1.0000   1.0000   1.0000   1.0000   1.0000
     1.0000   1.0000   1.0000   1.0000   1.0000   1.0000   1.0000   1.0000
     1.0000   1.0000   1.0000   1.0000   1.0000   1.0000   1.0000   1.0000
     1.0000   1.0000   1.0000   1.0000   1.0000   1.0000   1.0000   1.0000
     1.0000   1.0000   1.0000   1.0000   1.0000   1.0000   1.0000   1.0000
     1.0000   1.0000   1.0000   1.0000   1.0000   1.0000   1.0000   1.0000
     1.0000   1.0000   1.0000   1.0000   1.0000   1.0000   1.0000   1.0000
     1.0000   1.0000   1.0000   1.0000   1.0000   1.0000   1.0000   1.0000
     1.0000   1.0000   1.0000   1.0000   1.0000   1.0000   1.0000   1.0000
     1.0000   1.0000   1.0000   1.0000   1.0000   1.0000   1.0000   1.0000
     1.0000   1.0000   1.0000   1.0000   1.0000   1.0000   1.0000   1.0000
     1.0000   1.0000   1.0000   1.0000   1.0000   1.0000   1.0000   1.0000
     1.0000   1.0000   1.0000   1.0000   1.0000   1.0000   1.0000   1.0000
     1.0000   1.0000   1.0000   1.0000   1.0000   1.0000   1.0000   1.0000
     1.0000   1.0000   1.0000   1.0000   1.0000   1.0000   1.0000   1.0000
     1.0000   1.0000   1.0000   1.0000   1.0000   1.0000   1.0000   1.0000
     1.0000   1.0000   1.0000   1.0000   1.0000   1.0000   1.0000   1.0000
     1.0000   1.0000   1.0000   1.0000   1.0000   1.0000   1.0000   1.0000
     1.0000   1.0000   1.0000   1.0000   1.0000   1.0000   1.0000   1.0000
     1.0000   1.0000   1.0000   1.0000   1.0000   1.0000   1.0000   1.0000
     1.0000   1.0000   1.0000   1.0000   1.0000   1.0000   1.0000   1.0000
     1.0000   1.0000   1.0000   1.0000   1.0000   1.0000   1.0000   1.0000
     1.0000   1.0000   1.0000   1.0000   1.0000   1.0000   1.0000   1.0000
     1.0000   1.0000   1.0000   1.0000   1.0000   1.0000   1.0000   1.0000
     1.0000   1.0000   1.0000   1.0000   1.0000   1.0000   1.0000   1.0000
     1.0000   1.0000   1.0000   1.0000   1.0000   1.0000   1.0000   1.0000
     1.0000   1.0000   1.0000   1.0000   1.0000   1.0000   1.0000   1.0000
     1.0000   1.0000   1.0000   1.0000   1.0000   1.0000   1.0000   1.0000
     1.0000   1.0000   1.0000   1.0000   1.0000   1.0000   1.0000   1.0000
     1.0000   1.0000   1.0000   1.0000   1.0000   1.0000   1.0000   1.0000
     1.0000   1.0000   1.0000   1.0000   1.0000   1.0000   1.0000   1.0000
     1.0000   1.0000   1.0000   1.0000   1.0000   1.0000   1.0000   1.0000
     1.0000   1.0000   1.0000   1.0000   1.0000   1.0000   1.0000   1.0000
     1.0000   1.0000   1.0000   1.0000   1.0000   1.0000   1.0000   1.0000
     1.0000   1.0000   1.0000   1.0000   1.0000   1.0000   1.0000   1.0000
     1.0000   1.0000   1.0000   1.0000   1.0000   1.0000   1.0000   1.0000
     1.0000   1.0000   1.0000   1.0000   1.0000   1.0000   1.0000   1.0000
     1.0000   1.0000   1.0000   1.0000   1.0000   1.0000   1.0000   1.0000
     1.0000   1.0000   1.0000   1.0000   1.0000   1.0000   1.0000   1.0000
     1.0000   1.0000   1.0000   1.0000   1.0000   1.0000   1.0000   1.0000
     1.0000   1.0000   1.0000   1.0000   1.0000   1.0000   1.0000   1.0000
     1.0000   1.0000   1.0000   1.0000   1.0000   1.0000   1.0000   1.0000
     1.0000   1.0000   1.0000   1.0000   1.0000   1.0000   1.0000   1.0000
     1.0000   1.0000   1.0000   1.0000   1.0000   1.0000   1.0000   1.0000
     1.0000   1.0000   1.0000   1.0000   1.0000   1.0000   1.0000   1.0000
     1.0000   1.0000   1.0000   1.0000   1.0000   1.0000   1.0000   1.0000
     1.0000   1.0000   1.0000   1.0000   1.0000   1.0000   1.0000   1.0000
     1.0000   1.0000   1.0000   1.0000   1.0000   1.0000   1.0000   1.0000
     1.0000   1.0000   1.0000   1.0000   1.0000   1.0000   1.0000   1.0000
     1.0000   1.0000   1.0000   1.0000   1.0000   1.0000   1.0000   1.0000
     1.0000   1.0000   1.0000   1.0000   1.0000   1.0000   1.0000   1.0000
     1.0000   1.0000   1.0000   1.0000   1.0000   1.0000   1.0000   1.0000
     1.0000   1.0000   1.0000   1.0000   1.0000   1.0000   1.0000   1.0000
     1.0000   1.0000   1.0000   1.0000   1.0000   1.0000   1.0000   1.0000
     1.0000   1.0000   1.0000   1.0000   1.0000   1.0000   1.0000   1.0000
     1.0000   1.0000   1.0000   1.0000   1.0000   1.0000   1.0000   1.0000
     1.0000   1.0000   1.0000   1.0000   1.0000   1.0000   1.0000   1.0000
     1.0000   1.0000   1.0000   1.0000   1.0000   1.0000   1.0000   1.0000
     1.0000   1.0000   1.0000   1.0000   1.0000   1.0000   1.0000   1.0000
     1.0000   1.0000   1.0000   1.0000   1.0000   1.0000   1.0000   1.0000
     1.0000   1.0000   1.0000   1.0000   1.0000   1.0000   1.0000   1.0000
     1.0000   1.0000   1.0000   1.0000   1.0000   1.0000   1.0000   1.0000
     0.0000   0.0000   0.0000   0.0000   0.0000   0.0000   0.0000   0.0000
     0.0000   0.0000   0.0000   0.0000   0.0000   0.0000   0.0000   0.0000

          k = 0.3333 0.0000 0.0000 (327628 PWs)   bands (ev):

   -18.2374 -18.2374 -18.1821 -18.1821 -18.1069 -18.1069 -18.0825 -18.0825
   -17.9014 -17.9014 -17.8706 -17.8706 -17.8039 -17.8039 -17.7672 -17.7672
   -17.7597 -17.7597 -17.7554 -17.7554 -17.6815 -17.6815 -17.6771 -17.6771
   -17.2770 -17.1533 -17.1295 -17.0322 -16.9492 -16.9419 -16.9043 -16.8741
   -16.8695 -16.8649 -16.8607 -16.8592 -16.8358 -16.8183 -16.8077 -16.7892
   -16.7715 -16.7573 -16.7473 -16.7243 -16.7219 -16.7201 -16.6924 -16.6775
   -16.6648 -16.6470 -16.6384 -16.6379 -16.6337 -16.6142 -16.6099 -16.5922
   -16.5679 -16.5628 -16.5488 -16.5343 -16.5183 -16.5174 -16.5165 -16.5138
   -16.5113 -16.5108 -16.4895 -16.4843 -16.4765 -16.4702 -16.4656 -16.4617
   -16.4574 -16.4551 -16.4538 -16.4524 -16.4380 -16.4301 -16.4244 -16.4054
   -16.3994 -16.3974 -16.3930 -16.3918 -16.3525 -16.3476 -16.3381 -16.3258
   -16.3195 -16.3157 -16.3077 -16.2933 -16.2744 -16.2331 -16.2257 -16.1706
   -12.3854 -12.3819 -12.3800 -12.3630 -12.3598 -12.3569 -12.3560 -12.3538
   -12.3492 -12.3431 -12.3417 -12.3391 -12.3367 -12.3335 -12.3318 -12.3299
   -12.3285 -12.3280 -12.3278 -12.3273 -12.3265 -12.3236 -12.3226 -12.3213
   -12.3187 -12.3138 -12.3136 -12.3105 -12.3098 -12.3098 -12.3094 -12.3086
   -12.3063 -12.3053 -12.3015 -12.2994 -12.2970 -12.2938 -12.2908 -12.2904
   -12.2901 -12.2867 -12.2853 -12.2830 -12.2829 -12.2809 -12.2802 -12.2762
   -12.2711 -12.2704 -12.2683 -12.2671 -12.2662 -12.2621 -12.2610 -12.2607
   -12.2588 -12.2547 -12.2509 -12.2476 -12.2464 -12.2434 -12.2400 -12.2394
   -12.2391 -12.2366 -12.2353 -12.2349 -12.2342 -12.2325 -12.2324 -12.2305
   -12.2301 -12.2278 -12.2270 -12.2270 -12.2255 -12.2248 -12.2213 -12.2204
   -12.2195 -12.2169 -12.2156 -12.2131 -12.2120 -12.2111 -12.2106 -12.2067
   -12.2062 -12.2003 -12.1999 -12.1999 -12.1989 -12.1977 -12.1969 -12.1922
   -12.1899 -12.1898 -12.1898 -12.1892 -12.1878 -12.1820 -12.1817 -12.1814
   -12.1810 -12.1801 -12.1775 -12.1733 -12.1712 -12.1683 -12.1670 -12.1665
   -12.1600 -12.1524 -12.1505 -12.1487 -12.1475 -12.1462 -12.1449 -12.1420
   -12.1398 -12.1389 -12.1369 -12.1325 -12.1321 -12.1317 -12.1288 -12.1279
   -12.1265 -12.1234 -12.1212 -12.1209 -12.1176 -12.1166 -12.1117 -12.1095
   -12.1074 -12.1064 -12.1060 -12.1032 -12.1024 -12.1012 -12.1000 -12.0986
   -12.0965 -12.0956 -12.0952 -12.0940 -12.0918 -12.0907 -12.0905 -12.0876
   -12.0872 -12.0825 -12.0812 -12.0804 -12.0786 -12.0741 -12.0728 -12.0722
   -12.0685 -12.0680 -12.0636 -12.0630 -12.0612 -12.0591 -12.0579 -12.0542
   -12.0512 -12.0505 -12.0498 -12.0468 -12.0456 -12.0446 -12.0425 -12.0381
   -12.0345 -12.0343 -12.0272 -12.0248 -12.0231 -12.0218 -12.0194 -12.0173
   -12.0173 -12.0130 -12.0130 -12.0114 -12.0094 -12.0086 -12.0083 -12.0018
   -12.0014 -11.9992 -11.9991 -11.9980 -11.9934 -11.9933 -11.9915 -11.9911
   -11.9899 -11.9876 -11.9852 -11.9839 -11.9834 -11.9827 -11.9815 -11.9797
   -11.9785 -11.9751 -11.9747 -11.9735 -11.9723 -11.9710 -11.9696 -11.9671
   -11.9618 -11.9609 -11.9606 -11.9545 -11.9520 -11.9506 -11.9504 -11.9371
   -11.9361 -11.9353 -11.9232 -11.9229 -11.9158 -11.9101 -11.8996 -11.8762
   -11.8435 -11.8424 -11.8383 -11.8361 -11.8260 -11.7833 -11.7698 -11.7691
   -11.7674 -11.7564 -11.7500 -11.6866 -11.6848 -11.6553 -11.6512 -11.6364
   -11.6121 -11.5757 -11.5675 -11.5554 -11.5427 -11.4808 -11.4800 -11.4651
   -11.4359 -11.4159 -11.4082 -11.4064 -11.3783 -11.3564 -11.3544 -11.3356
   -11.3267 -11.3079 -11.3037 -11.3002 -11.2755 -11.2674 -11.2648 -11.2437
   -11.2007 -11.1511 -11.1314 -11.1307 -11.1248 -11.0629 -11.0494 -11.0387
    -5.8059  -5.8056  -5.7255  -5.7248  -5.6688  -5.6681  -5.6519  -5.6503
    -5.5271  -5.5256  -5.4892  -5.4872  -5.3160  -5.3159  -5.2940  -5.2910
    -5.0659  -5.0651  -4.9868  -4.9813  -4.9629  -4.9501  -4.8649  -4.8527
    -4.8373  -4.8170  -4.8052  -4.8012  -4.7875  -4.7745  -4.7210  -4.7187
    -4.6914  -4.6881  -4.6599  -4.6295  -4.6275  -4.5813  -4.5812  -4.5268
    -4.5238  -4.5049  -4.4983  -4.4656  -4.4246  -4.3907  -4.3881  -4.3336
    -4.2639  -4.2600  -4.2150  -4.1955  -4.1578  -4.1375  -4.1201  -4.0941
    -4.0285  -4.0165  -4.0140  -4.0139  -3.9227  -3.9126  -3.8649  -3.8297
    -3.8223  -3.7289  -3.6702  -3.6466  -3.5524  -3.5359  -3.5166  -3.4857
    -3.4540  -3.4436  -3.4290  -3.3790  -3.3721  -3.3438  -3.3118  -3.3045
    -3.2823  -3.2280  -3.1827  -3.1627  -3.1473  -3.1357  -3.0941  -3.0444
    -3.0185  -3.0093  -2.9979  -2.9780  -2.9273  -2.9152  -2.9116  -2.8938
    -2.8926  -2.8684  -2.8415  -2.8211  -2.7865  -2.7843  -2.7487  -2.7085
    -2.7058  -2.6674  -2.6384  -2.6354  -2.6232  -2.6134  -2.5726  -2.5626
    -2.5518  -2.5313  -2.5189  -2.4974  -2.4972  -2.4633  -2.4260  -2.4008
    -2.3686  -2.3459  -2.3436  -2.3234  -2.2738  -2.2427  -2.2359  -2.2205
    -2.2185  -2.1985  -2.1610  -2.1363  -2.1301  -2.1265  -2.0158  -2.0118
    -2.0033  -1.9987  -1.9920  -1.9505  -1.9264  -1.9143  -1.9123  -1.9090
    -1.8843  -1.8796  -1.8775  -1.8635  -1.8453  -1.8294  -1.8276  -1.8154
    -1.8111  -1.7485  -1.7353  -1.7237  -1.7222  -1.6957  -1.6948  -1.6923
    -1.6894  -1.6515  -1.6234  -1.6046  -1.6025  -1.5814  -1.5706  -1.5633
    -1.5627  -1.5067  -1.5014  -1.4852  -1.4736  -1.4475  -1.4373  -1.4273
    -1.4272  -1.4176  -1.4157  -1.3892  -1.3293  -1.3134  -1.3122  -1.2905
    -1.2879  -1.2736  -1.2618  -1.2554  -1.2243  -1.1907  -1.1844  -1.1648
    -1.1072  -1.1046  -1.0991  -1.0990  -1.0895  -1.0832  -1.0811  -1.0514
    -1.0148  -1.0044  -0.9966  -0.9841  -0.9577  -0.9212  -0.9202  -0.9080
    -0.8707  -0.8638  -0.8544  -0.8527  -0.8520  -0.8048  -0.8033  -0.8006
    -0.7739  -0.7618  -0.7420  -0.7310  -0.7015  -0.6975  -0.6796  -0.6703
    -0.6348  -0.6261  -0.6139  -0.6005  -0.5674  -0.5550  -0.5517  -0.5366
    -0.5302  -0.5209  -0.5135  -0.4904  -0.4725  -0.4707  -0.4606  -0.4459
    -0.4359  -0.4163  -0.4141  -0.4125  -0.3963  -0.3818  -0.3683  -0.3624
    -0.3621  -0.3538  -0.3415  -0.3233  -0.3028  -0.2953  -0.2734  -0.2682
    -0.2566  -0.2409  -0.2307  -0.2294  -0.2246  -0.2218  -0.2118  -0.2087
    -0.1967  -0.1941  -0.1835  -0.1684  -0.1601  -0.1551  -0.1516  -0.1440
    -0.1343  -0.1132  -0.1067  -0.1044  -0.1041  -0.0793  -0.0609  -0.0597
    -0.0509  -0.0436  -0.0157  -0.0092   0.0109   0.0156   0.0265   0.0445
     1.8689   2.4302   2.9350   3.1288   3.3394   3.8478   3.8784   4.2349
     4.2578   4.4630   4.4635   4.5199   4.5340   4.7468   4.7563   4.8225

     occupation numbers 
     1.0000   1.0000   1.0000   1.0000   1.0000   1.0000   1.0000   1.0000
     1.0000   1.0000   1.0000   1.0000   1.0000   1.0000   1.0000   1.0000
     1.0000   1.0000   1.0000   1.0000   1.0000   1.0000   1.0000   1.0000
     1.0000   1.0000   1.0000   1.0000   1.0000   1.0000   1.0000   1.0000
     1.0000   1.0000   1.0000   1.0000   1.0000   1.0000   1.0000   1.0000
     1.0000   1.0000   1.0000   1.0000   1.0000   1.0000   1.0000   1.0000
     1.0000   1.0000   1.0000   1.0000   1.0000   1.0000   1.0000   1.0000
     1.0000   1.0000   1.0000   1.0000   1.0000   1.0000   1.0000   1.0000
     1.0000   1.0000   1.0000   1.0000   1.0000   1.0000   1.0000   1.0000
     1.0000   1.0000   1.0000   1.0000   1.0000   1.0000   1.0000   1.0000
     1.0000   1.0000   1.0000   1.0000   1.0000   1.0000   1.0000   1.0000
     1.0000   1.0000   1.0000   1.0000   1.0000   1.0000   1.0000   1.0000
     1.0000   1.0000   1.0000   1.0000   1.0000   1.0000   1.0000   1.0000
     1.0000   1.0000   1.0000   1.0000   1.0000   1.0000   1.0000   1.0000
     1.0000   1.0000   1.0000   1.0000   1.0000   1.0000   1.0000   1.0000
     1.0000   1.0000   1.0000   1.0000   1.0000   1.0000   1.0000   1.0000
     1.0000   1.0000   1.0000   1.0000   1.0000   1.0000   1.0000   1.0000
     1.0000   1.0000   1.0000   1.0000   1.0000   1.0000   1.0000   1.0000
     1.0000   1.0000   1.0000   1.0000   1.0000   1.0000   1.0000   1.0000
     1.0000   1.0000   1.0000   1.0000   1.0000   1.0000   1.0000   1.0000
     1.0000   1.0000   1.0000   1.0000   1.0000   1.0000   1.0000   1.0000
     1.0000   1.0000   1.0000   1.0000   1.0000   1.0000   1.0000   1.0000
     1.0000   1.0000   1.0000   1.0000   1.0000   1.0000   1.0000   1.0000
     1.0000   1.0000   1.0000   1.0000   1.0000   1.0000   1.0000   1.0000
     1.0000   1.0000   1.0000   1.0000   1.0000   1.0000   1.0000   1.0000
     1.0000   1.0000   1.0000   1.0000   1.0000   1.0000   1.0000   1.0000
     1.0000   1.0000   1.0000   1.0000   1.0000   1.0000   1.0000   1.0000
     1.0000   1.0000   1.0000   1.0000   1.0000   1.0000   1.0000   1.0000
     1.0000   1.0000   1.0000   1.0000   1.0000   1.0000   1.0000   1.0000
     1.0000   1.0000   1.0000   1.0000   1.0000   1.0000   1.0000   1.0000
     1.0000   1.0000   1.0000   1.0000   1.0000   1.0000   1.0000   1.0000
     1.0000   1.0000   1.0000   1.0000   1.0000   1.0000   1.0000   1.0000
     1.0000   1.0000   1.0000   1.0000   1.0000   1.0000   1.0000   1.0000
     1.0000   1.0000   1.0000   1.0000   1.0000   1.0000   1.0000   1.0000
     1.0000   1.0000   1.0000   1.0000   1.0000   1.0000   1.0000   1.0000
     1.0000   1.0000   1.0000   1.0000   1.0000   1.0000   1.0000   1.0000
     1.0000   1.0000   1.0000   1.0000   1.0000   1.0000   1.0000   1.0000
     1.0000   1.0000   1.0000   1.0000   1.0000   1.0000   1.0000   1.0000
     1.0000   1.0000   1.0000   1.0000   1.0000   1.0000   1.0000   1.0000
     1.0000   1.0000   1.0000   1.0000   1.0000   1.0000   1.0000   1.0000
     1.0000   1.0000   1.0000   1.0000   1.0000   1.0000   1.0000   1.0000
     1.0000   1.0000   1.0000   1.0000   1.0000   1.0000   1.0000   1.0000
     1.0000   1.0000   1.0000   1.0000   1.0000   1.0000   1.0000   1.0000
     1.0000   1.0000   1.0000   1.0000   1.0000   1.0000   1.0000   1.0000
     1.0000   1.0000   1.0000   1.0000   1.0000   1.0000   1.0000   1.0000
     1.0000   1.0000   1.0000   1.0000   1.0000   1.0000   1.0000   1.0000
     1.0000   1.0000   1.0000   1.0000   1.0000   1.0000   1.0000   1.0000
     1.0000   1.0000   1.0000   1.0000   1.0000   1.0000   1.0000   1.0000
     1.0000   1.0000   1.0000   1.0000   1.0000   1.0000   1.0000   1.0000
     1.0000   1.0000   1.0000   1.0000   1.0000   1.0000   1.0000   1.0000
     1.0000   1.0000   1.0000   1.0000   1.0000   1.0000   1.0000   1.0000
     1.0000   1.0000   1.0000   1.0000   1.0000   1.0000   1.0000   1.0000
     1.0000   1.0000   1.0000   1.0000   1.0000   1.0000   1.0000   1.0000
     1.0000   1.0000   1.0000   1.0000   1.0000   1.0000   1.0000   1.0000
     1.0000   1.0000   1.0000   1.0000   1.0000   1.0000   1.0000   1.0000
     1.0000   1.0000   1.0000   1.0000   1.0000   1.0000   1.0000   1.0000
     1.0000   1.0000   1.0000   1.0000   1.0000   1.0000   1.0000   1.0000
     1.0000   1.0000   1.0000   1.0000   1.0000   1.0000   1.0000   1.0000
     1.0000   1.0000   1.0000   1.0000   1.0000   1.0000   1.0000   1.0000
     1.0000   1.0000   1.0000   1.0000   1.0000   1.0000   1.0000   1.0000
     1.0000   1.0000   1.0000   1.0000   1.0000   1.0000   1.0000   1.0000
     1.0000   1.0000   1.0000   1.0000   1.0000   1.0000   1.0000   1.0000
     1.0000   1.0000   1.0000   1.0000   1.0000   1.0000   1.0000   1.0000
     1.0000   1.0000   1.0000   1.0000   1.0000   1.0000   1.0000   1.0000
     1.0000   1.0000   1.0000   1.0000   1.0000   1.0000   1.0000   1.0000
     1.0000   1.0000   1.0000   1.0000   1.0000   1.0000   1.0000   1.0000
     1.0000   1.0000   1.0000   1.0000   1.0000   1.0000   1.0000   1.0000
     1.0000   1.0000   1.0000   1.0000   1.0000   1.0000   1.0000   1.0000
     1.0000   1.0000   1.0000   1.0000   1.0000   1.0000   1.0000   1.0000
     1.0000   1.0000   1.0000   1.0000   1.0000   1.0000   1.0000   1.0000
     1.0000   1.0000   1.0000   1.0000   1.0000   1.0000   1.0000   1.0000
     1.0000   1.0000   1.0000   1.0000   1.0000   1.0000   1.0000   1.0000
     1.0000   1.0000   1.0000   1.0000   1.0000   1.0000   1.0000   1.0000
     1.0000   1.0000   1.0000   1.0000   1.0000   1.0000   1.0000   1.0000
     1.0000   1.0000   1.0000   1.0000   1.0000   1.0000   1.0000   1.0000
     1.0000   1.0000   1.0000   1.0000   1.0000   1.0000   1.0000   1.0000
     1.0000   1.0000   1.0000   1.0000   1.0000   1.0000   1.0000   1.0000
     1.0000   1.0000   1.0000   1.0000   1.0000   1.0000   1.0000   1.0000
     1.0000   1.0000   1.0000   1.0000   1.0000   1.0000   1.0000   1.0000
     1.0000   1.0000   1.0000   1.0000   1.0000   1.0000   1.0000   1.0000
     1.0000   1.0000   1.0000   1.0000   1.0000   1.0000   1.0000   1.0000
     1.0000   1.0000   1.0000   1.0000   1.0000   1.0000   1.0000   1.0000
     1.0000   1.0000   1.0000   1.0000   1.0000   1.0000   1.0000   1.0000
     0.0000   0.0000   0.0000   0.0000   0.0000   0.0000   0.0000   0.0000
     0.0000   0.0000   0.0000   0.0000   0.0000   0.0000   0.0000   0.0000

          k = 0.3333 0.3336 0.0000 (327656 PWs)   bands (ev):

   -18.2119 -18.2119 -18.1620 -18.1620 -18.1495 -18.1495 -18.1139 -18.1139
   -17.8657 -17.8657 -17.8407 -17.8407 -17.8189 -17.8189 -17.7895 -17.7895
   -17.7595 -17.7595 -17.7544 -17.7544 -17.6818 -17.6818 -17.6787 -17.6787
   -17.2275 -17.1143 -17.0919 -17.0913 -17.0088 -17.0051 -16.9872 -16.9376
   -16.9270 -16.8872 -16.8658 -16.8579 -16.7915 -16.7713 -16.7697 -16.7582
   -16.7249 -16.7183 -16.7181 -16.7004 -16.6833 -16.6774 -16.6719 -16.6691
   -16.6621 -16.6506 -16.6474 -16.6327 -16.6233 -16.6020 -16.5971 -16.5899
   -16.5788 -16.5587 -16.5458 -16.5440 -16.5305 -16.5248 -16.5241 -16.5184
   -16.5157 -16.5027 -16.4968 -16.4936 -16.4851 -16.4800 -16.4777 -16.4743
   -16.4648 -16.4625 -16.4529 -16.4509 -16.4428 -16.4412 -16.4378 -16.4286
   -16.4176 -16.4163 -16.4127 -16.4085 -16.3359 -16.3244 -16.3211 -16.3196
   -16.3047 -16.3004 -16.2891 -16.2814 -16.2569 -16.2511 -16.2414 -16.1939
   -12.3799 -12.3715 -12.3664 -12.3630 -12.3595 -12.3577 -12.3520 -12.3518
   -12.3497 -12.3482 -12.3478 -12.3463 -12.3458 -12.3409 -12.3409 -12.3395
   -12.3367 -12.3346 -12.3337 -12.3329 -12.3294 -12.3275 -12.3254 -12.3248
   -12.3215 -12.3203 -12.3176 -12.3147 -12.3127 -12.3099 -12.3050 -12.3034
   -12.3016 -12.2990 -12.2984 -12.2979 -12.2946 -12.2937 -12.2923 -12.2897
   -12.2875 -12.2834 -12.2812 -12.2803 -12.2795 -12.2793 -12.2752 -12.2749
   -12.2736 -12.2692 -12.2682 -12.2639 -12.2635 -12.2582 -12.2559 -12.2549
   -12.2532 -12.2489 -12.2485 -12.2473 -12.2449 -12.2447 -12.2428 -12.2410
   -12.2379 -12.2370 -12.2351 -12.2346 -12.2334 -12.2308 -12.2307 -12.2300
   -12.2281 -12.2269 -12.2265 -12.2258 -12.2250 -12.2233 -12.2218 -12.2206
   -12.2202 -12.2196 -12.2168 -12.2166 -12.2157 -12.2129 -12.2112 -12.2091
   -12.2084 -12.2075 -12.2068 -12.2054 -12.2036 -12.2030 -12.1984 -12.1958
   -12.1956 -12.1937 -12.1929 -12.1907 -12.1881 -12.1876 -12.1843 -12.1824
   -12.1813 -12.1782 -12.1755 -12.1733 -12.1719 -12.1701 -12.1698 -12.1683
   -12.1632 -12.1579 -12.1559 -12.1516 -12.1464 -12.1440 -12.1422 -12.1419
   -12.1390 -12.1372 -12.1366 -12.1331 -12.1323 -12.1319 -12.1311 -12.1287
   -12.1267 -12.1236 -12.1210 -12.1182 -12.1170 -12.1161 -12.1135 -12.1133
   -12.1111 -12.1092 -12.1063 -12.1061 -12.1034 -12.1031 -12.1017 -12.0977
   -12.0963 -12.0961 -12.0949 -12.0944 -12.0908 -12.0892 -12.0873 -12.0844
   -12.0802 -12.0783 -12.0777 -12.0765 -12.0758 -12.0735 -12.0733 -12.0710
   -12.0665 -12.0647 -12.0645 -12.0629 -12.0614 -12.0608 -12.0582 -12.0553
   -12.0520 -12.0496 -12.0446 -12.0427 -12.0426 -12.0358 -12.0347 -12.0327
   -12.0319 -12.0290 -12.0244 -12.0235 -12.0200 -12.0191 -12.0180 -12.0180
   -12.0149 -12.0124 -12.0112 -12.0069 -12.0059 -12.0055 -12.0035 -12.0018
   -12.0000 -11.9992 -11.9986 -11.9976 -11.9959 -11.9956 -11.9931 -11.9924
   -11.9897 -11.9874 -11.9857 -11.9851 -11.9833 -11.9803 -11.9786 -11.9784
   -11.9766 -11.9764 -11.9739 -11.9728 -11.9685 -11.9681 -11.9650 -11.9647
   -11.9591 -11.9589 -11.9573 -11.9568 -11.9508 -11.9446 -11.9384 -11.9355
   -11.9220 -11.9106 -11.9098 -11.9034 -11.8982 -11.8889 -11.8759 -11.8655
   -11.8549 -11.8455 -11.8296 -11.8274 -11.8138 -11.8073 -11.7953 -11.7871
   -11.7750 -11.7621 -11.7574 -11.7398 -11.7029 -11.6918 -11.6740 -11.6502
   -11.6488 -11.6009 -11.6003 -11.5815 -11.5337 -11.5047 -11.4891 -11.4773
   -11.4606 -11.4046 -11.3721 -11.3651 -11.3474 -11.3469 -11.3255 -11.3235
   -11.3092 -11.2830 -11.2718 -11.2697 -11.2577 -11.2377 -11.2344 -11.2143
   -11.2099 -11.1645 -11.1631 -11.1496 -11.1267 -11.0952 -11.0945 -11.0726
    -5.7903  -5.7902  -5.7484  -5.7477  -5.6925  -5.6924  -5.6778  -5.6773
    -5.4979  -5.4963  -5.4805  -5.4804  -5.2773  -5.2767  -5.2677  -5.2661
    -4.9920  -4.9904  -4.9409  -4.9370  -4.8767  -4.8625  -4.8590  -4.8277
    -4.8192  -4.8011  -4.7963  -4.7752  -4.7471  -4.7403  -4.7330  -4.7182
    -4.6993  -4.6848  -4.6766  -4.6506  -4.6319  -4.6153  -4.5811  -4.5444
    -4.5393  -4.4899  -4.4801  -4.4414  -4.4339  -4.4299  -4.4244  -4.4016
    -4.4007  -4.3563  -4.3536  -4.3161  -4.3131  -4.3005  -4.2644  -4.2583
    -4.1708  -4.1422  -4.1162  -4.1028  -3.9904  -3.9600  -3.9492  -3.8445
    -3.7370  -3.6469  -3.6295  -3.5944  -3.4738  -3.4494  -3.4422  -3.4113
    -3.3713  -3.3625  -3.3341  -3.3300  -3.2715  -3.2515  -3.2275  -3.2250
    -3.1933  -3.1578  -3.1575  -3.1346  -3.1047  -3.0443  -3.0441  -2.9977
    -2.9637  -2.9528  -2.9319  -2.9267  -2.8951  -2.8849  -2.8653  -2.8460
    -2.8440  -2.8211  -2.7953  -2.7718  -2.7563  -2.7466  -2.7293  -2.7290
    -2.7021  -2.6717  -2.6546  -2.6376  -2.6264  -2.6185  -2.5864  -2.5810
    -2.5676  -2.5505  -2.5451  -2.4769  -2.4661  -2.4417  -2.4288  -2.3943
    -2.3684  -2.3651  -2.3361  -2.3088  -2.3000  -2.2811  -2.2808  -2.2195
    -2.2166  -2.2111  -2.1712  -2.1576  -2.1457  -2.1381  -2.0837  -2.0832
    -2.0655  -2.0482  -2.0469  -2.0391  -1.9981  -1.9822  -1.9710  -1.9374
    -1.9112  -1.8798  -1.8634  -1.8633  -1.8407  -1.8351  -1.8206  -1.8071
    -1.8049  -1.7903  -1.7897  -1.7799  -1.7650  -1.7287  -1.7095  -1.7052
    -1.6973  -1.6762  -1.6516  -1.6344  -1.6315  -1.6231  -1.5791  -1.5552
    -1.5486  -1.5124  -1.5099  -1.4715  -1.4455  -1.4308  -1.4224  -1.3815
    -1.3683  -1.3567  -1.3240  -1.3167  -1.2815  -1.2702  -1.2637  -1.2438
    -1.2400  -1.2106  -1.2072  -1.1939  -1.1895  -1.1699  -1.1544  -1.1529
    -1.1308  -1.1091  -1.1090  -1.0895  -1.0832  -1.0624  -1.0587  -1.0339
    -1.0286  -1.0102  -0.9944  -0.9633  -0.9563  -0.9430  -0.9379  -0.9213
    -0.9065  -0.9051  -0.8850  -0.8734  -0.8620  -0.8522  -0.8502  -0.8155
    -0.8129  -0.7860  -0.7688  -0.7460  -0.7378  -0.7348  -0.7214  -0.7069
    -0.6841  -0.6766  -0.6675  -0.6501  -0.6113  -0.5947  -0.5936  -0.5724
    -0.5702  -0.5698  -0.5387  -0.5282  -0.4999  -0.4937  -0.4841  -0.4725
    -0.4693  -0.4451  -0.4357  -0.4223  -0.4176  -0.4030  -0.4013  -0.3903
    -0.3814  -0.3700  -0.3681  -0.3458  -0.3284  -0.3278  -0.3082  -0.2982
    -0.2752  -0.2628  -0.2548  -0.2515  -0.2404  -0.2201  -0.2176  -0.2034
    -0.1659  -0.1613  -0.1491  -0.1317  -0.1141  -0.1047  -0.0972  -0.0903
    -0.0755  -0.0741  -0.0715  -0.0618  -0.0487  -0.0377  -0.0371  -0.0356
    -0.0329  -0.0230  -0.0225  -0.0159  -0.0071  -0.0028   0.0132   0.0338
     2.3229   2.7933   3.2461   3.2480   3.4110   3.5967   3.6004   3.9552
     4.0642   4.0770   4.0862   4.2091   4.5541   4.5976   4.6143   4.6592

     occupation numbers 
     1.0000   1.0000   1.0000   1.0000   1.0000   1.0000   1.0000   1.0000
     1.0000   1.0000   1.0000   1.0000   1.0000   1.0000   1.0000   1.0000
     1.0000   1.0000   1.0000   1.0000   1.0000   1.0000   1.0000   1.0000
     1.0000   1.0000   1.0000   1.0000   1.0000   1.0000   1.0000   1.0000
     1.0000   1.0000   1.0000   1.0000   1.0000   1.0000   1.0000   1.0000
     1.0000   1.0000   1.0000   1.0000   1.0000   1.0000   1.0000   1.0000
     1.0000   1.0000   1.0000   1.0000   1.0000   1.0000   1.0000   1.0000
     1.0000   1.0000   1.0000   1.0000   1.0000   1.0000   1.0000   1.0000
     1.0000   1.0000   1.0000   1.0000   1.0000   1.0000   1.0000   1.0000
     1.0000   1.0000   1.0000   1.0000   1.0000   1.0000   1.0000   1.0000
     1.0000   1.0000   1.0000   1.0000   1.0000   1.0000   1.0000   1.0000
     1.0000   1.0000   1.0000   1.0000   1.0000   1.0000   1.0000   1.0000
     1.0000   1.0000   1.0000   1.0000   1.0000   1.0000   1.0000   1.0000
     1.0000   1.0000   1.0000   1.0000   1.0000   1.0000   1.0000   1.0000
     1.0000   1.0000   1.0000   1.0000   1.0000   1.0000   1.0000   1.0000
     1.0000   1.0000   1.0000   1.0000   1.0000   1.0000   1.0000   1.0000
     1.0000   1.0000   1.0000   1.0000   1.0000   1.0000   1.0000   1.0000
     1.0000   1.0000   1.0000   1.0000   1.0000   1.0000   1.0000   1.0000
     1.0000   1.0000   1.0000   1.0000   1.0000   1.0000   1.0000   1.0000
     1.0000   1.0000   1.0000   1.0000   1.0000   1.0000   1.0000   1.0000
     1.0000   1.0000   1.0000   1.0000   1.0000   1.0000   1.0000   1.0000
     1.0000   1.0000   1.0000   1.0000   1.0000   1.0000   1.0000   1.0000
     1.0000   1.0000   1.0000   1.0000   1.0000   1.0000   1.0000   1.0000
     1.0000   1.0000   1.0000   1.0000   1.0000   1.0000   1.0000   1.0000
     1.0000   1.0000   1.0000   1.0000   1.0000   1.0000   1.0000   1.0000
     1.0000   1.0000   1.0000   1.0000   1.0000   1.0000   1.0000   1.0000
     1.0000   1.0000   1.0000   1.0000   1.0000   1.0000   1.0000   1.0000
     1.0000   1.0000   1.0000   1.0000   1.0000   1.0000   1.0000   1.0000
     1.0000   1.0000   1.0000   1.0000   1.0000   1.0000   1.0000   1.0000
     1.0000   1.0000   1.0000   1.0000   1.0000   1.0000   1.0000   1.0000
     1.0000   1.0000   1.0000   1.0000   1.0000   1.0000   1.0000   1.0000
     1.0000   1.0000   1.0000   1.0000   1.0000   1.0000   1.0000   1.0000
     1.0000   1.0000   1.0000   1.0000   1.0000   1.0000   1.0000   1.0000
     1.0000   1.0000   1.0000   1.0000   1.0000   1.0000   1.0000   1.0000
     1.0000   1.0000   1.0000   1.0000   1.0000   1.0000   1.0000   1.0000
     1.0000   1.0000   1.0000   1.0000   1.0000   1.0000   1.0000   1.0000
     1.0000   1.0000   1.0000   1.0000   1.0000   1.0000   1.0000   1.0000
     1.0000   1.0000   1.0000   1.0000   1.0000   1.0000   1.0000   1.0000
     1.0000   1.0000   1.0000   1.0000   1.0000   1.0000   1.0000   1.0000
     1.0000   1.0000   1.0000   1.0000   1.0000   1.0000   1.0000   1.0000
     1.0000   1.0000   1.0000   1.0000   1.0000   1.0000   1.0000   1.0000
     1.0000   1.0000   1.0000   1.0000   1.0000   1.0000   1.0000   1.0000
     1.0000   1.0000   1.0000   1.0000   1.0000   1.0000   1.0000   1.0000
     1.0000   1.0000   1.0000   1.0000   1.0000   1.0000   1.0000   1.0000
     1.0000   1.0000   1.0000   1.0000   1.0000   1.0000   1.0000   1.0000
     1.0000   1.0000   1.0000   1.0000   1.0000   1.0000   1.0000   1.0000
     1.0000   1.0000   1.0000   1.0000   1.0000   1.0000   1.0000   1.0000
     1.0000   1.0000   1.0000   1.0000   1.0000   1.0000   1.0000   1.0000
     1.0000   1.0000   1.0000   1.0000   1.0000   1.0000   1.0000   1.0000
     1.0000   1.0000   1.0000   1.0000   1.0000   1.0000   1.0000   1.0000
     1.0000   1.0000   1.0000   1.0000   1.0000   1.0000   1.0000   1.0000
     1.0000   1.0000   1.0000   1.0000   1.0000   1.0000   1.0000   1.0000
     1.0000   1.0000   1.0000   1.0000   1.0000   1.0000   1.0000   1.0000
     1.0000   1.0000   1.0000   1.0000   1.0000   1.0000   1.0000   1.0000
     1.0000   1.0000   1.0000   1.0000   1.0000   1.0000   1.0000   1.0000
     1.0000   1.0000   1.0000   1.0000   1.0000   1.0000   1.0000   1.0000
     1.0000   1.0000   1.0000   1.0000   1.0000   1.0000   1.0000   1.0000
     1.0000   1.0000   1.0000   1.0000   1.0000   1.0000   1.0000   1.0000
     1.0000   1.0000   1.0000   1.0000   1.0000   1.0000   1.0000   1.0000
     1.0000   1.0000   1.0000   1.0000   1.0000   1.0000   1.0000   1.0000
     1.0000   1.0000   1.0000   1.0000   1.0000   1.0000   1.0000   1.0000
     1.0000   1.0000   1.0000   1.0000   1.0000   1.0000   1.0000   1.0000
     1.0000   1.0000   1.0000   1.0000   1.0000   1.0000   1.0000   1.0000
     1.0000   1.0000   1.0000   1.0000   1.0000   1.0000   1.0000   1.0000
     1.0000   1.0000   1.0000   1.0000   1.0000   1.0000   1.0000   1.0000
     1.0000   1.0000   1.0000   1.0000   1.0000   1.0000   1.0000   1.0000
     1.0000   1.0000   1.0000   1.0000   1.0000   1.0000   1.0000   1.0000
     1.0000   1.0000   1.0000   1.0000   1.0000   1.0000   1.0000   1.0000
     1.0000   1.0000   1.0000   1.0000   1.0000   1.0000   1.0000   1.0000
     1.0000   1.0000   1.0000   1.0000   1.0000   1.0000   1.0000   1.0000
     1.0000   1.0000   1.0000   1.0000   1.0000   1.0000   1.0000   1.0000
     1.0000   1.0000   1.0000   1.0000   1.0000   1.0000   1.0000   1.0000
     1.0000   1.0000   1.0000   1.0000   1.0000   1.0000   1.0000   1.0000
     1.0000   1.0000   1.0000   1.0000   1.0000   1.0000   1.0000   1.0000
     1.0000   1.0000   1.0000   1.0000   1.0000   1.0000   1.0000   1.0000
     1.0000   1.0000   1.0000   1.0000   1.0000   1.0000   1.0000   1.0000
     1.0000   1.0000   1.0000   1.0000   1.0000   1.0000   1.0000   1.0000
     1.0000   1.0000   1.0000   1.0000   1.0000   1.0000   1.0000   1.0000
     1.0000   1.0000   1.0000   1.0000   1.0000   1.0000   1.0000   1.0000
     1.0000   1.0000   1.0000   1.0000   1.0000   1.0000   1.0000   1.0000
     1.0000   1.0000   1.0000   1.0000   1.0000   1.0000   1.0000   1.0000
     1.0000   1.0000   1.0000   1.0000   1.0000   1.0000   1.0000   1.0000
     1.0000   1.0000   1.0000   1.0000   1.0000   1.0000   1.0000   1.0000
     0.0000   0.0000   0.0000   0.0000   0.0000   0.0000   0.0000   0.0000
     0.0000   0.0000   0.0000   0.0000   0.0000   0.0000   0.0000   0.0000

     highest occupied, lowest unoccupied level (ev):     0.0473    1.2712

!    total energy              =  -27035.66492689 Ry
     total all-electron energy =   -673235.702643 Ry
     estimated scf accuracy    <          7.5E-10 Ry

     The total energy is the sum of the following terms:
     one-electron contribution = -272838.07837541 Ry
     hartree contribution      =  137216.09044251 Ry
     xc contribution           =   -3329.72167443 Ry
     ewald contribution        =  128104.25303152 Ry
     one-center paw contrib.   =  -16188.20835107 Ry
      -> PAW hartree energy AE =    7896.35980873 Ry
      -> PAW hartree energy PS =   -7870.15335023 Ry
      -> PAW xc energy AE      =  -19468.38710752 Ry
      -> PAW xc energy PS      =    3253.97229794 Ry
      -> total E_H with PAW    =  137242.29690102 Ry
      -> total E_XC with PAW   =  -19544.13648401 Ry

     convergence has been achieved in  75 iterations

     negative rho (up, down):  2.107E-03 0.000E+00

     Forces acting on atoms (cartesian axes, Ry/au):

     atom    1 type  1   force =    -0.00002556   -0.00022248   -0.00004610
     atom    2 type  1   force =     0.00002556    0.00022248   -0.00004610
     atom    3 type  1   force =     0.00008549    0.00050669    0.00001598
     atom    4 type  1   force =     0.00002556   -0.00022248   -0.00004610
     atom    5 type  1   force =     0.00023661    0.00001804    0.00015052
     atom    6 type  1   force =     0.00009445   -0.00013823   -0.00011044
     atom    7 type  1   force =    -0.00003236   -0.00010457    0.00044571
     atom    8 type  1   force =     0.00003236    0.00010457    0.00044571
     atom    9 type  1   force =     0.00000000    0.00000000   -0.00067625
     atom   10 type  1   force =    -0.00023661    0.00001804    0.00015052
     atom   11 type  1   force =    -0.00009445   -0.00013823   -0.00011044
     atom   12 type  1   force =     0.00000000    0.00000000   -0.00067625
     atom   13 type  2   force =     0.00016461    0.00035089    0.00001719
     atom   14 type  2   force =    -0.00016461   -0.00035089    0.00001719
     atom   15 type  2   force =    -0.00052158   -0.00014820   -0.00006908
     atom   16 type  2   force =     0.00052158    0.00014820   -0.00006908
     atom   17 type  2   force =     0.00066890   -0.00028543    0.00004207
     atom   18 type  2   force =     0.00046081    0.00010240   -0.00041394
     atom   19 type  2   force =    -0.00066890    0.00028543    0.00004207
     atom   20 type  2   force =    -0.00046081   -0.00010240   -0.00041394
     atom   21 type  2   force =    -0.00019629   -0.00010304    0.00035275
     atom   22 type  2   force =     0.00027275    0.00033377    0.00014973
     atom   23 type  2   force =     0.00078308   -0.00035143    0.00071947
     atom   24 type  2   force =     0.00022502    0.00004818   -0.00023929
     atom   25 type  2   force =     0.00001890   -0.00026612    0.00071400
     atom   26 type  2   force =    -0.00001890    0.00026612    0.00071400
     atom   27 type  2   force =    -0.00000429    0.00007584    0.00050968
     atom   28 type  2   force =     0.00000429   -0.00007584    0.00050968
     atom   29 type  2   force =    -0.00046081    0.00010240   -0.00041394
     atom   30 type  2   force =    -0.00066890   -0.00028543    0.00004207
     atom   31 type  2   force =     0.00046081   -0.00010240   -0.00041394
     atom   32 type  2   force =     0.00066890    0.00028543    0.00004207
     atom   33 type  2   force =    -0.00078308   -0.00035143    0.00071947
     atom   34 type  2   force =    -0.00022502    0.00004818   -0.00023929
     atom   35 type  2   force =     0.00019629   -0.00010304    0.00035275
     atom   36 type  2   force =    -0.00027275    0.00033377    0.00014973
     atom   37 type  1   force =     0.00008549   -0.00050669    0.00001598
     atom   38 type  1   force =    -0.00008549    0.00050669    0.00001598
     atom   39 type  1   force =    -0.00002556    0.00022248   -0.00004610
     atom   40 type  1   force =    -0.00008549   -0.00050669    0.00001598
     atom   41 type  1   force =    -0.00009445    0.00013823   -0.00011044
     atom   42 type  1   force =    -0.00023661   -0.00001804    0.00015052
     atom   43 type  1   force =     0.00000000    0.00000000   -0.00068198
     atom   44 type  1   force =     0.00000000    0.00000000   -0.00014931
     atom   45 type  1   force =     0.00009445    0.00013823   -0.00011044
     atom   46 type  1   force =     0.00023661   -0.00001804    0.00015052
     atom   47 type  1   force =    -0.00003236    0.00010457    0.00044571
     atom   48 type  1   force =     0.00003236   -0.00010457    0.00044571
     atom   49 type  1   force =     0.00000000    0.00000000   -0.00014931
     atom   50 type  1   force =     0.00000000    0.00000000   -0.00068198
     atom   51 type  2   force =    -0.00000429   -0.00007584    0.00050968
     atom   52 type  2   force =     0.00000429    0.00007584    0.00050968
     atom   53 type  2   force =     0.00001890    0.00026612    0.00071400
     atom   54 type  2   force =    -0.00001890   -0.00026612    0.00071400
     atom   55 type  2   force =     0.00003758    0.00041156    0.00055207
     atom   56 type  2   force =     0.00033263   -0.00007738   -0.00013645
     atom   57 type  2   force =    -0.00003758   -0.00041156    0.00055207
     atom   58 type  2   force =    -0.00033263    0.00007738   -0.00013645
     atom   59 type  2   force =    -0.00022502   -0.00004818   -0.00023929
     atom   60 type  2   force =    -0.00078308    0.00035143    0.00071947
     atom   61 type  2   force =    -0.00027275   -0.00033377    0.00014973
     atom   62 type  2   force =     0.00019629    0.00010304    0.00035275
     atom   63 type  2   force =    -0.00052158    0.00014820   -0.00006908
     atom   64 type  2   force =     0.00052158   -0.00014820   -0.00006908
     atom   65 type  2   force =     0.00016461   -0.00035089    0.00001719
     atom   66 type  2   force =    -0.00016461    0.00035089    0.00001719
     atom   67 type  2   force =    -0.00033263   -0.00007738   -0.00013645
     atom   68 type  2   force =    -0.00003758    0.00041156    0.00055207
     atom   69 type  2   force =     0.00033263    0.00007738   -0.00013645
     atom   70 type  2   force =     0.00003758   -0.00041156    0.00055207
     atom   71 type  2   force =     0.00027275   -0.00033377    0.00014973
     atom   72 type  2   force =    -0.00019629    0.00010304    0.00035275
     atom   73 type  2   force =     0.00022502   -0.00004818   -0.00023929
     atom   74 type  2   force =     0.00078308    0.00035143    0.00071947
     atom   75 type  1   force =    -0.00008549    0.00050669   -0.00001598
     atom   76 type  1   force =     0.00008549   -0.00050669   -0.00001598
     atom   77 type  1   force =     0.00002556   -0.00022248    0.00004610
     atom   78 type  1   force =     0.00008549    0.00050669   -0.00001598
     atom   79 type  1   force =    -0.00009445   -0.00013823    0.00011044
     atom   80 type  1   force =    -0.00023661    0.00001804   -0.00015052
     atom   81 type  1   force =     0.00003236   -0.00010457   -0.00044571
     atom   82 type  1   force =    -0.00003236    0.00010457   -0.00044571
     atom   83 type  1   force =     0.00000000    0.00000000    0.00014931
     atom   84 type  1   force =     0.00000000    0.00000000    0.00068198
     atom   85 type  1   force =     0.00009445   -0.00013823    0.00011044
     atom   86 type  1   force =     0.00023661    0.00001804   -0.00015052
     atom   87 type  1   force =     0.00000000    0.00086086    0.00000000
     atom   88 type  1   force =     0.00000000   -0.00086086    0.00000000
     atom   89 type  1   force =     0.00000000    0.00000000    0.00068198
     atom   90 type  1   force =     0.00000000    0.00000000    0.00014931
     atom   91 type  2   force =     0.00052158   -0.00014820    0.00006908
     atom   92 type  2   force =    -0.00052158    0.00014820    0.00006908
     atom   93 type  2   force =    -0.00016461    0.00035089   -0.00001719
     atom   94 type  2   force =     0.00016461   -0.00035089   -0.00001719
     atom   95 type  2   force =     0.00033263    0.00007738    0.00013645
     atom   96 type  2   force =     0.00003758   -0.00041156   -0.00055207
     atom   97 type  2   force =    -0.00033263   -0.00007738    0.00013645
     atom   98 type  2   force =    -0.00003758    0.00041156   -0.00055207
     atom   99 type  2   force =    -0.00027275    0.00033377   -0.00014973
     atom  100 type  2   force =     0.00019629   -0.00010304   -0.00035275
     atom  101 type  2   force =    -0.00022502    0.00004818    0.00023929
     atom  102 type  2   force =    -0.00078308   -0.00035143   -0.00071947
     atom  103 type  2   force =     0.00000429    0.00007584   -0.00050968
     atom  104 type  2   force =    -0.00000429   -0.00007584   -0.00050968
     atom  105 type  2   force =    -0.00001890   -0.00026612   -0.00071400
     atom  106 type  2   force =     0.00001890    0.00026612   -0.00071400
     atom  107 type  2   force =    -0.00003758   -0.00041156   -0.00055207
     atom  108 type  2   force =    -0.00033263    0.00007738    0.00013645
     atom  109 type  2   force =     0.00003758    0.00041156   -0.00055207
     atom  110 type  2   force =     0.00033263   -0.00007738    0.00013645
     atom  111 type  2   force =     0.00022502    0.00004818    0.00023929
     atom  112 type  2   force =     0.00078308   -0.00035143   -0.00071947
     atom  113 type  2   force =     0.00027275    0.00033377   -0.00014973
     atom  114 type  2   force =    -0.00019629   -0.00010304   -0.00035275
     atom  115 type  1   force =     0.00002556    0.00022248    0.00004610
     atom  116 type  1   force =    -0.00002556   -0.00022248    0.00004610
     atom  117 type  1   force =    -0.00008549   -0.00050669   -0.00001598
     atom  118 type  1   force =    -0.00002556    0.00022248    0.00004610
     atom  119 type  1   force =     0.00023661   -0.00001804   -0.00015052
     atom  120 type  1   force =     0.00009445    0.00013823    0.00011044
     atom  121 type  1   force =     0.00000000   -0.00086086    0.00000000
     atom  122 type  1   force =     0.00000000    0.00086086    0.00000000
     atom  123 type  1   force =     0.00000000    0.00000000    0.00067625
     atom  124 type  1   force =    -0.00023661   -0.00001804   -0.00015052
     atom  125 type  1   force =    -0.00009445    0.00013823    0.00011044
     atom  126 type  1   force =     0.00003236    0.00010457   -0.00044571
     atom  127 type  1   force =    -0.00003236   -0.00010457   -0.00044571
     atom  128 type  1   force =     0.00000000    0.00000000    0.00067625
     atom  129 type  2   force =    -0.00001890    0.00026612   -0.00071400
     atom  130 type  2   force =     0.00001890   -0.00026612   -0.00071400
     atom  131 type  2   force =     0.00000429   -0.00007584   -0.00050968
     atom  132 type  2   force =    -0.00000429    0.00007584   -0.00050968
     atom  133 type  2   force =     0.00046081   -0.00010240    0.00041394
     atom  134 type  2   force =     0.00066890    0.00028543   -0.00004207
     atom  135 type  2   force =    -0.00046081    0.00010240    0.00041394
     atom  136 type  2   force =    -0.00066890   -0.00028543   -0.00004207
     atom  137 type  2   force =     0.00078308    0.00035143   -0.00071947
     atom  138 type  2   force =     0.00022502   -0.00004818    0.00023929
     atom  139 type  2   force =    -0.00019629    0.00010304   -0.00035275
     atom  140 type  2   force =     0.00027275   -0.00033377   -0.00014973
     atom  141 type  2   force =    -0.00016461   -0.00035089   -0.00001719
     atom  142 type  2   force =     0.00016461    0.00035089   -0.00001719
     atom  143 type  2   force =     0.00052158    0.00014820    0.00006908
     atom  144 type  2   force =    -0.00052158   -0.00014820    0.00006908
     atom  145 type  2   force =    -0.00066890    0.00028543   -0.00004207
     atom  146 type  2   force =    -0.00046081   -0.00010240    0.00041394
     atom  147 type  2   force =     0.00066890   -0.00028543   -0.00004207
     atom  148 type  2   force =     0.00046081    0.00010240    0.00041394
     atom  149 type  2   force =     0.00019629    0.00010304   -0.00035275
     atom  150 type  2   force =    -0.00027275   -0.00033377   -0.00014973
     atom  151 type  2   force =    -0.00078308    0.00035143   -0.00071947
     atom  152 type  2   force =    -0.00022502   -0.00004818    0.00023929
     atom  153 type  3   force =    -0.00007574    0.00004997    0.00005897
     atom  154 type  3   force =     0.00007574   -0.00004997    0.00005897
     atom  155 type  3   force =    -0.00007528   -0.00018553   -0.00037751
     atom  156 type  3   force =    -0.00005083    0.00007304   -0.00035595
     atom  157 type  3   force =     0.00005083   -0.00007304   -0.00035595
     atom  158 type  3   force =     0.00007574    0.00004997    0.00005897
     atom  159 type  3   force =    -0.00007574   -0.00004997    0.00005897
     atom  160 type  3   force =     0.00007528   -0.00018553   -0.00037751
     atom  161 type  3   force =    -0.00005083   -0.00007304   -0.00035595
     atom  162 type  3   force =     0.00005083    0.00007304   -0.00035595
     atom  163 type  3   force =     0.00007528    0.00018553   -0.00037751
     atom  164 type  3   force =    -0.00007528    0.00018553   -0.00037751
     atom  165 type  3   force =     0.00007528   -0.00018553    0.00037751
     atom  166 type  3   force =     0.00005083    0.00007304    0.00035595
     atom  167 type  3   force =    -0.00005083   -0.00007304    0.00035595
     atom  168 type  3   force =    -0.00007528   -0.00018553    0.00037751
     atom  169 type  3   force =     0.00005083   -0.00007304    0.00035595
     atom  170 type  3   force =    -0.00005083    0.00007304    0.00035595
     atom  171 type  3   force =    -0.00007574   -0.00004997   -0.00005897
     atom  172 type  3   force =     0.00007574    0.00004997   -0.00005897
     atom  173 type  3   force =    -0.00007528    0.00018553    0.00037751
     atom  174 type  3   force =     0.00007574   -0.00004997   -0.00005897
     atom  175 type  3   force =    -0.00007574    0.00004997   -0.00005897
     atom  176 type  3   force =     0.00007528    0.00018553    0.00037751
     The non-local contrib.  to forces
     atom    1 type  1   force =     0.03157574    0.01909929   -0.00188878
     atom    2 type  1   force =    -0.03157574   -0.01909929   -0.00188878
     atom    3 type  1   force =     0.00394162   -0.00016704    0.00240724
     atom    4 type  1   force =    -0.03157574    0.01909929   -0.00188878
     atom    5 type  1   force =    -0.02100213   -0.00175149    0.00185600
     atom    6 type  1   force =     0.01761742    0.05908112   -0.01841309
     atom    7 type  1   force =    -0.01471636   -0.03347449    0.00207669
     atom    8 type  1   force =     0.01471636    0.03347449    0.00207669
     atom    9 type  1   force =     0.00000000    0.00000000   -0.01751847
     atom   10 type  1   force =     0.02100213   -0.00175149    0.00185600
     atom   11 type  1   force =    -0.01761742    0.05908112   -0.01841309
     atom   12 type  1   force =     0.00000000    0.00000000   -0.01751847
     atom   13 type  2   force =    -0.04450825   -0.07165163    0.01487288
     atom   14 type  2   force =     0.04450825    0.07165163    0.01487288
     atom   15 type  2   force =     0.08371634   -0.04258723   -0.06171599
     atom   16 type  2   force =    -0.08371634    0.04258723   -0.06171599
     atom   17 type  2   force =    -0.91229717    1.25766548    0.07465915
     atom   18 type  2   force =     0.04764117    0.08671912    0.09342026
     atom   19 type  2   force =     0.91229717   -1.25766548    0.07465915
     atom   20 type  2   force =    -0.04764117   -0.08671912    0.09342026
     atom   21 type  2   force =    -0.01348890    0.06767818   -0.09825864
     atom   22 type  2   force =     0.05051625    0.06214965    0.08245322
     atom   23 type  2   force =    -0.99315489    1.05888909   -0.74443308
     atom   24 type  2   force =     0.03636484   -0.06171113   -0.07147425
     atom   25 type  2   force =     1.11656707    1.03195676   -0.83681752
     atom   26 type  2   force =    -1.11656707   -1.03195676   -0.83681752
     atom   27 type  2   force =    -0.07784047    0.03548277    0.05847287
     atom   28 type  2   force =     0.07784047   -0.03548277    0.05847287
     atom   29 type  2   force =    -0.04764117    0.08671912    0.09342026
     atom   30 type  2   force =     0.91229717    1.25766548    0.07465915
     atom   31 type  2   force =     0.04764117   -0.08671912    0.09342026
     atom   32 type  2   force =    -0.91229717   -1.25766548    0.07465915
     atom   33 type  2   force =     0.99315489    1.05888909   -0.74443308
     atom   34 type  2   force =    -0.03636484   -0.06171113   -0.07147425
     atom   35 type  2   force =     0.01348890    0.06767818   -0.09825864
     atom   36 type  2   force =    -0.05051625    0.06214965    0.08245322
     atom   37 type  1   force =     0.00394162    0.00016704    0.00240724
     atom   38 type  1   force =    -0.00394162   -0.00016704    0.00240724
     atom   39 type  1   force =     0.03157574   -0.01909929   -0.00188878
     atom   40 type  1   force =    -0.00394162    0.00016704    0.00240724
     atom   41 type  1   force =    -0.01761742   -0.05908112   -0.01841309
     atom   42 type  1   force =     0.02100213    0.00175149    0.00185600
     atom   43 type  1   force =     0.00000000    0.00000000   -0.02656226
     atom   44 type  1   force =     0.00000000    0.00000000    0.00964677
     atom   45 type  1   force =     0.01761742   -0.05908112   -0.01841309
     atom   46 type  1   force =    -0.02100213    0.00175149    0.00185600
     atom   47 type  1   force =    -0.01471636    0.03347449    0.00207669
     atom   48 type  1   force =     0.01471636   -0.03347449    0.00207669
     atom   49 type  1   force =     0.00000000    0.00000000    0.00964677
     atom   50 type  1   force =     0.00000000    0.00000000   -0.02656226
     atom   51 type  2   force =    -0.07784047   -0.03548277    0.05847287
     atom   52 type  2   force =     0.07784047    0.03548277    0.05847287
     atom   53 type  2   force =     1.11656707   -1.03195676   -0.83681752
     atom   54 type  2   force =    -1.11656707    1.03195676   -0.83681752
     atom   55 type  2   force =     0.05770624   -0.07950664   -0.04602548
     atom   56 type  2   force =     0.06504386    0.07119301    0.03963205
     atom   57 type  2   force =    -0.05770624    0.07950664   -0.04602548
     atom   58 type  2   force =    -0.06504386   -0.07119301    0.03963205
     atom   59 type  2   force =    -0.03636484    0.06171113   -0.07147425
     atom   60 type  2   force =     0.99315489   -1.05888909   -0.74443308
     atom   61 type  2   force =    -0.05051625   -0.06214965    0.08245322
     atom   62 type  2   force =     0.01348890   -0.06767818   -0.09825864
     atom   63 type  2   force =     0.08371634    0.04258723   -0.06171599
     atom   64 type  2   force =    -0.08371634   -0.04258723   -0.06171599
     atom   65 type  2   force =    -0.04450825    0.07165163    0.01487288
     atom   66 type  2   force =     0.04450825   -0.07165163    0.01487288
     atom   67 type  2   force =    -0.06504386    0.07119301    0.03963205
     atom   68 type  2   force =    -0.05770624   -0.07950664   -0.04602548
     atom   69 type  2   force =     0.06504386   -0.07119301    0.03963205
     atom   70 type  2   force =     0.05770624    0.07950664   -0.04602548
     atom   71 type  2   force =     0.05051625   -0.06214965    0.08245322
     atom   72 type  2   force =    -0.01348890   -0.06767818   -0.09825864
     atom   73 type  2   force =     0.03636484    0.06171113   -0.07147425
     atom   74 type  2   force =    -0.99315489   -1.05888909   -0.74443308
     atom   75 type  1   force =    -0.00394162   -0.00016704   -0.00240724
     atom   76 type  1   force =     0.00394162    0.00016704   -0.00240724
     atom   77 type  1   force =    -0.03157574    0.01909929    0.00188878
     atom   78 type  1   force =     0.00394162   -0.00016704   -0.00240724
     atom   79 type  1   force =    -0.01761742    0.05908112    0.01841309
     atom   80 type  1   force =     0.02100213   -0.00175149   -0.00185600
     atom   81 type  1   force =     0.01471636   -0.03347449   -0.00207669
     atom   82 type  1   force =    -0.01471636    0.03347449   -0.00207669
     atom   83 type  1   force =     0.00000000    0.00000000   -0.00964677
     atom   84 type  1   force =     0.00000000    0.00000000    0.02656226
     atom   85 type  1   force =     0.01761742    0.05908112    0.01841309
     atom   86 type  1   force =    -0.02100213   -0.00175149   -0.00185600
     atom   87 type  1   force =     0.00000000    0.03100375    0.00000000
     atom   88 type  1   force =     0.00000000   -0.03100375    0.00000000
     atom   89 type  1   force =     0.00000000    0.00000000    0.02656226
     atom   90 type  1   force =     0.00000000    0.00000000   -0.00964677
     atom   91 type  2   force =    -0.08371634   -0.04258723    0.06171599
     atom   92 type  2   force =     0.08371634    0.04258723    0.06171599
     atom   93 type  2   force =     0.04450825   -0.07165163   -0.01487288
     atom   94 type  2   force =    -0.04450825    0.07165163   -0.01487288
     atom   95 type  2   force =     0.06504386   -0.07119301   -0.03963205
     atom   96 type  2   force =     0.05770624    0.07950664    0.04602548
     atom   97 type  2   force =    -0.06504386    0.07119301   -0.03963205
     atom   98 type  2   force =    -0.05770624   -0.07950664    0.04602548
     atom   99 type  2   force =    -0.05051625    0.06214965   -0.08245322
     atom  100 type  2   force =     0.01348890    0.06767818    0.09825864
     atom  101 type  2   force =    -0.03636484   -0.06171113    0.07147425
     atom  102 type  2   force =     0.99315489    1.05888909    0.74443308
     atom  103 type  2   force =     0.07784047    0.03548277   -0.05847287
     atom  104 type  2   force =    -0.07784047   -0.03548277   -0.05847287
     atom  105 type  2   force =    -1.11656707    1.03195676    0.83681752
     atom  106 type  2   force =     1.11656707   -1.03195676    0.83681752
     atom  107 type  2   force =    -0.05770624    0.07950664    0.04602548
     atom  108 type  2   force =    -0.06504386   -0.07119301   -0.03963205
     atom  109 type  2   force =     0.05770624   -0.07950664    0.04602548
     atom  110 type  2   force =     0.06504386    0.07119301   -0.03963205
     atom  111 type  2   force =     0.03636484   -0.06171113    0.07147425
     atom  112 type  2   force =    -0.99315489    1.05888909    0.74443308
     atom  113 type  2   force =     0.05051625    0.06214965   -0.08245322
     atom  114 type  2   force =    -0.01348890    0.06767818    0.09825864
     atom  115 type  1   force =    -0.03157574   -0.01909929    0.00188878
     atom  116 type  1   force =     0.03157574    0.01909929    0.00188878
     atom  117 type  1   force =    -0.00394162    0.00016704   -0.00240724
     atom  118 type  1   force =     0.03157574   -0.01909929    0.00188878
     atom  119 type  1   force =    -0.02100213    0.00175149   -0.00185600
     atom  120 type  1   force =     0.01761742   -0.05908112    0.01841309
     atom  121 type  1   force =     0.00000000   -0.03100375    0.00000000
     atom  122 type  1   force =     0.00000000    0.03100375    0.00000000
     atom  123 type  1   force =     0.00000000    0.00000000    0.01751847
     atom  124 type  1   force =     0.02100213    0.00175149   -0.00185600
     atom  125 type  1   force =    -0.01761742   -0.05908112    0.01841309
     atom  126 type  1   force =     0.01471636    0.03347449   -0.00207669
     atom  127 type  1   force =    -0.01471636   -0.03347449   -0.00207669
     atom  128 type  1   force =     0.00000000    0.00000000    0.01751847
     atom  129 type  2   force =    -1.11656707   -1.03195676    0.83681752
     atom  130 type  2   force =     1.11656707    1.03195676    0.83681752
     atom  131 type  2   force =     0.07784047   -0.03548277   -0.05847287
     atom  132 type  2   force =    -0.07784047    0.03548277   -0.05847287
     atom  133 type  2   force =     0.04764117   -0.08671912   -0.09342026
     atom  134 type  2   force =    -0.91229717   -1.25766548   -0.07465915
     atom  135 type  2   force =    -0.04764117    0.08671912   -0.09342026
     atom  136 type  2   force =     0.91229717    1.25766548   -0.07465915
     atom  137 type  2   force =    -0.99315489   -1.05888909    0.74443308
     atom  138 type  2   force =     0.03636484    0.06171113    0.07147425
     atom  139 type  2   force =    -0.01348890   -0.06767818    0.09825864
     atom  140 type  2   force =     0.05051625   -0.06214965   -0.08245322
     atom  141 type  2   force =     0.04450825    0.07165163   -0.01487288
     atom  142 type  2   force =    -0.04450825   -0.07165163   -0.01487288
     atom  143 type  2   force =    -0.08371634    0.04258723    0.06171599
     atom  144 type  2   force =     0.08371634   -0.04258723    0.06171599
     atom  145 type  2   force =     0.91229717   -1.25766548   -0.07465915
     atom  146 type  2   force =    -0.04764117   -0.08671912   -0.09342026
     atom  147 type  2   force =    -0.91229717    1.25766548   -0.07465915
     atom  148 type  2   force =     0.04764117    0.08671912   -0.09342026
     atom  149 type  2   force =     0.01348890   -0.06767818    0.09825864
     atom  150 type  2   force =    -0.05051625   -0.06214965   -0.08245322
     atom  151 type  2   force =     0.99315489   -1.05888909    0.74443308
     atom  152 type  2   force =    -0.03636484    0.06171113    0.07147425
     atom  153 type  3   force =     0.06256168   -0.07393770    0.03185570
     atom  154 type  3   force =    -0.06256168    0.07393770    0.03185570
     atom  155 type  3   force =     0.05340657   -0.04874905    0.07674997
     atom  156 type  3   force =    -0.04218041   -0.04125288    0.08790218
     atom  157 type  3   force =     0.04218041    0.04125288    0.08790218
     atom  158 type  3   force =    -0.06256168   -0.07393770    0.03185570
     atom  159 type  3   force =     0.06256168    0.07393770    0.03185570
     atom  160 type  3   force =    -0.05340657   -0.04874905    0.07674997
     atom  161 type  3   force =    -0.04218041    0.04125288    0.08790218
     atom  162 type  3   force =     0.04218041   -0.04125288    0.08790218
     atom  163 type  3   force =    -0.05340657    0.04874905    0.07674997
     atom  164 type  3   force =     0.05340657    0.04874905    0.07674997
     atom  165 type  3   force =    -0.05340657   -0.04874905   -0.07674997
     atom  166 type  3   force =     0.04218041   -0.04125288   -0.08790218
     atom  167 type  3   force =    -0.04218041    0.04125288   -0.08790218
     atom  168 type  3   force =     0.05340657   -0.04874905   -0.07674997
     atom  169 type  3   force =     0.04218041    0.04125288   -0.08790218
     atom  170 type  3   force =    -0.04218041   -0.04125288   -0.08790218
     atom  171 type  3   force =     0.06256168    0.07393770   -0.03185570
     atom  172 type  3   force =    -0.06256168   -0.07393770   -0.03185570
     atom  173 type  3   force =     0.05340657    0.04874905   -0.07674997
     atom  174 type  3   force =    -0.06256168    0.07393770   -0.03185570
     atom  175 type  3   force =     0.06256168   -0.07393770   -0.03185570
     atom  176 type  3   force =    -0.05340657    0.04874905   -0.07674997
     The ionic contribution  to forces
     atom    1 type  1   force =     3.16086321    1.20313006 -258.19685784
     atom    2 type  1   force =    -3.16086323   -1.20313007 -258.19685783
     atom    3 type  1   force =     0.13801668    0.00202085  -86.04394293
     atom    4 type  1   force =    -3.16086324    1.20313010 -258.19685785
     atom    5 type  1   force =     3.98526112   -0.10301251  -86.12732094
     atom    6 type  1   force =    -4.07302424    3.17548967 -257.54997815
     atom    7 type  1   force =    -0.19588165    3.81784857 -172.29685290
     atom    8 type  1   force =     0.19588163   -3.81784859 -172.29685288
     atom    9 type  1   force =    -0.00000005   -0.00000001 -179.24936618
     atom   10 type  1   force =    -3.98526114   -0.10301246  -86.12732094
     atom   11 type  1   force =     4.07302421    3.17548969 -257.54997815
     atom   12 type  1   force =     0.00000001   -0.00000002 -179.24936617
     atom   13 type  2   force =     2.90354733    2.28153400  -99.07543234
     atom   14 type  2   force =    -2.90354734   -2.28153401  -99.07543234
     atom   15 type  2   force =    -2.55402023    1.72384596  -60.48394001
     atom   16 type  2   force =     2.55402025   -1.72384599  -60.48394004
     atom   17 type  2   force =     2.17186219   -2.19430717 -133.68988183
     atom   18 type  2   force =    -0.07631491   -2.81326285 -105.34659141
     atom   19 type  2   force =    -2.17186221    2.19430722 -133.68988181
     atom   20 type  2   force =     0.07631486    2.81326286 -105.34659143
     atom   21 type  2   force =     1.80768910   -0.01211425  -93.95085732
     atom   22 type  2   force =    -1.70998796   -0.10879718  -64.57745693
     atom   23 type  2   force =     2.34537497   -1.86598760 -137.55996821
     atom   24 type  2   force =    -1.71359822    0.05636917  -14.96538183
     atom   25 type  2   force =    -3.75599783   -3.33267463 -137.09030477
     atom   26 type  2   force =     3.75599786    3.33267465 -137.09030479
     atom   27 type  2   force =     2.58057422   -1.71752243  -18.77978266
     atom   28 type  2   force =    -2.58057425    1.71752242  -18.77978266
     atom   29 type  2   force =     0.07631488   -2.81326289 -105.34659144
     atom   30 type  2   force =    -2.17186222   -2.19430716 -133.68988177
     atom   31 type  2   force =    -0.07631490    2.81326284 -105.34659141
     atom   32 type  2   force =     2.17186220    2.19430716 -133.68988183
     atom   33 type  2   force =    -2.34537498   -1.86598762 -137.55996821
     atom   34 type  2   force =     1.71359826    0.05636917  -14.96538178
     atom   35 type  2   force =    -1.80768912   -0.01211424  -93.95085733
     atom   36 type  2   force =     1.70998795   -0.10879717  -64.57745694
     atom   37 type  1   force =     0.13801669   -0.00202083  -86.04394292
     atom   38 type  1   force =    -0.13801671    0.00202082  -86.04394298
     atom   39 type  1   force =     3.16086321   -1.20313012 -258.19685788
     atom   40 type  1   force =    -0.13801671   -0.00202089  -86.04394296
     atom   41 type  1   force =     4.07302442   -3.17548965 -257.54997815
     atom   42 type  1   force =    -3.98526116    0.10301252  -86.12732094
     atom   43 type  1   force =     0.00000005   -0.00000001   -7.68867750
     atom   44 type  1   force =     0.00000006   -0.00000001 -165.41494339
     atom   45 type  1   force =    -4.07302426   -3.17548969 -257.54997815
     atom   46 type  1   force =     3.98526133    0.10301247  -86.12732094
     atom   47 type  1   force =    -0.19588166   -3.81784862 -172.29685285
     atom   48 type  1   force =     0.19588164    3.81784877 -172.29685284
     atom   49 type  1   force =     0.00000000   -0.00000002 -165.41494339
     atom   50 type  1   force =     0.00000001   -0.00000001   -7.68867751
     atom   51 type  2   force =     2.58057426    1.71752244  -18.77978264
     atom   52 type  2   force =    -2.58057427   -1.71752242  -18.77978269
     atom   53 type  2   force =    -3.75599784    3.33267462 -137.09030477
     atom   54 type  2   force =     3.75599784   -3.33267460 -137.09030473
     atom   55 type  2   force =    -0.00163710    2.57979354  -53.50895229
     atom   56 type  2   force =    -0.07175913   -2.57933041  -26.23565658
     atom   57 type  2   force =     0.00163710   -2.57979356  -53.50895228
     atom   58 type  2   force =     0.07175912    2.57933045  -26.23565662
     atom   59 type  2   force =     1.71359821   -0.05636918  -14.96538182
     atom   60 type  2   force =    -2.34537495    1.86598762 -137.55996825
     atom   61 type  2   force =     1.70998798    0.10879715  -64.57745697
     atom   62 type  2   force =    -1.80768914    0.01211425  -93.95085725
     atom   63 type  2   force =    -2.55402027   -1.72384595  -60.48393998
     atom   64 type  2   force =     2.55402022    1.72384595  -60.48394001
     atom   65 type  2   force =     2.90354740   -2.28153402  -99.07543235
     atom   66 type  2   force =    -2.90354733    2.28153400  -99.07543234
     atom   67 type  2   force =     0.07175912   -2.57933042  -26.23565657
     atom   68 type  2   force =     0.00163711    2.57979350  -53.50895233
     atom   69 type  2   force =    -0.07175912    2.57933044  -26.23565660
     atom   70 type  2   force =    -0.00163713   -2.57979351  -53.50895232
     atom   71 type  2   force =    -1.70998794    0.10879719  -64.57745696
     atom   72 type  2   force =     1.80768910    0.01211423  -93.95085734
     atom   73 type  2   force =    -1.71359821   -0.05636922  -14.96538179
     atom   74 type  2   force =     2.34537494    1.86598761 -137.55996825
     atom   75 type  1   force =    -0.13801656    0.00202079   86.04394291
     atom   76 type  1   force =     0.13801653   -0.00202081   86.04394295
     atom   77 type  1   force =    -3.16086328    1.20313003  258.19685790
     atom   78 type  1   force =     0.13801652    0.00202083   86.04394296
     atom   79 type  1   force =     4.07302416    3.17548971  257.54997819
     atom   80 type  1   force =    -3.98526116   -0.10301235   86.12732093
     atom   81 type  1   force =     0.19588168    3.81784860  172.29685287
     atom   82 type  1   force =    -0.19588171   -3.81784862  172.29685288
     atom   83 type  1   force =    -0.00000005   -0.00000001  165.41494341
     atom   84 type  1   force =    -0.00000004   -0.00000002    7.68867741
     atom   85 type  1   force =    -4.07302419    3.17548973  257.54997819
     atom   86 type  1   force =     3.98526114   -0.10301230   86.12732093
     atom   87 type  1   force =     0.00000003   -3.85665994   -0.00000003
     atom   88 type  1   force =    -0.00000005    3.85665993   -0.00000002
     atom   89 type  1   force =     0.00000000   -0.00000001    7.68867742
     atom   90 type  1   force =     0.00000001   -0.00000002  165.41494341
     atom   91 type  2   force =     2.55402022    1.72384595   60.48394000
     atom   92 type  2   force =    -2.55402023   -1.72384596   60.48394001
     atom   93 type  2   force =    -2.90354734    2.28153400   99.07543238
     atom   94 type  2   force =     2.90354736   -2.28153403   99.07543236
     atom   95 type  2   force =    -0.07175909    2.57933038   26.23565651
     atom   96 type  2   force =    -0.00163715   -2.57979353   53.50895225
     atom   97 type  2   force =     0.07175907   -2.57933038   26.23565651
     atom   98 type  2   force =     0.00163710    2.57979354   53.50895223
     atom   99 type  2   force =     1.70998796   -0.10879717   64.57745693
     atom  100 type  2   force =    -1.80768912   -0.01211424   93.95085736
     atom  101 type  2   force =     1.71359819    0.05636921   14.96538177
     atom  102 type  2   force =    -2.34537502   -1.86598763  137.55996820
     atom  103 type  2   force =    -2.58057428   -1.71752248   18.77978262
     atom  104 type  2   force =     2.58057432    1.71752249   18.77978261
     atom  105 type  2   force =     3.75599782   -3.33267462  137.09030477
     atom  106 type  2   force =    -3.75599784    3.33267462  137.09030477
     atom  107 type  2   force =     0.00163712   -2.57979356   53.50895221
     atom  108 type  2   force =     0.07175904    2.57933046   26.23565657
     atom  109 type  2   force =    -0.00163713    2.57979351   53.50895225
     atom  110 type  2   force =    -0.07175908   -2.57933040   26.23565651
     atom  111 type  2   force =    -1.71359824    0.05636920   14.96538173
     atom  112 type  2   force =     2.34537501   -1.86598762  137.55996821
     atom  113 type  2   force =    -1.70998797   -0.10879716   64.57745693
     atom  114 type  2   force =     1.80768911   -0.01211423   93.95085735
     atom  115 type  1   force =    -3.16086327   -1.20313000  258.19685793
     atom  116 type  1   force =     3.16086325    1.20313000  258.19685790
     atom  117 type  1   force =    -0.13801655   -0.00202086   86.04394290
     atom  118 type  1   force =     3.16086325   -1.20313006  258.19685788
     atom  119 type  1   force =     3.98526134    0.10301236   86.12732094
     atom  120 type  1   force =    -4.07302420   -3.17548970  257.54997819
     atom  121 type  1   force =     0.00000002    3.85666014    0.00000001
     atom  122 type  1   force =    -0.00000004   -3.85665997    0.00000002
     atom  123 type  1   force =     0.00000006   -0.00000001  179.24936626
     atom  124 type  1   force =    -3.98526119    0.10301231   86.12732093
     atom  125 type  1   force =     4.07302437   -3.17548972  257.54997820
     atom  126 type  1   force =     0.19588167   -3.81784865  172.29685292
     atom  127 type  1   force =    -0.19588170    3.81784880  172.29685293
     atom  128 type  1   force =     0.00000000   -0.00000002  179.24936624
     atom  129 type  2   force =     3.75599786    3.33267464  137.09030479
     atom  130 type  2   force =    -3.75599785   -3.33267461  137.09030473
     atom  131 type  2   force =    -2.58057430    1.71752245   18.77978263
     atom  132 type  2   force =     2.58057432   -1.71752246   18.77978266
     atom  133 type  2   force =    -0.07631488    2.81326288  105.34659148
     atom  134 type  2   force =     2.17186219    2.19430716  133.68988182
     atom  135 type  2   force =     0.07631489   -2.81326290  105.34659149
     atom  136 type  2   force =    -2.17186223   -2.19430717  133.68988177
     atom  137 type  2   force =     2.34537498    1.86598764  137.55996825
     atom  138 type  2   force =    -1.71359819   -0.05636925   14.96538173
     atom  139 type  2   force =     1.80768915    0.01211421   93.95085731
     atom  140 type  2   force =    -1.70998799    0.10879717   64.57745701
     atom  141 type  2   force =    -2.90354738   -2.28153399   99.07543241
     atom  142 type  2   force =     2.90354732    2.28153399   99.07543239
     atom  143 type  2   force =     2.55402029   -1.72384598   60.48394000
     atom  144 type  2   force =    -2.55402022    1.72384595   60.48394001
     atom  145 type  2   force =    -2.17186221    2.19430721  133.68988181
     atom  146 type  2   force =     0.07631490    2.81326284  105.34659144
     atom  147 type  2   force =     2.17186218   -2.19430716  133.68988183
     atom  148 type  2   force =    -0.07631492   -2.81326285  105.34659145
     atom  149 type  2   force =    -1.80768910    0.01211425   93.95085733
     atom  150 type  2   force =     1.70998795    0.10879715   64.57745692
     atom  151 type  2   force =    -2.34537499    1.86598763  137.55996824
     atom  152 type  2   force =     1.71359818   -0.05636923   14.96538177
     atom  153 type  3   force =    -1.47257686    2.17516408  -23.60700972
     atom  154 type  3   force =     1.47257688   -2.17516413  -23.60700975
     atom  155 type  3   force =    -1.75989492    1.58149813  -25.69261494
     atom  156 type  3   force =     1.15030154    1.04659947  -26.13679954
     atom  157 type  3   force =    -1.15030154   -1.04659947  -26.13679954
     atom  158 type  3   force =     1.47257688    2.17516413  -23.60700974
     atom  159 type  3   force =    -1.47257686   -2.17516408  -23.60700972
     atom  160 type  3   force =     1.75989492    1.58149813  -25.69261494
     atom  161 type  3   force =     1.15030154   -1.04659947  -26.13679954
     atom  162 type  3   force =    -1.15030156    1.04659946  -26.13679957
     atom  163 type  3   force =     1.75989490   -1.58149816  -25.69261496
     atom  164 type  3   force =    -1.75989490   -1.58149814  -25.69261491
     atom  165 type  3   force =     1.75989498    1.58149818   25.69261498
     atom  166 type  3   force =    -1.15030154    1.04659947   26.13679954
     atom  167 type  3   force =     1.15030154   -1.04659947   26.13679954
     atom  168 type  3   force =    -1.75989498    1.58149818   25.69261498
     atom  169 type  3   force =    -1.15030154   -1.04659946   26.13679954
     atom  170 type  3   force =     1.15030155    1.04659945   26.13679957
     atom  171 type  3   force =    -1.47257686   -2.17516408   23.60700972
     atom  172 type  3   force =     1.47257688    2.17516413   23.60700974
     atom  173 type  3   force =    -1.75989496   -1.58149819   25.69261494
     atom  174 type  3   force =     1.47257688   -2.17516413   23.60700974
     atom  175 type  3   force =    -1.47257686    2.17516408   23.60700972
     atom  176 type  3   force =     1.75989496   -1.58149821   25.69261499
     The local contribution  to forces
     atom    1 type  1   force =    -3.19083306   -1.22140742  258.19916508
     atom    2 type  1   force =     3.19083306    1.22140742  258.19916508
     atom    3 type  1   force =    -0.14163702   -0.00131391   86.04170979
     atom    4 type  1   force =     3.19083306   -1.22140742  258.19916508
     atom    5 type  1   force =    -3.96535378    0.10467740   86.12573785
     atom    6 type  1   force =     4.05683106   -3.23176795  257.56768989
     atom    7 type  1   force =     0.20978402   -3.78659491  172.29538903
     atom    8 type  1   force =    -0.20978402    3.78659491  172.29538903
     atom    9 type  1   force =     0.00000000    0.00000000  179.26504478
     atom   10 type  1   force =     3.96535378    0.10467740   86.12573785
     atom   11 type  1   force =    -4.05683106   -3.23176795  257.56768989
     atom   12 type  1   force =     0.00000000    0.00000000  179.26504478
     atom   13 type  2   force =    -2.85898684   -2.20993545   99.06064727
     atom   14 type  2   force =     2.85898684    2.20993545   99.06064727
     atom   15 type  2   force =     2.47025151   -1.68155148   60.54509146
     atom   16 type  2   force =    -2.47025151    1.68155148   60.54509146
     atom   17 type  2   force =    -1.26593584    0.94635680  133.61622471
     atom   18 type  2   force =     0.02953867    2.72716835  105.25336483
     atom   19 type  2   force =     1.26593584   -0.94635680  133.61622471
     atom   20 type  2   force =    -0.02953867   -2.72716835  105.25336483
     atom   21 type  2   force =    -1.79428823   -0.05511981   94.04888824
     atom   22 type  2   force =     1.65996588    0.04749263   64.49562926
     atom   23 type  2   force =    -1.35938403    0.81541676  138.29914585
     atom   24 type  2   force =     1.67755433    0.00488204   15.03625566
     atom   25 type  2   force =     2.64858763    2.30882639  137.92123482
     atom   26 type  2   force =    -2.64858763   -2.30882639  137.92123482
     atom   27 type  2   force =    -2.50316080    1.68220055   18.72231023
     atom   28 type  2   force =     2.50316080   -1.68220055   18.72231023
     atom   29 type  2   force =    -0.02953867    2.72716835  105.25336483
     atom   30 type  2   force =     1.26593584    0.94635680  133.61622471
     atom   31 type  2   force =     0.02953867   -2.72716835  105.25336483
     atom   32 type  2   force =    -1.26593584   -0.94635680  133.61622471
     atom   33 type  2   force =     1.35938403    0.81541676  138.29914585
     atom   34 type  2   force =    -1.67755433    0.00488204   15.03625566
     atom   35 type  2   force =     1.79428823   -0.05511981   94.04888824
     atom   36 type  2   force =    -1.65996588    0.04749263   64.49562926
     atom   37 type  1   force =    -0.14163702    0.00131391   86.04170979
     atom   38 type  1   force =     0.14163702   -0.00131391   86.04170979
     atom   39 type  1   force =    -3.19083306    1.22140742  258.19916508
     atom   40 type  1   force =     0.14163702    0.00131391   86.04170979
     atom   41 type  1   force =    -4.05682984    3.23176794  257.56768990
     atom   42 type  1   force =     3.96535378   -0.10467740   86.12573785
     atom   43 type  1   force =     0.00000000    0.00000000    7.71284352
     atom   44 type  1   force =     0.00000000    0.00000000  165.40586726
     atom   45 type  1   force =     4.05683106    3.23176795  257.56768989
     atom   46 type  1   force =    -3.96535255   -0.10467740   86.12573785
     atom   47 type  1   force =     0.20978402    3.78659491  172.29538903
     atom   48 type  1   force =    -0.20978402   -3.78659369  172.29538903
     atom   49 type  1   force =     0.00000000    0.00000000  165.40586726
     atom   50 type  1   force =     0.00000000    0.00000000    7.71284352
     atom   51 type  2   force =    -2.50316080   -1.68220055   18.72231023
     atom   52 type  2   force =     2.50316080    1.68220055   18.72231023
     atom   53 type  2   force =     2.64858763   -2.30882639  137.92123482
     atom   54 type  2   force =    -2.64858763    2.30882639  137.92123482
     atom   55 type  2   force =    -0.05555572   -2.50030220   53.55535390
     atom   56 type  2   force =     0.00759408    2.50841917   26.19601558
     atom   57 type  2   force =     0.05555572    2.50030220   53.55535390
     atom   58 type  2   force =    -0.00759408   -2.50841917   26.19601558
     atom   59 type  2   force =    -1.67755433   -0.00488204   15.03625566
     atom   60 type  2   force =     1.35938403   -0.81541676  138.29914585
     atom   61 type  2   force =    -1.65996588   -0.04749263   64.49562926
     atom   62 type  2   force =     1.79428823    0.05511981   94.04888824
     atom   63 type  2   force =     2.47025151    1.68155148   60.54509146
     atom   64 type  2   force =    -2.47025151   -1.68155148   60.54509146
     atom   65 type  2   force =    -2.85898684    2.20993545   99.06064727
     atom   66 type  2   force =     2.85898684   -2.20993545   99.06064727
     atom   67 type  2   force =    -0.00759408    2.50841917   26.19601558
     atom   68 type  2   force =     0.05555572   -2.50030220   53.55535390
     atom   69 type  2   force =     0.00759408   -2.50841917   26.19601558
     atom   70 type  2   force =    -0.05555572    2.50030220   53.55535390
     atom   71 type  2   force =     1.65996588   -0.04749263   64.49562926
     atom   72 type  2   force =    -1.79428823    0.05511981   94.04888824
     atom   73 type  2   force =     1.67755433   -0.00488204   15.03625566
     atom   74 type  2   force =    -1.35938403   -0.81541676  138.29914585
     atom   75 type  1   force =     0.14163697   -0.00131397  -86.04171127
     atom   76 type  1   force =    -0.14163697    0.00131397  -86.04171127
     atom   77 type  1   force =     3.19083306   -1.22140742 -258.19916508
     atom   78 type  1   force =    -0.14163697   -0.00131397  -86.04171127
     atom   79 type  1   force =    -4.05683106   -3.23176795 -257.56768989
     atom   80 type  1   force =     3.96535378    0.10467735  -86.12573935
     atom   81 type  1   force =    -0.20978402   -3.78659491 -172.29538903
     atom   82 type  1   force =     0.20978402    3.78659491 -172.29538903
     atom   83 type  1   force =     0.00000000    0.00000000 -165.40586726
     atom   84 type  1   force =     0.00000000    0.00000000   -7.71284352
     atom   85 type  1   force =     4.05683106   -3.23176795 -257.56768989
     atom   86 type  1   force =    -3.96535378    0.10467735  -86.12573935
     atom   87 type  1   force =     0.00000002    3.82849809   -0.00000073
     atom   88 type  1   force =    -0.00000002   -3.82849809   -0.00000073
     atom   89 type  1   force =     0.00000000    0.00000000   -7.71284352
     atom   90 type  1   force =     0.00000000    0.00000000 -165.40586726
     atom   91 type  2   force =    -2.47025149   -1.68155146  -60.54509220
     atom   92 type  2   force =     2.47025149    1.68155146  -60.54509220
     atom   93 type  2   force =     2.85898684   -2.20993545  -99.06064727
     atom   94 type  2   force =    -2.85898684    2.20993545  -99.06064727
     atom   95 type  2   force =     0.00759408   -2.50841917  -26.19601558
     atom   96 type  2   force =    -0.05555572    2.50030220  -53.55535390
     atom   97 type  2   force =    -0.00759408    2.50841917  -26.19601558
     atom   98 type  2   force =     0.05555572   -2.50030220  -53.55535390
     atom   99 type  2   force =    -1.65996588    0.04749263  -64.49562926
     atom  100 type  2   force =     1.79428823   -0.05511981  -94.04888824
     atom  101 type  2   force =    -1.67755433    0.00488204  -15.03625566
     atom  102 type  2   force =     1.35938403    0.81541675 -138.29914692
     atom  103 type  2   force =     2.50316083    1.68220058  -18.72231134
     atom  104 type  2   force =    -2.50316083   -1.68220058  -18.72231134
     atom  105 type  2   force =    -2.64858763    2.30882639 -137.92123482
     atom  106 type  2   force =     2.64858763   -2.30882639 -137.92123482
     atom  107 type  2   force =     0.05555572    2.50030220  -53.55535390
     atom  108 type  2   force =    -0.00759408   -2.50841917  -26.19601558
     atom  109 type  2   force =    -0.05555572   -2.50030220  -53.55535390
     atom  110 type  2   force =     0.00759408    2.50841917  -26.19601558
     atom  111 type  2   force =     1.67755433    0.00488204  -15.03625566
     atom  112 type  2   force =    -1.35938403    0.81541675 -138.29914692
     atom  113 type  2   force =     1.65996588    0.04749263  -64.49562926
     atom  114 type  2   force =    -1.79428823   -0.05511981  -94.04888824
     atom  115 type  1   force =     3.19083306    1.22140742 -258.19916508
     atom  116 type  1   force =    -3.19083306   -1.22140742 -258.19916508
     atom  117 type  1   force =     0.14163697    0.00131397  -86.04171127
     atom  118 type  1   force =    -3.19083306    1.22140742 -258.19916508
     atom  119 type  1   force =    -3.96535255   -0.10467735  -86.12573935
     atom  120 type  1   force =     4.05683106    3.23176795 -257.56768989
     atom  121 type  1   force =     0.00000002   -3.82849687   -0.00000073
     atom  122 type  1   force =    -0.00000002    3.82849809   -0.00000073
     atom  123 type  1   force =     0.00000000    0.00000000 -179.26504478
     atom  124 type  1   force =     3.96535378   -0.10467735  -86.12573935
     atom  125 type  1   force =    -4.05682984    3.23176794 -257.56768990
     atom  126 type  1   force =    -0.20978402    3.78659491 -172.29538903
     atom  127 type  1   force =     0.20978402   -3.78659369 -172.29538903
     atom  128 type  1   force =     0.00000000    0.00000000 -179.26504478
     atom  129 type  2   force =    -2.64858763   -2.30882639 -137.92123482
     atom  130 type  2   force =     2.64858763    2.30882639 -137.92123482
     atom  131 type  2   force =     2.50316083   -1.68220058  -18.72231134
     atom  132 type  2   force =    -2.50316083    1.68220058  -18.72231134
     atom  133 type  2   force =     0.02953867   -2.72716835 -105.25336483
     atom  134 type  2   force =    -1.26593584   -0.94635680 -133.61622471
     atom  135 type  2   force =    -0.02953867    2.72716835 -105.25336483
     atom  136 type  2   force =     1.26593584    0.94635680 -133.61622471
     atom  137 type  2   force =    -1.35938403   -0.81541675 -138.29914692
     atom  138 type  2   force =     1.67755433   -0.00488204  -15.03625566
     atom  139 type  2   force =    -1.79428823    0.05511981  -94.04888824
     atom  140 type  2   force =     1.65996588   -0.04749263  -64.49562926
     atom  141 type  2   force =     2.85898684    2.20993545  -99.06064727
     atom  142 type  2   force =    -2.85898684   -2.20993545  -99.06064727
     atom  143 type  2   force =    -2.47025149    1.68155146  -60.54509220
     atom  144 type  2   force =     2.47025149   -1.68155146  -60.54509220
     atom  145 type  2   force =     1.26593584   -0.94635680 -133.61622471
     atom  146 type  2   force =    -0.02953867   -2.72716835 -105.25336483
     atom  147 type  2   force =    -1.26593584    0.94635680 -133.61622471
     atom  148 type  2   force =     0.02953867    2.72716835 -105.25336483
     atom  149 type  2   force =     1.79428823    0.05511981  -94.04888824
     atom  150 type  2   force =    -1.65996588   -0.04749263  -64.49562926
     atom  151 type  2   force =     1.35938403   -0.81541675 -138.29914692
     atom  152 type  2   force =    -1.67755433   -0.00488204  -15.03625566
     atom  153 type  3   force =     1.40993950   -2.10117643   23.57521398
     atom  154 type  3   force =    -1.40993948    2.10117647   23.57521400
     atom  155 type  3   force =     1.70641326   -1.53293474   25.61548878
     atom  156 type  3   force =    -1.10817258   -1.00527416   26.04854357
     atom  157 type  3   force =     1.10817258    1.00527416   26.04854357
     atom  158 type  3   force =    -1.40993948   -2.10117647   23.57521400
     atom  159 type  3   force =     1.40993950    2.10117643   23.57521398
     atom  160 type  3   force =    -1.70641326   -1.53293474   25.61548878
     atom  161 type  3   force =    -1.10817258    1.00527416   26.04854357
     atom  162 type  3   force =     1.10817259   -1.00527411   26.04854360
     atom  163 type  3   force =    -1.70641320    1.53293479   25.61548878
     atom  164 type  3   force =     1.70641324    1.53293478   25.61548875
     atom  165 type  3   force =    -1.70641326   -1.53293474  -25.61548878
     atom  166 type  3   force =     1.10817258   -1.00527416  -26.04854357
     atom  167 type  3   force =    -1.10817258    1.00527416  -26.04854357
     atom  168 type  3   force =     1.70641326   -1.53293474  -25.61548878
     atom  169 type  3   force =     1.10817258    1.00527416  -26.04854357
     atom  170 type  3   force =    -1.10817259   -1.00527411  -26.04854360
     atom  171 type  3   force =     1.40993950    2.10117643  -23.57521398
     atom  172 type  3   force =    -1.40993948   -2.10117647  -23.57521400
     atom  173 type  3   force =     1.70641324    1.53293478  -25.61548875
     atom  174 type  3   force =    -1.40993948    2.10117647  -23.57521400
     atom  175 type  3   force =     1.40993950   -2.10117643  -23.57521398
     atom  176 type  3   force =    -1.70641320    1.53293479  -25.61548878
     The core correction contribution to forces
     atom    1 type  1   force =    -0.00163532   -0.00104293   -0.00045929
     atom    2 type  1   force =     0.00163532    0.00104293   -0.00045929
     atom    3 type  1   force =    -0.00023736   -0.00003203   -0.00013964
     atom    4 type  1   force =     0.00163532   -0.00104293   -0.00045929
     atom    5 type  1   force =     0.00133122    0.00010598   -0.00010412
     atom    6 type  1   force =    -0.00132972   -0.00294486    0.00059634
     atom    7 type  1   force =     0.00078199    0.00211741   -0.00016088
     atom    8 type  1   force =    -0.00078199   -0.00211741   -0.00016088
     atom    9 type  1   force =    -0.00000000    0.00000000    0.00116804
     atom   10 type  1   force =    -0.00133122    0.00010598   -0.00010412
     atom   11 type  1   force =     0.00132972   -0.00294486    0.00059634
     atom   12 type  1   force =     0.00000000    0.00000000    0.00116804
     atom   13 type  2   force =     0.00011191    0.00040353   -0.00007003
     atom   14 type  2   force =    -0.00011191   -0.00040353   -0.00007003
     atom   15 type  2   force =    -0.00046980    0.00014488    0.00050211
     atom   16 type  2   force =     0.00046980   -0.00014488    0.00050211
     atom   17 type  2   force =     0.00703937   -0.00999906   -0.00095460
     atom   18 type  2   force =    -0.00040324   -0.00052161   -0.00060692
     atom   19 type  2   force =    -0.00703937    0.00999906   -0.00095460
     atom   20 type  2   force =     0.00040324    0.00052161   -0.00060692
     atom   21 type  2   force =    -0.00010914   -0.00054772    0.00058126
     atom   22 type  2   force =    -0.00022194   -0.00051093   -0.00046884
     atom   23 type  2   force =     0.00794651   -0.00866871    0.00598043
     atom   24 type  2   force =    -0.00009565    0.00050807    0.00036609
     atom   25 type  2   force =    -0.00913888   -0.00837580    0.00660790
     atom   26 type  2   force =     0.00913888    0.00837580    0.00660790
     atom   27 type  2   force =     0.00042247   -0.00008482   -0.00048572
     atom   28 type  2   force =    -0.00042247    0.00008482   -0.00048572
     atom   29 type  2   force =     0.00040324   -0.00052161   -0.00060692
     atom   30 type  2   force =    -0.00703937   -0.00999906   -0.00095460
     atom   31 type  2   force =    -0.00040324    0.00052161   -0.00060692
     atom   32 type  2   force =     0.00703937    0.00999906   -0.00095460
     atom   33 type  2   force =    -0.00794651   -0.00866871    0.00598043
     atom   34 type  2   force =     0.00009565    0.00050807    0.00036609
     atom   35 type  2   force =     0.00010914   -0.00054772    0.00058126
     atom   36 type  2   force =     0.00022194   -0.00051093   -0.00046884
     atom   37 type  1   force =    -0.00023736    0.00003203   -0.00013964
     atom   38 type  1   force =     0.00023736   -0.00003203   -0.00013964
     atom   39 type  1   force =    -0.00163532    0.00104293   -0.00045929
     atom   40 type  1   force =     0.00023736    0.00003203   -0.00013964
     atom   41 type  1   force =     0.00132983    0.00294486    0.00059634
     atom   42 type  1   force =    -0.00133122   -0.00010598   -0.00010412
     atom   43 type  1   force =     0.00000000    0.00000000    0.00171669
     atom   44 type  1   force =     0.00000000    0.00000000   -0.00071096
     atom   45 type  1   force =    -0.00132972    0.00294486    0.00059634
     atom   46 type  1   force =     0.00133133   -0.00010598   -0.00010412
     atom   47 type  1   force =     0.00078199   -0.00211741   -0.00016088
     atom   48 type  1   force =    -0.00078199    0.00211752   -0.00016088
     atom   49 type  1   force =    -0.00000000   -0.00000000   -0.00071096
     atom   50 type  1   force =    -0.00000000    0.00000000    0.00171669
     atom   51 type  2   force =     0.00042247    0.00008482   -0.00048572
     atom   52 type  2   force =    -0.00042247   -0.00008482   -0.00048572
     atom   53 type  2   force =    -0.00913888    0.00837580    0.00660790
     atom   54 type  2   force =     0.00913888   -0.00837580    0.00660790
     atom   55 type  2   force =    -0.00047585    0.00042768    0.00018434
     atom   56 type  2   force =    -0.00054598   -0.00035873   -0.00012116
     atom   57 type  2   force =     0.00047585   -0.00042768    0.00018434
     atom   58 type  2   force =     0.00054598    0.00035873   -0.00012116
     atom   59 type  2   force =     0.00009565   -0.00050807    0.00036609
     atom   60 type  2   force =    -0.00794651    0.00866871    0.00598043
     atom   61 type  2   force =     0.00022194    0.00051093   -0.00046884
     atom   62 type  2   force =     0.00010914    0.00054772    0.00058126
     atom   63 type  2   force =    -0.00046980   -0.00014488    0.00050211
     atom   64 type  2   force =     0.00046980    0.00014488    0.00050211
     atom   65 type  2   force =     0.00011191   -0.00040353   -0.00007003
     atom   66 type  2   force =    -0.00011191    0.00040353   -0.00007003
     atom   67 type  2   force =     0.00054598   -0.00035873   -0.00012116
     atom   68 type  2   force =     0.00047585    0.00042768    0.00018434
     atom   69 type  2   force =    -0.00054598    0.00035873   -0.00012116
     atom   70 type  2   force =    -0.00047585   -0.00042768    0.00018434
     atom   71 type  2   force =    -0.00022194    0.00051093   -0.00046884
     atom   72 type  2   force =    -0.00010914    0.00054772    0.00058126
     atom   73 type  2   force =    -0.00009565   -0.00050807    0.00036609
     atom   74 type  2   force =     0.00794651    0.00866871    0.00598043
     atom   75 type  1   force =     0.00023736   -0.00003203    0.00013953
     atom   76 type  1   force =    -0.00023736    0.00003203    0.00013953
     atom   77 type  1   force =     0.00163532   -0.00104293    0.00045929
     atom   78 type  1   force =    -0.00023736   -0.00003203    0.00013953
     atom   79 type  1   force =     0.00132972   -0.00294486   -0.00059634
     atom   80 type  1   force =    -0.00133122    0.00010598    0.00010401
     atom   81 type  1   force =    -0.00078199    0.00211741    0.00016088
     atom   82 type  1   force =     0.00078199   -0.00211741    0.00016088
     atom   83 type  1   force =    -0.00000000    0.00000000    0.00071096
     atom   84 type  1   force =    -0.00000000    0.00000000   -0.00171669
     atom   85 type  1   force =    -0.00132972   -0.00294486   -0.00059634
     atom   86 type  1   force =     0.00133122    0.00010598    0.00010401
     atom   87 type  1   force =     0.00000000   -0.00198130   -0.00000006
     atom   88 type  1   force =    -0.00000000    0.00198130   -0.00000006
     atom   89 type  1   force =     0.00000000    0.00000000   -0.00171669
     atom   90 type  1   force =     0.00000000   -0.00000000    0.00071096
     atom   91 type  2   force =     0.00046980    0.00014488   -0.00050211
     atom   92 type  2   force =    -0.00046980   -0.00014488   -0.00050211
     atom   93 type  2   force =    -0.00011191    0.00040353    0.00007003
     atom   94 type  2   force =     0.00011191   -0.00040353    0.00007003
     atom   95 type  2   force =    -0.00054598    0.00035873    0.00012116
     atom   96 type  2   force =    -0.00047585   -0.00042768   -0.00018434
     atom   97 type  2   force =     0.00054598   -0.00035873    0.00012116
     atom   98 type  2   force =     0.00047585    0.00042768   -0.00018434
     atom   99 type  2   force =     0.00022194   -0.00051093    0.00046884
     atom  100 type  2   force =     0.00010914   -0.00054772   -0.00058126
     atom  101 type  2   force =     0.00009565    0.00050807   -0.00036609
     atom  102 type  2   force =    -0.00794651   -0.00866871   -0.00598043
     atom  103 type  2   force =    -0.00042247   -0.00008482    0.00048572
     atom  104 type  2   force =     0.00042247    0.00008482    0.00048572
     atom  105 type  2   force =     0.00913888   -0.00837580   -0.00660790
     atom  106 type  2   force =    -0.00913888    0.00837580   -0.00660790
     atom  107 type  2   force =     0.00047585   -0.00042768   -0.00018434
     atom  108 type  2   force =     0.00054598    0.00035873    0.00012116
     atom  109 type  2   force =    -0.00047585    0.00042768   -0.00018434
     atom  110 type  2   force =    -0.00054598   -0.00035873    0.00012116
     atom  111 type  2   force =    -0.00009565    0.00050807   -0.00036609
     atom  112 type  2   force =     0.00794651   -0.00866871   -0.00598043
     atom  113 type  2   force =    -0.00022194   -0.00051093    0.00046884
     atom  114 type  2   force =    -0.00010914   -0.00054772   -0.00058126
     atom  115 type  1   force =     0.00163532    0.00104293    0.00045929
     atom  116 type  1   force =    -0.00163532   -0.00104293    0.00045929
     atom  117 type  1   force =     0.00023736    0.00003203    0.00013953
     atom  118 type  1   force =    -0.00163532    0.00104293    0.00045929
     atom  119 type  1   force =     0.00133133   -0.00010598    0.00010401
     atom  120 type  1   force =    -0.00132972    0.00294486   -0.00059634
     atom  121 type  1   force =     0.00000000    0.00198141   -0.00000006
     atom  122 type  1   force =    -0.00000000   -0.00198130   -0.00000006
     atom  123 type  1   force =     0.00000000    0.00000000   -0.00116804
     atom  124 type  1   force =    -0.00133122   -0.00010598    0.00010401
     atom  125 type  1   force =     0.00132983    0.00294486   -0.00059634
     atom  126 type  1   force =    -0.00078199   -0.00211741    0.00016088
     atom  127 type  1   force =     0.00078199    0.00211752    0.00016088
     atom  128 type  1   force =    -0.00000000    0.00000000   -0.00116804
     atom  129 type  2   force =     0.00913888    0.00837580   -0.00660790
     atom  130 type  2   force =    -0.00913888   -0.00837580   -0.00660790
     atom  131 type  2   force =    -0.00042247    0.00008482    0.00048572
     atom  132 type  2   force =     0.00042247   -0.00008482    0.00048572
     atom  133 type  2   force =    -0.00040324    0.00052161    0.00060692
     atom  134 type  2   force =     0.00703937    0.00999906    0.00095460
     atom  135 type  2   force =     0.00040324   -0.00052161    0.00060692
     atom  136 type  2   force =    -0.00703937   -0.00999906    0.00095460
     atom  137 type  2   force =     0.00794651    0.00866871   -0.00598043
     atom  138 type  2   force =    -0.00009565   -0.00050807   -0.00036609
     atom  139 type  2   force =    -0.00010914    0.00054772   -0.00058126
     atom  140 type  2   force =    -0.00022194    0.00051093    0.00046884
     atom  141 type  2   force =    -0.00011191   -0.00040353    0.00007003
     atom  142 type  2   force =     0.00011191    0.00040353    0.00007003
     atom  143 type  2   force =     0.00046980   -0.00014488   -0.00050211
     atom  144 type  2   force =    -0.00046980    0.00014488   -0.00050211
     atom  145 type  2   force =    -0.00703937    0.00999906    0.00095460
     atom  146 type  2   force =     0.00040324    0.00052161    0.00060692
     atom  147 type  2   force =     0.00703937   -0.00999906    0.00095460
     atom  148 type  2   force =    -0.00040324   -0.00052161    0.00060692
     atom  149 type  2   force =     0.00010914    0.00054772   -0.00058126
     atom  150 type  2   force =     0.00022194    0.00051093    0.00046884
     atom  151 type  2   force =    -0.00794651    0.00866871   -0.00598043
     atom  152 type  2   force =     0.00009565   -0.00050807   -0.00036609
     atom  153 type  3   force =     0.00000000    0.00000000    0.00000000
     atom  154 type  3   force =     0.00000000    0.00000000    0.00000000
     atom  155 type  3   force =     0.00000000    0.00000000    0.00000000
     atom  156 type  3   force =     0.00000000    0.00000000    0.00000000
     atom  157 type  3   force =     0.00000000    0.00000000    0.00000000
     atom  158 type  3   force =     0.00000000    0.00000000    0.00000000
     atom  159 type  3   force =     0.00000000    0.00000000    0.00000000
     atom  160 type  3   force =     0.00000000    0.00000000    0.00000000
     atom  161 type  3   force =     0.00000000    0.00000000    0.00000000
     atom  162 type  3   force =     0.00000000    0.00000000    0.00000000
     atom  163 type  3   force =     0.00000000    0.00000000    0.00000000
     atom  164 type  3   force =     0.00000000    0.00000000    0.00000000
     atom  165 type  3   force =     0.00000000    0.00000000    0.00000000
     atom  166 type  3   force =     0.00000000    0.00000000    0.00000000
     atom  167 type  3   force =     0.00000000    0.00000000    0.00000000
     atom  168 type  3   force =     0.00000000    0.00000000    0.00000000
     atom  169 type  3   force =     0.00000000    0.00000000    0.00000000
     atom  170 type  3   force =     0.00000000    0.00000000    0.00000000
     atom  171 type  3   force =     0.00000000    0.00000000    0.00000000
     atom  172 type  3   force =     0.00000000    0.00000000    0.00000000
     atom  173 type  3   force =     0.00000000    0.00000000    0.00000000
     atom  174 type  3   force =     0.00000000    0.00000000    0.00000000
     atom  175 type  3   force =     0.00000000    0.00000000    0.00000000
     atom  176 type  3   force =     0.00000000    0.00000000    0.00000000
     The Hubbard contrib.    to forces
     atom    1 type  1   force =     0.00000000    0.00000000    0.00000000
     atom    2 type  1   force =     0.00000000    0.00000000    0.00000000
     atom    3 type  1   force =     0.00000000    0.00000000    0.00000000
     atom    4 type  1   force =     0.00000000    0.00000000    0.00000000
     atom    5 type  1   force =     0.00000000    0.00000000    0.00000000
     atom    6 type  1   force =     0.00000000    0.00000000    0.00000000
     atom    7 type  1   force =     0.00000000    0.00000000    0.00000000
     atom    8 type  1   force =     0.00000000    0.00000000    0.00000000
     atom    9 type  1   force =     0.00000000    0.00000000    0.00000000
     atom   10 type  1   force =     0.00000000    0.00000000    0.00000000
     atom   11 type  1   force =     0.00000000    0.00000000    0.00000000
     atom   12 type  1   force =     0.00000000    0.00000000    0.00000000
     atom   13 type  2   force =     0.00000000    0.00000000    0.00000000
     atom   14 type  2   force =     0.00000000    0.00000000    0.00000000
     atom   15 type  2   force =     0.00000000    0.00000000    0.00000000
     atom   16 type  2   force =     0.00000000    0.00000000    0.00000000
     atom   17 type  2   force =     0.00000000    0.00000000    0.00000000
     atom   18 type  2   force =     0.00000000    0.00000000    0.00000000
     atom   19 type  2   force =     0.00000000    0.00000000    0.00000000
     atom   20 type  2   force =     0.00000000    0.00000000    0.00000000
     atom   21 type  2   force =     0.00000000    0.00000000    0.00000000
     atom   22 type  2   force =     0.00000000    0.00000000    0.00000000
     atom   23 type  2   force =     0.00000000    0.00000000    0.00000000
     atom   24 type  2   force =     0.00000000    0.00000000    0.00000000
     atom   25 type  2   force =     0.00000000    0.00000000    0.00000000
     atom   26 type  2   force =     0.00000000    0.00000000    0.00000000
     atom   27 type  2   force =     0.00000000    0.00000000    0.00000000
     atom   28 type  2   force =     0.00000000    0.00000000    0.00000000
     atom   29 type  2   force =     0.00000000    0.00000000    0.00000000
     atom   30 type  2   force =     0.00000000    0.00000000    0.00000000
     atom   31 type  2   force =     0.00000000    0.00000000    0.00000000
     atom   32 type  2   force =     0.00000000    0.00000000    0.00000000
     atom   33 type  2   force =     0.00000000    0.00000000    0.00000000
     atom   34 type  2   force =     0.00000000    0.00000000    0.00000000
     atom   35 type  2   force =     0.00000000    0.00000000    0.00000000
     atom   36 type  2   force =     0.00000000    0.00000000    0.00000000
     atom   37 type  1   force =     0.00000000    0.00000000    0.00000000
     atom   38 type  1   force =     0.00000000    0.00000000    0.00000000
     atom   39 type  1   force =     0.00000000    0.00000000    0.00000000
     atom   40 type  1   force =     0.00000000    0.00000000    0.00000000
     atom   41 type  1   force =     0.00000000    0.00000000    0.00000000
     atom   42 type  1   force =     0.00000000    0.00000000    0.00000000
     atom   43 type  1   force =     0.00000000    0.00000000    0.00000000
     atom   44 type  1   force =     0.00000000    0.00000000    0.00000000
     atom   45 type  1   force =     0.00000000    0.00000000    0.00000000
     atom   46 type  1   force =     0.00000000    0.00000000    0.00000000
     atom   47 type  1   force =     0.00000000    0.00000000    0.00000000
     atom   48 type  1   force =     0.00000000    0.00000000    0.00000000
     atom   49 type  1   force =     0.00000000    0.00000000    0.00000000
     atom   50 type  1   force =     0.00000000    0.00000000    0.00000000
     atom   51 type  2   force =     0.00000000    0.00000000    0.00000000
     atom   52 type  2   force =     0.00000000    0.00000000    0.00000000
     atom   53 type  2   force =     0.00000000    0.00000000    0.00000000
     atom   54 type  2   force =     0.00000000    0.00000000    0.00000000
     atom   55 type  2   force =     0.00000000    0.00000000    0.00000000
     atom   56 type  2   force =     0.00000000    0.00000000    0.00000000
     atom   57 type  2   force =     0.00000000    0.00000000    0.00000000
     atom   58 type  2   force =     0.00000000    0.00000000    0.00000000
     atom   59 type  2   force =     0.00000000    0.00000000    0.00000000
     atom   60 type  2   force =     0.00000000    0.00000000    0.00000000
     atom   61 type  2   force =     0.00000000    0.00000000    0.00000000
     atom   62 type  2   force =     0.00000000    0.00000000    0.00000000
     atom   63 type  2   force =     0.00000000    0.00000000    0.00000000
     atom   64 type  2   force =     0.00000000    0.00000000    0.00000000
     atom   65 type  2   force =     0.00000000    0.00000000    0.00000000
     atom   66 type  2   force =     0.00000000    0.00000000    0.00000000
     atom   67 type  2   force =     0.00000000    0.00000000    0.00000000
     atom   68 type  2   force =     0.00000000    0.00000000    0.00000000
     atom   69 type  2   force =     0.00000000    0.00000000    0.00000000
     atom   70 type  2   force =     0.00000000    0.00000000    0.00000000
     atom   71 type  2   force =     0.00000000    0.00000000    0.00000000
     atom   72 type  2   force =     0.00000000    0.00000000    0.00000000
     atom   73 type  2   force =     0.00000000    0.00000000    0.00000000
     atom   74 type  2   force =     0.00000000    0.00000000    0.00000000
     atom   75 type  1   force =     0.00000000    0.00000000    0.00000000
     atom   76 type  1   force =     0.00000000    0.00000000    0.00000000
     atom   77 type  1   force =     0.00000000    0.00000000    0.00000000
     atom   78 type  1   force =     0.00000000    0.00000000    0.00000000
     atom   79 type  1   force =     0.00000000    0.00000000    0.00000000
     atom   80 type  1   force =     0.00000000    0.00000000    0.00000000
     atom   81 type  1   force =     0.00000000    0.00000000    0.00000000
     atom   82 type  1   force =     0.00000000    0.00000000    0.00000000
     atom   83 type  1   force =     0.00000000    0.00000000    0.00000000
     atom   84 type  1   force =     0.00000000    0.00000000    0.00000000
     atom   85 type  1   force =     0.00000000    0.00000000    0.00000000
     atom   86 type  1   force =     0.00000000    0.00000000    0.00000000
     atom   87 type  1   force =     0.00000000    0.00000000    0.00000000
     atom   88 type  1   force =     0.00000000    0.00000000    0.00000000
     atom   89 type  1   force =     0.00000000    0.00000000    0.00000000
     atom   90 type  1   force =     0.00000000    0.00000000    0.00000000
     atom   91 type  2   force =     0.00000000    0.00000000    0.00000000
     atom   92 type  2   force =     0.00000000    0.00000000    0.00000000
     atom   93 type  2   force =     0.00000000    0.00000000    0.00000000
     atom   94 type  2   force =     0.00000000    0.00000000    0.00000000
     atom   95 type  2   force =     0.00000000    0.00000000    0.00000000
     atom   96 type  2   force =     0.00000000    0.00000000    0.00000000
     atom   97 type  2   force =     0.00000000    0.00000000    0.00000000
     atom   98 type  2   force =     0.00000000    0.00000000    0.00000000
     atom   99 type  2   force =     0.00000000    0.00000000    0.00000000
     atom  100 type  2   force =     0.00000000    0.00000000    0.00000000
     atom  101 type  2   force =     0.00000000    0.00000000    0.00000000
     atom  102 type  2   force =     0.00000000    0.00000000    0.00000000
     atom  103 type  2   force =     0.00000000    0.00000000    0.00000000
     atom  104 type  2   force =     0.00000000    0.00000000    0.00000000
     atom  105 type  2   force =     0.00000000    0.00000000    0.00000000
     atom  106 type  2   force =     0.00000000    0.00000000    0.00000000
     atom  107 type  2   force =     0.00000000    0.00000000    0.00000000
     atom  108 type  2   force =     0.00000000    0.00000000    0.00000000
     atom  109 type  2   force =     0.00000000    0.00000000    0.00000000
     atom  110 type  2   force =     0.00000000    0.00000000    0.00000000
     atom  111 type  2   force =     0.00000000    0.00000000    0.00000000
     atom  112 type  2   force =     0.00000000    0.00000000    0.00000000
     atom  113 type  2   force =     0.00000000    0.00000000    0.00000000
     atom  114 type  2   force =     0.00000000    0.00000000    0.00000000
     atom  115 type  1   force =     0.00000000    0.00000000    0.00000000
     atom  116 type  1   force =     0.00000000    0.00000000    0.00000000
     atom  117 type  1   force =     0.00000000    0.00000000    0.00000000
     atom  118 type  1   force =     0.00000000    0.00000000    0.00000000
     atom  119 type  1   force =     0.00000000    0.00000000    0.00000000
     atom  120 type  1   force =     0.00000000    0.00000000    0.00000000
     atom  121 type  1   force =     0.00000000    0.00000000    0.00000000
     atom  122 type  1   force =     0.00000000    0.00000000    0.00000000
     atom  123 type  1   force =     0.00000000    0.00000000    0.00000000
     atom  124 type  1   force =     0.00000000    0.00000000    0.00000000
     atom  125 type  1   force =     0.00000000    0.00000000    0.00000000
     atom  126 type  1   force =     0.00000000    0.00000000    0.00000000
     atom  127 type  1   force =     0.00000000    0.00000000    0.00000000
     atom  128 type  1   force =     0.00000000    0.00000000    0.00000000
     atom  129 type  2   force =     0.00000000    0.00000000    0.00000000
     atom  130 type  2   force =     0.00000000    0.00000000    0.00000000
     atom  131 type  2   force =     0.00000000    0.00000000    0.00000000
     atom  132 type  2   force =     0.00000000    0.00000000    0.00000000
     atom  133 type  2   force =     0.00000000    0.00000000    0.00000000
     atom  134 type  2   force =     0.00000000    0.00000000    0.00000000
     atom  135 type  2   force =     0.00000000    0.00000000    0.00000000
     atom  136 type  2   force =     0.00000000    0.00000000    0.00000000
     atom  137 type  2   force =     0.00000000    0.00000000    0.00000000
     atom  138 type  2   force =     0.00000000    0.00000000    0.00000000
     atom  139 type  2   force =     0.00000000    0.00000000    0.00000000
     atom  140 type  2   force =     0.00000000    0.00000000    0.00000000
     atom  141 type  2   force =     0.00000000    0.00000000    0.00000000
     atom  142 type  2   force =     0.00000000    0.00000000    0.00000000
     atom  143 type  2   force =     0.00000000    0.00000000    0.00000000
     atom  144 type  2   force =     0.00000000    0.00000000    0.00000000
     atom  145 type  2   force =     0.00000000    0.00000000    0.00000000
     atom  146 type  2   force =     0.00000000    0.00000000    0.00000000
     atom  147 type  2   force =     0.00000000    0.00000000    0.00000000
     atom  148 type  2   force =     0.00000000    0.00000000    0.00000000
     atom  149 type  2   force =     0.00000000    0.00000000    0.00000000
     atom  150 type  2   force =     0.00000000    0.00000000    0.00000000
     atom  151 type  2   force =     0.00000000    0.00000000    0.00000000
     atom  152 type  2   force =     0.00000000    0.00000000    0.00000000
     atom  153 type  3   force =     0.00000000    0.00000000    0.00000000
     atom  154 type  3   force =     0.00000000    0.00000000    0.00000000
     atom  155 type  3   force =     0.00000000    0.00000000    0.00000000
     atom  156 type  3   force =     0.00000000    0.00000000    0.00000000
     atom  157 type  3   force =     0.00000000    0.00000000    0.00000000
     atom  158 type  3   force =     0.00000000    0.00000000    0.00000000
     atom  159 type  3   force =     0.00000000    0.00000000    0.00000000
     atom  160 type  3   force =     0.00000000    0.00000000    0.00000000
     atom  161 type  3   force =     0.00000000    0.00000000    0.00000000
     atom  162 type  3   force =     0.00000000    0.00000000    0.00000000
     atom  163 type  3   force =     0.00000000    0.00000000    0.00000000
     atom  164 type  3   force =     0.00000000    0.00000000    0.00000000
     atom  165 type  3   force =     0.00000000    0.00000000    0.00000000
     atom  166 type  3   force =     0.00000000    0.00000000    0.00000000
     atom  167 type  3   force =     0.00000000    0.00000000    0.00000000
     atom  168 type  3   force =     0.00000000    0.00000000    0.00000000
     atom  169 type  3   force =     0.00000000    0.00000000    0.00000000
     atom  170 type  3   force =     0.00000000    0.00000000    0.00000000
     atom  171 type  3   force =     0.00000000    0.00000000    0.00000000
     atom  172 type  3   force =     0.00000000    0.00000000    0.00000000
     atom  173 type  3   force =     0.00000000    0.00000000    0.00000000
     atom  174 type  3   force =     0.00000000    0.00000000    0.00000000
     atom  175 type  3   force =     0.00000000    0.00000000    0.00000000
     atom  176 type  3   force =     0.00000000    0.00000000    0.00000000
     The SCF correction term to forces
     atom    1 type  1   force =     0.00000385   -0.00000148   -0.00000523
     atom    2 type  1   force =    -0.00000385    0.00000148   -0.00000523
     atom    3 type  1   force =     0.00000161   -0.00000113   -0.00001922
     atom    4 type  1   force =    -0.00000385   -0.00000148   -0.00000523
     atom    5 type  1   force =    -0.00000024   -0.00000141   -0.00001903
     atom    6 type  1   force =     0.00000027    0.00000376   -0.00000541
     atom    7 type  1   force =    -0.00000033   -0.00000156   -0.00000622
     atom    8 type  1   force =     0.00000033    0.00000156   -0.00000622
     atom    9 type  1   force =     0.00000000   -0.00000000   -0.00000436
     atom   10 type  1   force =     0.00000024   -0.00000141   -0.00001903
     atom   11 type  1   force =    -0.00000027    0.00000376   -0.00000541
     atom   12 type  1   force =    -0.00000000    0.00000000   -0.00000436
     atom   13 type  2   force =     0.00000044    0.00000044   -0.00000055
     atom   14 type  2   force =    -0.00000044   -0.00000044   -0.00000055
     atom   15 type  2   force =     0.00000062   -0.00000033   -0.00000701
     atom   16 type  2   force =    -0.00000062    0.00000033   -0.00000701
     atom   17 type  2   force =     0.00000034   -0.00000146   -0.00000537
     atom   18 type  2   force =    -0.00000090   -0.00000060   -0.00000066
     atom   19 type  2   force =    -0.00000034    0.00000146   -0.00000537
     atom   20 type  2   force =     0.00000090    0.00000060   -0.00000066
     atom   21 type  2   force =     0.00000086    0.00000055   -0.00000077
     atom   22 type  2   force =     0.00000051   -0.00000041   -0.00000695
     atom   23 type  2   force =     0.00000051   -0.00000094   -0.00000604
     atom   24 type  2   force =    -0.00000029   -0.00000001   -0.00000499
     atom   25 type  2   force =     0.00000092    0.00000115   -0.00000644
     atom   26 type  2   force =    -0.00000092   -0.00000115   -0.00000644
     atom   27 type  2   force =     0.00000025   -0.00000023   -0.00000558
     atom   28 type  2   force =    -0.00000025    0.00000023   -0.00000558
     atom   29 type  2   force =     0.00000090   -0.00000060   -0.00000066
     atom   30 type  2   force =    -0.00000034   -0.00000146   -0.00000537
     atom   31 type  2   force =    -0.00000090    0.00000060   -0.00000066
     atom   32 type  2   force =     0.00000034    0.00000146   -0.00000537
     atom   33 type  2   force =    -0.00000051   -0.00000094   -0.00000604
     atom   34 type  2   force =     0.00000029   -0.00000001   -0.00000499
     atom   35 type  2   force =    -0.00000086    0.00000055   -0.00000077
     atom   36 type  2   force =    -0.00000051   -0.00000041   -0.00000695
     atom   37 type  1   force =     0.00000161    0.00000113   -0.00001922
     atom   38 type  1   force =    -0.00000161   -0.00000113   -0.00001922
     atom   39 type  1   force =     0.00000385    0.00000148   -0.00000523
     atom   40 type  1   force =    -0.00000161    0.00000113   -0.00001922
     atom   41 type  1   force =    -0.00000027   -0.00000376   -0.00000541
     atom   42 type  1   force =     0.00000024    0.00000141   -0.00001903
     atom   43 type  1   force =     0.00000000   -0.00000000   -0.00000242
     atom   44 type  1   force =    -0.00000000   -0.00000000   -0.00000896
     atom   45 type  1   force =     0.00000027   -0.00000376   -0.00000541
     atom   46 type  1   force =    -0.00000024    0.00000141   -0.00001903
     atom   47 type  1   force =    -0.00000033    0.00000156   -0.00000622
     atom   48 type  1   force =     0.00000033   -0.00000156   -0.00000622
     atom   49 type  1   force =     0.00000000    0.00000000   -0.00000896
     atom   50 type  1   force =    -0.00000000   -0.00000000   -0.00000242
     atom   51 type  2   force =     0.00000025    0.00000023   -0.00000558
     atom   52 type  2   force =    -0.00000025   -0.00000023   -0.00000558
     atom   53 type  2   force =     0.00000092   -0.00000115   -0.00000644
     atom   54 type  2   force =    -0.00000092    0.00000115   -0.00000644
     atom   55 type  2   force =     0.00000003   -0.00000081   -0.00000841
     atom   56 type  2   force =    -0.00000023   -0.00000041   -0.00000634
     atom   57 type  2   force =    -0.00000003    0.00000081   -0.00000841
     atom   58 type  2   force =     0.00000023    0.00000041   -0.00000634
     atom   59 type  2   force =     0.00000029    0.00000001   -0.00000499
     atom   60 type  2   force =    -0.00000051    0.00000094   -0.00000604
     atom   61 type  2   force =    -0.00000051    0.00000041   -0.00000695
     atom   62 type  2   force =    -0.00000086   -0.00000055   -0.00000077
     atom   63 type  2   force =     0.00000062    0.00000033   -0.00000701
     atom   64 type  2   force =    -0.00000062   -0.00000033   -0.00000701
     atom   65 type  2   force =     0.00000044   -0.00000044   -0.00000055
     atom   66 type  2   force =    -0.00000044    0.00000044   -0.00000055
     atom   67 type  2   force =     0.00000023   -0.00000041   -0.00000634
     atom   68 type  2   force =    -0.00000003   -0.00000081   -0.00000841
     atom   69 type  2   force =    -0.00000023    0.00000041   -0.00000634
     atom   70 type  2   force =     0.00000003    0.00000081   -0.00000841
     atom   71 type  2   force =     0.00000051    0.00000041   -0.00000695
     atom   72 type  2   force =     0.00000086   -0.00000055   -0.00000077
     atom   73 type  2   force =    -0.00000029    0.00000001   -0.00000499
     atom   74 type  2   force =     0.00000051    0.00000094   -0.00000604
     atom   75 type  1   force =    -0.00000161   -0.00000113    0.00001931
     atom   76 type  1   force =     0.00000161    0.00000113    0.00001931
     atom   77 type  1   force =    -0.00000385   -0.00000148    0.00000524
     atom   78 type  1   force =     0.00000161   -0.00000113    0.00001931
     atom   79 type  1   force =    -0.00000028    0.00000376    0.00000542
     atom   80 type  1   force =     0.00000024   -0.00000141    0.00001912
     atom   81 type  1   force =     0.00000033   -0.00000156    0.00000628
     atom   82 type  1   force =    -0.00000033    0.00000156    0.00000628
     atom   83 type  1   force =    -0.00000000    0.00000000    0.00000902
     atom   84 type  1   force =    -0.00000000   -0.00000000    0.00000252
     atom   85 type  1   force =     0.00000028    0.00000376    0.00000542
     atom   86 type  1   force =    -0.00000024   -0.00000141    0.00001912
     atom   87 type  1   force =     0.00000000    0.00000064    0.00000005
     atom   88 type  1   force =    -0.00000000   -0.00000064    0.00000005
     atom   89 type  1   force =     0.00000000    0.00000000    0.00000252
     atom   90 type  1   force =     0.00000000   -0.00000000    0.00000902
     atom   91 type  2   force =    -0.00000062   -0.00000033    0.00000705
     atom   92 type  2   force =     0.00000062    0.00000033    0.00000705
     atom   93 type  2   force =    -0.00000044    0.00000044    0.00000056
     atom   94 type  2   force =     0.00000044   -0.00000044    0.00000056
     atom   95 type  2   force =    -0.00000023    0.00000041    0.00000638
     atom   96 type  2   force =     0.00000003    0.00000081    0.00000844
     atom   97 type  2   force =     0.00000023   -0.00000041    0.00000638
     atom   98 type  2   force =    -0.00000003   -0.00000081    0.00000844
     atom   99 type  2   force =    -0.00000051   -0.00000041    0.00000698
     atom  100 type  2   force =    -0.00000086    0.00000055    0.00000079
     atom  101 type  2   force =     0.00000029   -0.00000001    0.00000504
     atom  102 type  2   force =    -0.00000051   -0.00000094    0.00000604
     atom  103 type  2   force =    -0.00000025   -0.00000023    0.00000563
     atom  104 type  2   force =     0.00000025    0.00000023    0.00000563
     atom  105 type  2   force =    -0.00000092    0.00000115    0.00000644
     atom  106 type  2   force =     0.00000092   -0.00000115    0.00000644
     atom  107 type  2   force =    -0.00000003    0.00000081    0.00000844
     atom  108 type  2   force =     0.00000023    0.00000041    0.00000638
     atom  109 type  2   force =     0.00000003   -0.00000081    0.00000844
     atom  110 type  2   force =    -0.00000023   -0.00000041    0.00000638
     atom  111 type  2   force =    -0.00000029   -0.00000001    0.00000504
     atom  112 type  2   force =     0.00000051   -0.00000094    0.00000604
     atom  113 type  2   force =     0.00000051   -0.00000041    0.00000698
     atom  114 type  2   force =     0.00000086    0.00000055    0.00000079
     atom  115 type  1   force =    -0.00000385    0.00000148    0.00000524
     atom  116 type  1   force =     0.00000385   -0.00000148    0.00000524
     atom  117 type  1   force =    -0.00000161    0.00000113    0.00001931
     atom  118 type  1   force =     0.00000385    0.00000148    0.00000524
     atom  119 type  1   force =    -0.00000024    0.00000141    0.00001912
     atom  120 type  1   force =     0.00000028   -0.00000376    0.00000542
     atom  121 type  1   force =     0.00000000   -0.00000064    0.00000005
     atom  122 type  1   force =     0.00000000    0.00000064    0.00000005
     atom  123 type  1   force =     0.00000000    0.00000000    0.00000441
     atom  124 type  1   force =     0.00000024    0.00000141    0.00001912
     atom  125 type  1   force =    -0.00000028   -0.00000376    0.00000542
     atom  126 type  1   force =     0.00000033    0.00000156    0.00000628
     atom  127 type  1   force =    -0.00000033   -0.00000156    0.00000628
     atom  128 type  1   force =    -0.00000000   -0.00000000    0.00000441
     atom  129 type  2   force =    -0.00000092   -0.00000115    0.00000644
     atom  130 type  2   force =     0.00000092    0.00000115    0.00000644
     atom  131 type  2   force =    -0.00000025    0.00000023    0.00000563
     atom  132 type  2   force =     0.00000025   -0.00000023    0.00000563
     atom  133 type  2   force =    -0.00000090    0.00000060    0.00000067
     atom  134 type  2   force =     0.00000034    0.00000146    0.00000537
     atom  135 type  2   force =     0.00000090   -0.00000060    0.00000067
     atom  136 type  2   force =    -0.00000034   -0.00000146    0.00000537
     atom  137 type  2   force =     0.00000051    0.00000094    0.00000604
     atom  138 type  2   force =    -0.00000029    0.00000001    0.00000504
     atom  139 type  2   force =     0.00000086   -0.00000055    0.00000079
     atom  140 type  2   force =     0.00000051    0.00000041    0.00000698
     atom  141 type  2   force =    -0.00000044   -0.00000044    0.00000056
     atom  142 type  2   force =     0.00000044    0.00000044    0.00000056
     atom  143 type  2   force =    -0.00000062    0.00000033    0.00000705
     atom  144 type  2   force =     0.00000062   -0.00000033    0.00000705
     atom  145 type  2   force =    -0.00000034    0.00000146    0.00000537
     atom  146 type  2   force =     0.00000090    0.00000060    0.00000067
     atom  147 type  2   force =     0.00000034   -0.00000146    0.00000537
     atom  148 type  2   force =    -0.00000090   -0.00000060    0.00000067
     atom  149 type  2   force =    -0.00000086   -0.00000055    0.00000079
     atom  150 type  2   force =    -0.00000051    0.00000041    0.00000698
     atom  151 type  2   force =    -0.00000051    0.00000094    0.00000604
     atom  152 type  2   force =     0.00000029    0.00000001    0.00000504
     atom  153 type  3   force =    -0.00000004    0.00000002   -0.00000099
     atom  154 type  3   force =     0.00000004   -0.00000002   -0.00000099
     atom  155 type  3   force =    -0.00000015    0.00000011   -0.00000130
     atom  156 type  3   force =     0.00000062    0.00000060   -0.00000216
     atom  157 type  3   force =    -0.00000062   -0.00000060   -0.00000216
     atom  158 type  3   force =     0.00000004    0.00000002   -0.00000099
     atom  159 type  3   force =    -0.00000004   -0.00000002   -0.00000099
     atom  160 type  3   force =     0.00000015    0.00000011   -0.00000130
     atom  161 type  3   force =     0.00000062   -0.00000060   -0.00000216
     atom  162 type  3   force =    -0.00000062    0.00000060   -0.00000216
     atom  163 type  3   force =     0.00000015   -0.00000011   -0.00000130
     atom  164 type  3   force =    -0.00000015   -0.00000011   -0.00000130
     atom  165 type  3   force =     0.00000015    0.00000011    0.00000130
     atom  166 type  3   force =    -0.00000062    0.00000060    0.00000216
     atom  167 type  3   force =     0.00000062   -0.00000060    0.00000216
     atom  168 type  3   force =    -0.00000015    0.00000011    0.00000130
     atom  169 type  3   force =    -0.00000062   -0.00000060    0.00000216
     atom  170 type  3   force =     0.00000062    0.00000060    0.00000216
     atom  171 type  3   force =    -0.00000004   -0.00000002    0.00000099
     atom  172 type  3   force =     0.00000004    0.00000002    0.00000099
     atom  173 type  3   force =    -0.00000015   -0.00000011    0.00000130
     atom  174 type  3   force =     0.00000004   -0.00000002    0.00000099
     atom  175 type  3   force =    -0.00000004    0.00000002    0.00000099
     atom  176 type  3   force =     0.00000015   -0.00000011    0.00000130

     Total force =     0.007153     Total SCF correction =     0.000103


     Computing stress (Cartesian axis) and pressure


     negative rho (up, down):  2.107E-03 0.000E+00
          total   stress  (Ry/bohr**3)                   (kbar)     P=       -0.40
   0.00000066   0.00000000   0.00000000            0.10        0.00        0.00
   0.00000000   0.00000111   0.00000000            0.00        0.16        0.00
   0.00000000   0.00000000  -0.00000993            0.00        0.00       -1.46

     kinetic stress (kbar)  12735.24      0.00      0.00
                                0.00  12725.47      0.00
                                0.00      0.00  12700.42

     local   stress (kbar)**********     -0.00     -0.00
                               -0.00**********      0.00
                               -0.00      0.001223057.53

     nonloc. stress (kbar)  -1000.29      0.00      0.00
                                0.00   -999.13      0.00
                                0.00      0.00  -1000.96

     hartree stress (kbar) 614541.26      0.00     -0.00
                                0.00 614725.39     -0.00
                               -0.00     -0.00-606827.75

     exc-cor stress (kbar)   4620.55      0.00      0.00
                                0.00   4620.99     -0.00
                                0.00     -0.00   4620.41

     corecor stress (kbar)  -7701.96     -0.00     -0.00
                               -0.00  -7702.03      0.00
                               -0.00      0.00  -7701.89

     ewald   stress (kbar) 602835.13      0.00      0.00
                                0.00 603119.90     -0.00
                                0.00     -0.00-624849.21

     hubbard stress (kbar)      0.00      0.00      0.00
                                0.00      0.00      0.00
                                0.00      0.00      0.00

     DFT-D   stress (kbar)      0.00      0.00      0.00
                                0.00      0.00      0.00
                                0.00      0.00      0.00

     XDM     stress (kbar)      0.00      0.00      0.00
                                0.00      0.00      0.00
                                0.00      0.00      0.00

     dft-nl  stress (kbar)      0.00      0.00      0.00
                                0.00      0.00      0.00
                                0.00      0.00      0.00

     TS-vdW  stress (kbar)      0.00      0.00      0.00
                                0.00      0.00      0.00
                                0.00      0.00      0.00

     MDB     stress (kbar)      0.00      0.00      0.00
                                0.00      0.00      0.00
                                0.00      0.00      0.00

     3D-RISM stress (kbar)      0.00      0.00      0.00
                                0.00      0.00      0.00
                                0.00      0.00      0.00


     Writing all to output data dir ./tmp/slab.save/ :
     XML data file, charge density, pseudopotentials, collected wavefunctions
 
     init_run     :     37.06s CPU     74.93s WALL (       1 calls)
     electrons    :   2665.07s CPU   3182.23s WALL (       1 calls)
     forces       :     11.73s CPU     12.15s WALL (       1 calls)
     stress       :     71.11s CPU     71.41s WALL (       1 calls)

     Called by init_run:
     wfcinit      :      8.79s CPU     41.35s WALL (       1 calls)
     wfcinit:atom :      0.08s CPU      0.08s WALL (       4 calls)
     wfcinit:wfcr :      5.63s CPU     35.91s WALL (       4 calls)
     potinit      :     20.77s CPU     21.10s WALL (       1 calls)
     hinit0       :      4.86s CPU      5.06s WALL (       1 calls)

     Called by electrons:
     c_bands      :   1461.64s CPU   1917.57s WALL (      75 calls)
     sum_band     :    377.11s CPU    419.51s WALL (      75 calls)
     v_of_rho     :     14.66s CPU     18.20s WALL (      76 calls)
     v_h          :      8.64s CPU     12.08s WALL (      76 calls)
     v_xc         :      6.19s CPU      6.33s WALL (      78 calls)
     newd         :     12.20s CPU     12.40s WALL (      76 calls)
                                       12.40s GPU  (      76 calls)
     PAW_pot      :    730.05s CPU    734.05s WALL (      76 calls)
     mix_rho      :     42.29s CPU     49.83s WALL (      75 calls)

     Called by c_bands:
     init_us_2    :      8.01s CPU      8.16s WALL (     612 calls)
     cegterg      :    960.61s CPU   1412.22s WALL (     300 calls)

     Called by sum_band:
     sum_band:wei :      0.00s CPU      0.00s WALL (      75 calls)
                                        0.00s GPU  (      75 calls)
     sum_band:loo :    335.72s CPU    337.78s WALL (      75 calls)
                                      337.78s GPU  (      75 calls)
     sum_band:buf :    230.15s CPU    231.69s WALL (     300 calls)
                                      231.69s GPU  (     300 calls)
     sum_band:ini :      3.93s CPU      4.00s WALL (     300 calls)
                                        4.00s GPU  (     300 calls)
     sum_band:cal :      0.16s CPU     35.99s WALL (     300 calls)
                                       35.86s GPU  (     300 calls)
     sum_band:bec :      3.15s CPU      3.16s WALL (     300 calls)
                                        3.16s GPU  (     300 calls)
     addusdens    :     13.32s CPU     14.59s WALL (      75 calls)
                                       14.59s GPU  (      75 calls)
     addusd:skk   :      1.14s CPU      1.15s WALL (     225 calls)
                                        1.15s GPU  (     225 calls)

     Called by *egterg:
     cdiaghg      :     48.03s CPU     48.50s WALL (    1723 calls)
                                       48.48s GPU  (    1723 calls)
     cegterg:over :    143.36s CPU    143.98s WALL (    1423 calls)
     cegterg:upda :     44.92s CPU     45.12s WALL (    1423 calls)
     cegterg:last :     95.74s CPU     96.15s WALL (     727 calls)
     h_psi        :    552.31s CPU   1032.09s WALL (    1727 calls)
                                     1031.46s GPU  (    1727 calls)
     s_psi        :     11.52s CPU     11.66s WALL (    1727 calls)
     g_psi        :      0.01s CPU     12.57s WALL (    1423 calls)
                                       12.56s GPU  (    1423 calls)

     Called by h_psi:
     h_psi:calbec :      0.17s CPU    100.23s WALL (    1727 calls)
                                      100.21s GPU  (    1727 calls)
     vloc_psi     :    357.59s CPU    836.46s WALL (    1727 calls)
                                      836.44s GPU  (    1727 calls)
     add_vuspsi   :     10.81s CPU     92.62s WALL (    1727 calls)
                                       92.61s GPU  (    1727 calls)

     General routines
     calbec       :      0.21s CPU      0.27s WALL (    2047 calls)
     fft          :     20.41s CPU     21.27s WALL (    1011 calls)
                                        0.74s GPU  (     935 calls)
     ffts         :      8.37s CPU     46.64s WALL (    9253 calls)
                                       38.36s GPU  (    9177 calls)
     fftw         :      2.68s CPU    804.70s WALL (   85402 calls)
                                      804.13s GPU  (   85402 calls)
     interpolate  :     34.80s CPU     38.40s WALL (      76 calls)
 
     Parallel routines

     PAW routines
     PAW_pot      :    730.05s CPU    734.05s WALL (      76 calls)
     PAW_symme    :      0.29s CPU      0.29s WALL (     151 calls)
 
     PWSCF        :  46m31.63s CPU  55m55.64s WALL

 
   This run was terminated on:   3:36:41   4Oct2026            

=------------------------------------------------------------------------------=
   JOB DONE.
=------------------------------------------------------------------------------=
Warning: ieee_invalid is signaling
Warning: ieee_divide_by_zero is signaling
Warning: ieee_inexact is signaling
FORTRAN STOP
