WARNING: Skipping mount /tmp [tmp]: /tmp doesn't exist in container

     Program PWSCF v.7.3.1 starts on 29Sep2026 at  9:19:10 

     This program is part of the open-source Quantum ESPRESSO suite
     for quantum simulation of materials; please cite
         "P. Giannozzi et al., J. Phys.:Condens. Matter 21 395502 (2009);
         "P. Giannozzi et al., J. Phys.:Condens. Matter 29 465901 (2017);
         "P. Giannozzi et al., J. Chem. Phys. 152 154105 (2020);
          URL http://www.quantum-espresso.org", 
     in publications or presentations arising from this work. More details at
     http://www.quantum-espresso.org/quote

     Parallel version (MPI & OpenMP), running on       1 processor cores
     Number of MPI processes:                 1
     Threads/MPI process:                     1

     MPI processes distributed on     1 nodes
     61534 MiB available memory on the printing compute node when the environment starts
 
     Reading input from bands.in

     Current dimensions of program PWSCF are:
     Max number of different atomic species (ntypx) = 10
     Max number of k-points (npk) =  40000
     Max angular momentum in pseudopotentials (lmaxx) =  4
     file In.pbe-dn-kjpaw_psl.1.0.0.UPF: wavefunction(s)  5S 5P 4D renormalized
     file O.pbe-n-kjpaw_psl.1.0.0.UPF: wavefunction(s)  2S 2P renormalized
     file H.pbe-kjpaw_psl.1.0.0.UPF: wavefunction(s)  1S renormalized

     Atomic positions and unit cell read from directory:
     ./tmp/slab.save/
 
     Message from routine setup:
     using ibrav=0 with symmetry is DISCOURAGED, use correct ibrav instead
 
     Subspace diagonalization in iterative solution of the eigenvalue problem:
     a serial algorithm will be used

 
     G-vector sticks info
     --------------------
     sticks:   dense  smooth     PW     G-vecs:    dense   smooth      PW
     Sum       17241    8621   2209              5746731  2031701  261231
 
     Using Slab Decomposition
 


     bravais-lattice index     =            0
     lattice parameter (alat)  =      19.5330  a.u.
     unit-cell volume          =   25140.0035 (a.u.)^3
     number of atoms/cell      =           96
     number of atomic types    =            3
     number of electrons       =       624.00
     number of Kohn-Sham states=          328
     kinetic-energy cutoff     =      71.0000  Ry
     charge density cutoff     =     568.0000  Ry
     Exchange-correlation= SLA  PW   PBX  PBC
                           (   1   4   3   4   0   0   0)

     GPU acceleration is ACTIVE.  1 visible GPUs per MPI rank
     GPU-aware MPI enabled


     GPU used by master process:

        Device Number: 0
        Device name: NVIDIA A100-PCIE-40GB
        Compute capability : 80
        Ratio of single to double precision performance  : 2
        Memory Clock Rate (KHz): 1215000
        Memory Bus Width (bits): 5120
        Peak Memory Bandwidth (GB/s): ******

     celldm(1)=  19.533024  celldm(2)=   0.000000  celldm(3)=   0.000000
     celldm(4)=   0.000000  celldm(5)=   0.000000  celldm(6)=   0.000000

     crystal axes: (cart. coord. in units of alat)
               a(1) = (   1.000000   0.000000   0.000000 )  
               a(2) = (   0.000000   0.999814   0.000000 )  
               a(3) = (   0.000000   0.000000   3.373944 )  

     reciprocal axes: (cart. coord. in units 2 pi/alat)
               b(1) = (  1.000000  0.000000  0.000000 )  
               b(2) = (  0.000000  1.000186  0.000000 )  
               b(3) = (  0.000000  0.000000  0.296389 )  


     PseudoPot. # 1 for In read from file:
     ./In.pbe-dn-kjpaw_psl.1.0.0.UPF
     MD5 check sum: 235b15e6a7fdfd96486e0ecdcb5b12c6
     Pseudo is Projector augmented-wave + core cor, Zval = 13.0
     Generated using &quot;atomic&quot; code by A. Dal Corso  v.6.3
     Shape of augmentation charge: PSQ
     Using radial grid of 1241 points,  6 beta functions with: 
                l(1) =   0
                l(2) =   0
                l(3) =   1
                l(4) =   1
                l(5) =   2
                l(6) =   2
     Q(r) pseudized with 0 coefficients 


     PseudoPot. # 2 for O  read from file:
     ./O.pbe-n-kjpaw_psl.1.0.0.UPF
     MD5 check sum: e99d9cef9b487d1ca56f5b95ecd0fd7a
     Pseudo is Projector augmented-wave + core cor, Zval =  6.0
     Generated using &quot;atomic&quot; code by A. Dal Corso  v.6.3
     Shape of augmentation charge: PSQ
     Using radial grid of 1095 points,  4 beta functions with: 
                l(1) =   0
                l(2) =   0
                l(3) =   1
                l(4) =   1
     Q(r) pseudized with 0 coefficients 


     PseudoPot. # 3 for H  read from file:
     ./H.pbe-kjpaw_psl.1.0.0.UPF
     MD5 check sum: d81a744832360e4a8af0b0b5b123bc2a
     Pseudo is Projector augmented-wave, Zval =  1.0
     Generated using &quot;atomic&quot; code by A. Dal Corso  v.6.3MaX
     Shape of augmentation charge: PSQ
     Using radial grid of  929 points,  2 beta functions with: 
                l(1) =   0
                l(2) =   0
     Q(r) pseudized with 0 coefficients 


     atomic species   valence    mass     pseudopotential
     In               13.00   114.81800     In( 1.00)
     O                 6.00    15.99900     O ( 1.00)
     H                 1.00     1.00800     H ( 1.00)

      8 Sym. Ops., with inversion, found ( 6 have fractional translation)


                                    s                        frac. trans.

      isym =  1     identity                                     

 cryst.   s( 1) = (     1          0          0      )
                  (     0          1          0      )
                  (     0          0          1      )

 cart.    s( 1) = (  1.0000000  0.0000000  0.0000000 )
                  (  0.0000000  1.0000000  0.0000000 )
                  (  0.0000000  0.0000000  1.0000000 )


      isym =  2     180 deg rotation - cart. axis [0,0,1]        

 cryst.   s( 2) = (    -1          0          0      )    f =(  0.0000000 )
                  (     0         -1          0      )       (  0.5000000 )
                  (     0          0          1      )       (  0.0000000 )

 cart.    s( 2) = ( -1.0000000  0.0000000  0.0000000 )    f =(  0.0000000 )
                  (  0.0000000 -1.0000000  0.0000000 )       (  0.4999068 )
                  (  0.0000000  0.0000000  1.0000000 )       (  0.0000000 )


      isym =  3     180 deg rotation - cart. axis [0,1,0]        

 cryst.   s( 3) = (    -1          0          0      )    f =(  0.5000000 )
                  (     0          1          0      )       (  0.0000000 )
                  (     0          0         -1      )       ( -0.0000000 )

 cart.    s( 3) = ( -1.0000000  0.0000000  0.0000000 )    f =(  0.5000000 )
                  (  0.0000000  1.0000000  0.0000000 )       (  0.0000000 )
                  (  0.0000000  0.0000000 -1.0000000 )       ( -0.0000000 )


      isym =  4     180 deg rotation - cart. axis [1,0,0]        

 cryst.   s( 4) = (     1          0          0      )    f =( -0.5000000 )
                  (     0         -1          0      )       (  0.5000000 )
                  (     0          0         -1      )       ( -0.0000000 )

 cart.    s( 4) = (  1.0000000  0.0000000  0.0000000 )    f =( -0.5000000 )
                  (  0.0000000 -1.0000000  0.0000000 )       (  0.4999068 )
                  (  0.0000000  0.0000000 -1.0000000 )       ( -0.0000000 )


      isym =  5     inversion                                    

 cryst.   s( 5) = (    -1          0          0      )
                  (     0         -1          0      )
                  (     0          0         -1      )

 cart.    s( 5) = ( -1.0000000  0.0000000  0.0000000 )
                  (  0.0000000 -1.0000000  0.0000000 )
                  (  0.0000000  0.0000000 -1.0000000 )


      isym =  6     inv. 180 deg rotation - cart. axis [0,0,1]   

 cryst.   s( 6) = (     1          0          0      )    f =(  0.0000000 )
                  (     0          1          0      )       ( -0.5000000 )
                  (     0          0         -1      )       ( -0.0000000 )

 cart.    s( 6) = (  1.0000000  0.0000000  0.0000000 )    f =(  0.0000000 )
                  (  0.0000000  1.0000000  0.0000000 )       ( -0.4999068 )
                  (  0.0000000  0.0000000 -1.0000000 )       ( -0.0000000 )


      isym =  7     inv. 180 deg rotation - cart. axis [0,1,0]   

 cryst.   s( 7) = (     1          0          0      )    f =( -0.5000000 )
                  (     0         -1          0      )       (  0.0000000 )
                  (     0          0          1      )       (  0.0000000 )

 cart.    s( 7) = (  1.0000000  0.0000000  0.0000000 )    f =( -0.5000000 )
                  (  0.0000000 -1.0000000  0.0000000 )       (  0.0000000 )
                  (  0.0000000  0.0000000  1.0000000 )       (  0.0000000 )


      isym =  8     inv. 180 deg rotation - cart. axis [1,0,0]   

 cryst.   s( 8) = (    -1          0          0      )    f =(  0.5000000 )
                  (     0          1          0      )       ( -0.5000000 )
                  (     0          0          1      )       (  0.0000000 )

 cart.    s( 8) = ( -1.0000000  0.0000000  0.0000000 )    f =(  0.5000000 )
                  (  0.0000000  1.0000000  0.0000000 )       ( -0.4999068 )
                  (  0.0000000  0.0000000  1.0000000 )       (  0.0000000 )


   Cartesian axes

     site n.     atom                  positions (alat units)
         1        In     tau(   1) = (   0.2477884   0.2524314   1.4377810  )
         2        In     tau(   2) = (   0.7522116   0.2474754   1.4377810  )
         3        In     tau(   3) = (   0.2522116   0.2524314   1.9361629  )
         4        In     tau(   4) = (   0.2522116   0.7523382   1.4377810  )
         5        In     tau(   5) = (   0.4644838   0.5018987   1.9353099  )
         6        In     tau(   6) = (   0.0355162   0.5018987   1.4386341  )
         7        In     tau(   7) = (   0.7500000   0.4645322   1.6869720  )
         8        In     tau(   8) = (   0.2500000   0.0353746   1.6869720  )
         9        In     tau(   9) = (   0.5000000   0.7498602   1.6545612  )
        10        In     tau(  10) = (   0.0355162   0.0019919   1.9353099  )
        11        In     tau(  11) = (   0.4644838   0.0019919   1.4386341  )
        12        In     tau(  12) = (   0.0000000   0.2499534   1.6545612  )
        13        O      tau(  13) = (   0.3895937   0.1566307   1.5661185  )
        14        O      tau(  14) = (   0.6104063   0.3432761   1.5661185  )
        15        O      tau(  15) = (   0.1104063   0.1566307   1.8078254  )
        16        O      tau(  16) = (   0.8895937   0.3432761   1.8078254  )
        17        O      tau(  17) = (   0.3807926   0.3940382   1.3430988  )
        18        O      tau(  18) = (   0.3835283   0.6107629   1.5355577  )
        19        O      tau(  19) = (   0.6192074   0.1058686   1.3430988  )
        20        O      tau(  20) = (   0.6164717   0.8889575   1.5355577  )
        21        O      tau(  21) = (   0.1543779   0.3833719   1.5788707  )
        22        O      tau(  22) = (   0.3456221   0.3833719   1.7950732  )
        23        O      tau(  23) = (   0.1844690   0.6022275   1.3059819  )
        24        O      tau(  24) = (   0.3155310   0.6022275   2.0679621  )
        25        O      tau(  25) = (   0.0987520   0.3418824   1.3159406  )
        26        O      tau(  26) = (   0.9012480   0.1580244   1.3159406  )
        27        O      tau(  27) = (   0.4012480   0.3418824   2.0580033  )
        28        O      tau(  28) = (   0.5987520   0.1580244   2.0580033  )
        29        O      tau(  29) = (   0.1164717   0.1108561   1.5355577  )
        30        O      tau(  30) = (   0.1192074   0.8939450   1.3430988  )
        31        O      tau(  31) = (   0.8835283   0.3890507   1.5355577  )
        32        O      tau(  32) = (   0.8807926   0.6057754   1.3430988  )
        33        O      tau(  33) = (   0.3155310   0.1023207   1.3059819  )
        34        O      tau(  34) = (   0.1844690   0.1023207   2.0679621  )
        35        O      tau(  35) = (   0.3456221   0.8832787   1.5788707  )
        36        O      tau(  36) = (   0.1543779   0.8832787   1.7950732  )
        37        In     tau(  37) = (   0.7522116   0.7473822   1.9361629  )
        38        In     tau(  38) = (   0.2477884   0.7523382   1.9361629  )
        39        In     tau(  39) = (   0.7477884   0.7473822   1.4377810  )
        40        In     tau(  40) = (   0.7477884   0.2474754   1.9361629  )
        41        In     tau(  41) = (   0.9644838  -0.0019919   1.4386341  )
        42        In     tau(  42) = (   0.5355162  -0.0019919   1.9353099  )
        43        In     tau(  43) = (   0.0000000   0.7498602   1.7193827  )
        44        In     tau(  44) = (   0.5355162   0.4979149   1.4386341  )
        45        In     tau(  45) = (   0.9644838   0.4979149   1.9353099  )
        46        In     tau(  46) = (   0.2500000   0.5352814   1.6869720  )
        47        In     tau(  47) = (   0.7500000   0.9644390   1.6869720  )
        48        In     tau(  48) = (   0.5000000   0.2499534   1.7193827  )
        49        O      tau(  49) = (   0.9012480   0.6579312   2.0580033  )
        50        O      tau(  50) = (   0.0987520   0.8417892   2.0580033  )
        51        O      tau(  51) = (   0.5987520   0.6579312   1.3159406  )
        52        O      tau(  52) = (   0.4012480   0.8417892   1.3159406  )
        53        O      tau(  53) = (   0.8835283   0.8889575   1.8383862  )
        54        O      tau(  54) = (   0.8807926   0.1058686   2.0308451  )
        55        O      tau(  55) = (   0.1164717   0.6107629   1.8383862  )
        56        O      tau(  56) = (   0.1192074   0.3940382   2.0308451  )
        57        O      tau(  57) = (   0.6844690   0.8974929   2.0679621  )
        58        O      tau(  58) = (   0.8155310   0.8974929   1.3059819  )
        59        O      tau(  59) = (   0.6543779   0.1165349   1.7950732  )
        60        O      tau(  60) = (   0.8456221   0.1165349   1.5788707  )
        61        O      tau(  61) = (   0.6104063   0.8431829   1.8078254  )
        62        O      tau(  62) = (   0.3895937   0.6565375   1.8078254  )
        63        O      tau(  63) = (   0.8895937   0.8431829   1.5661185  )
        64        O      tau(  64) = (   0.1104063   0.6565375   1.5661185  )
        65        O      tau(  65) = (   0.6192074   0.6057754   2.0308451  )
        66        O      tau(  66) = (   0.6164717   0.3890507   1.8383862  )
        67        O      tau(  67) = (   0.3807926   0.8939450   2.0308451  )
        68        O      tau(  68) = (   0.3835283   0.1108561   1.8383862  )
        69        O      tau(  69) = (   0.8456221   0.6164417   1.7950732  )
        70        O      tau(  70) = (   0.6543779   0.6164417   1.5788707  )
        71        O      tau(  71) = (   0.8155310   0.3975861   2.0679621  )
        72        O      tau(  72) = (   0.6844690   0.3975861   1.3059819  )
        73        H      tau(  73) = (   0.3217590   0.4630756   1.3138608  )
        74        H      tau(  74) = (   0.6782410   0.0368312   1.3138608  )
        75        H      tau(  75) = (   0.1367869   0.6459755   1.2374682  )
        76        H      tau(  76) = (   0.3632131   0.6459755   2.1364757  )
        77        H      tau(  77) = (   0.1355230   0.3772115   1.2369454  )
        78        H      tau(  78) = (   0.8644770   0.1226953   1.2369454  )
        79        H      tau(  79) = (   0.3644770   0.3772115   2.1369985  )
        80        H      tau(  80) = (   0.6355230   0.1226953   2.1369985  )
        81        H      tau(  81) = (   0.1782410   0.9629824   1.3138608  )
        82        H      tau(  82) = (   0.8217590   0.5367379   1.3138608  )
        83        H      tau(  83) = (   0.3632131   0.1460687   1.2374682  )
        84        H      tau(  84) = (   0.1367869   0.1460687   2.1364757  )
        85        H      tau(  85) = (   0.8644770   0.6226021   2.1369985  )
        86        H      tau(  86) = (   0.1355230   0.8771183   2.1369985  )
        87        H      tau(  87) = (   0.6355230   0.6226021   1.2369454  )
        88        H      tau(  88) = (   0.3644770   0.8771183   1.2369454  )
        89        H      tau(  89) = (   0.8217590   0.0368312   2.0600832  )
        90        H      tau(  90) = (   0.1782410   0.4630756   2.0600832  )
        91        H      tau(  91) = (   0.6367869   0.8537449   2.1364757  )
        92        H      tau(  92) = (   0.8632131   0.8537449   1.2374682  )
        93        H      tau(  93) = (   0.6782410   0.5367379   2.0600832  )
        94        H      tau(  94) = (   0.3217590   0.9629824   2.0600832  )
        95        H      tau(  95) = (   0.8632131   0.3538381   2.1364757  )
        96        H      tau(  96) = (   0.6367869   0.3538381   1.2374682  )

   Crystallographic axes

     site n.     atom                  positions (cryst. coord.)
         1        In     tau(   1) = (  0.2477884  0.2524785  0.4261425  )
         2        In     tau(   2) = (  0.7522116  0.2475215  0.4261425  )
         3        In     tau(   3) = (  0.2522116  0.2524785  0.5738575  )
         4        In     tau(   4) = (  0.2522116  0.7524785  0.4261425  )
         5        In     tau(   5) = (  0.4644838  0.5019922  0.5736046  )
         6        In     tau(   6) = (  0.0355162  0.5019922  0.4263954  )
         7        In     tau(   7) = (  0.7500000  0.4646188  0.5000000  )
         8        In     tau(   8) = (  0.2500000  0.0353812  0.5000000  )
         9        In     tau(   9) = (  0.5000000  0.7500000  0.4903938  )
        10        In     tau(  10) = (  0.0355162  0.0019922  0.5736046  )
        11        In     tau(  11) = (  0.4644838  0.0019922  0.4263954  )
        12        In     tau(  12) = (  0.0000000  0.2500000  0.4903938  )
        13        O      tau(  13) = (  0.3895937  0.1566599  0.4641804  )
        14        O      tau(  14) = (  0.6104063  0.3433401  0.4641804  )
        15        O      tau(  15) = (  0.1104063  0.1566599  0.5358196  )
        16        O      tau(  16) = (  0.8895937  0.3433401  0.5358196  )
        17        O      tau(  17) = (  0.3807926  0.3941117  0.3980798  )
        18        O      tau(  18) = (  0.3835283  0.6108768  0.4551225  )
        19        O      tau(  19) = (  0.6192074  0.1058883  0.3980798  )
        20        O      tau(  20) = (  0.6164717  0.8891232  0.4551225  )
        21        O      tau(  21) = (  0.1543779  0.3834434  0.4679600  )
        22        O      tau(  22) = (  0.3456221  0.3834434  0.5320400  )
        23        O      tau(  23) = (  0.1844690  0.6023397  0.3870787  )
        24        O      tau(  24) = (  0.3155310  0.6023397  0.6129213  )
        25        O      tau(  25) = (  0.0987520  0.3419461  0.3900304  )
        26        O      tau(  26) = (  0.9012480  0.1580539  0.3900304  )
        27        O      tau(  27) = (  0.4012480  0.3419461  0.6099696  )
        28        O      tau(  28) = (  0.5987520  0.1580539  0.6099696  )
        29        O      tau(  29) = (  0.1164717  0.1108768  0.4551225  )
        30        O      tau(  30) = (  0.1192074  0.8941117  0.3980798  )
        31        O      tau(  31) = (  0.8835283  0.3891232  0.4551225  )
        32        O      tau(  32) = (  0.8807926  0.6058883  0.3980798  )
        33        O      tau(  33) = (  0.3155310  0.1023397  0.3870787  )
        34        O      tau(  34) = (  0.1844690  0.1023397  0.6129213  )
        35        O      tau(  35) = (  0.3456221  0.8834434  0.4679600  )
        36        O      tau(  36) = (  0.1543779  0.8834434  0.5320400  )
        37        In     tau(  37) = (  0.7522116  0.7475215  0.5738575  )
        38        In     tau(  38) = (  0.2477884  0.7524785  0.5738575  )
        39        In     tau(  39) = (  0.7477884  0.7475215  0.4261425  )
        40        In     tau(  40) = (  0.7477884  0.2475215  0.5738575  )
        41        In     tau(  41) = (  0.9644838 -0.0019922  0.4263954  )
        42        In     tau(  42) = (  0.5355162 -0.0019922  0.5736046  )
        43        In     tau(  43) = (  0.0000000  0.7500000  0.5096062  )
        44        In     tau(  44) = (  0.5355162  0.4980078  0.4263954  )
        45        In     tau(  45) = (  0.9644838  0.4980078  0.5736046  )
        46        In     tau(  46) = (  0.2500000  0.5353812  0.5000000  )
        47        In     tau(  47) = (  0.7500000  0.9646188  0.5000000  )
        48        In     tau(  48) = (  0.5000000  0.2500000  0.5096062  )
        49        O      tau(  49) = (  0.9012480  0.6580539  0.6099696  )
        50        O      tau(  50) = (  0.0987520  0.8419461  0.6099696  )
        51        O      tau(  51) = (  0.5987520  0.6580539  0.3900304  )
        52        O      tau(  52) = (  0.4012480  0.8419461  0.3900304  )
        53        O      tau(  53) = (  0.8835283  0.8891232  0.5448775  )
        54        O      tau(  54) = (  0.8807926  0.1058883  0.6019202  )
        55        O      tau(  55) = (  0.1164717  0.6108768  0.5448775  )
        56        O      tau(  56) = (  0.1192074  0.3941117  0.6019202  )
        57        O      tau(  57) = (  0.6844690  0.8976603  0.6129213  )
        58        O      tau(  58) = (  0.8155310  0.8976603  0.3870787  )
        59        O      tau(  59) = (  0.6543779  0.1165566  0.5320400  )
        60        O      tau(  60) = (  0.8456221  0.1165566  0.4679600  )
        61        O      tau(  61) = (  0.6104063  0.8433401  0.5358196  )
        62        O      tau(  62) = (  0.3895937  0.6566599  0.5358196  )
        63        O      tau(  63) = (  0.8895937  0.8433401  0.4641804  )
        64        O      tau(  64) = (  0.1104063  0.6566599  0.4641804  )
        65        O      tau(  65) = (  0.6192074  0.6058883  0.6019202  )
        66        O      tau(  66) = (  0.6164717  0.3891232  0.5448775  )
        67        O      tau(  67) = (  0.3807926  0.8941117  0.6019202  )
        68        O      tau(  68) = (  0.3835283  0.1108768  0.5448775  )
        69        O      tau(  69) = (  0.8456221  0.6165566  0.5320400  )
        70        O      tau(  70) = (  0.6543779  0.6165566  0.4679600  )
        71        O      tau(  71) = (  0.8155310  0.3976603  0.6129213  )
        72        O      tau(  72) = (  0.6844690  0.3976603  0.3870787  )
        73        H      tau(  73) = (  0.3217590  0.4631620  0.3894139  )
        74        H      tau(  74) = (  0.6782410  0.0368380  0.3894139  )
        75        H      tau(  75) = (  0.1367869  0.6460959  0.3667720  )
        76        H      tau(  76) = (  0.3632131  0.6460959  0.6332280  )
        77        H      tau(  77) = (  0.1355230  0.3772818  0.3666171  )
        78        H      tau(  78) = (  0.8644770  0.1227182  0.3666171  )
        79        H      tau(  79) = (  0.3644770  0.3772818  0.6333829  )
        80        H      tau(  80) = (  0.6355230  0.1227182  0.6333829  )
        81        H      tau(  81) = (  0.1782410  0.9631620  0.3894139  )
        82        H      tau(  82) = (  0.8217590  0.5368380  0.3894139  )
        83        H      tau(  83) = (  0.3632131  0.1460959  0.3667720  )
        84        H      tau(  84) = (  0.1367869  0.1460959  0.6332280  )
        85        H      tau(  85) = (  0.8644770  0.6227182  0.6333829  )
        86        H      tau(  86) = (  0.1355230  0.8772818  0.6333829  )
        87        H      tau(  87) = (  0.6355230  0.6227182  0.3666171  )
        88        H      tau(  88) = (  0.3644770  0.8772818  0.3666171  )
        89        H      tau(  89) = (  0.8217590  0.0368380  0.6105861  )
        90        H      tau(  90) = (  0.1782410  0.4631620  0.6105861  )
        91        H      tau(  91) = (  0.6367869  0.8539041  0.6332280  )
        92        H      tau(  92) = (  0.8632131  0.8539041  0.3667720  )
        93        H      tau(  93) = (  0.6782410  0.5368380  0.6105861  )
        94        H      tau(  94) = (  0.3217590  0.9631620  0.6105861  )
        95        H      tau(  95) = (  0.8632131  0.3539041  0.6332280  )
        96        H      tau(  96) = (  0.6367869  0.3539041  0.3667720  )

     number of k points=    21
                       cart. coord. in units 2pi/alat
        k(    1) = (   0.0000000   0.0000000   0.0000000), wk =   0.0952381
        k(    2) = (   0.0246040   0.0000000   0.0000000), wk =   0.0952381
        k(    3) = (   0.0492080   0.0000000   0.0000000), wk =   0.0952381
        k(    4) = (   0.0738119   0.0000000   0.0000000), wk =   0.0952381
        k(    5) = (   0.0984159   0.0000000   0.0000000), wk =   0.0952381
        k(    6) = (   0.1230199   0.0000000   0.0000000), wk =   0.0952381
        k(    7) = (   0.1476239   0.0000000   0.0000000), wk =   0.0952381
        k(    8) = (   0.1722278   0.0000000   0.0000000), wk =   0.0952381
        k(    9) = (   0.1968318   0.0000000   0.0000000), wk =   0.0952381
        k(   10) = (   0.2214358   0.0000000   0.0000000), wk =   0.0952381
        k(   11) = (   0.2460398   0.0000000   0.0000000), wk =   0.0952381
        k(   12) = (   0.0173976   0.0173976   0.0000000), wk =   0.0952381
        k(   13) = (   0.0347953   0.0347953   0.0000000), wk =   0.0952381
        k(   14) = (   0.0521929   0.0521929   0.0000000), wk =   0.0952381
        k(   15) = (   0.0695906   0.0695906   0.0000000), wk =   0.0952381
        k(   16) = (   0.0869882   0.0869882   0.0000000), wk =   0.0952381
        k(   17) = (   0.1043858   0.1043858   0.0000000), wk =   0.0952381
        k(   18) = (   0.1217835   0.1217835   0.0000000), wk =   0.0952381
        k(   19) = (   0.1391811   0.1391811   0.0000000), wk =   0.0952381
        k(   20) = (   0.1565788   0.1565788   0.0000000), wk =   0.0952381
        k(   21) = (   0.1739764   0.1739764   0.0000000), wk =   0.0952381

                       cryst. coord.
        k(    1) = (   0.0000000   0.0000000   0.0000000), wk =   0.0952381
        k(    2) = (   0.0246040   0.0000000   0.0000000), wk =   0.0952381
        k(    3) = (   0.0492080   0.0000000   0.0000000), wk =   0.0952381
        k(    4) = (   0.0738119   0.0000000   0.0000000), wk =   0.0952381
        k(    5) = (   0.0984159   0.0000000   0.0000000), wk =   0.0952381
        k(    6) = (   0.1230199   0.0000000   0.0000000), wk =   0.0952381
        k(    7) = (   0.1476239   0.0000000   0.0000000), wk =   0.0952381
        k(    8) = (   0.1722278   0.0000000   0.0000000), wk =   0.0952381
        k(    9) = (   0.1968318   0.0000000   0.0000000), wk =   0.0952381
        k(   10) = (   0.2214358   0.0000000   0.0000000), wk =   0.0952381
        k(   11) = (   0.2460398   0.0000000   0.0000000), wk =   0.0952381
        k(   12) = (   0.0173976   0.0173944   0.0000000), wk =   0.0952381
        k(   13) = (   0.0347953   0.0347888   0.0000000), wk =   0.0952381
        k(   14) = (   0.0521929   0.0521832   0.0000000), wk =   0.0952381
        k(   15) = (   0.0695906   0.0695776   0.0000000), wk =   0.0952381
        k(   16) = (   0.0869882   0.0869720   0.0000000), wk =   0.0952381
        k(   17) = (   0.1043858   0.1043664   0.0000000), wk =   0.0952381
        k(   18) = (   0.1217835   0.1217608   0.0000000), wk =   0.0952381
        k(   19) = (   0.1391811   0.1391552   0.0000000), wk =   0.0952381
        k(   20) = (   0.1565788   0.1565496   0.0000000), wk =   0.0952381
        k(   21) = (   0.1739764   0.1739440   0.0000000), wk =   0.0952381

     Dense  grid:  5746731 G-vectors     FFT dimensions: ( 150, 150, 500)

     Smooth grid:  2031701 G-vectors     FFT dimensions: ( 108, 108, 360)

     Dynamical RAM for                 wfc:    1271.15 MB

     Dynamical RAM for     wfc (w. buffer):    1271.15 MB

     Dynamical RAM for           str. fact:     263.06 MB

     Dynamical RAM for           local pot:       0.00 MB

     Dynamical RAM for          nlocal pot:    3348.38 MB

     Dynamical RAM for                qrad:       5.74 MB

     Dynamical RAM for          rho,v,vnew:     520.56 MB

     Dynamical RAM for           G-vectors:     344.33 MB

     Dynamical RAM for          h,s,v(r/c):       4.92 MB

     Dynamical RAM for          <psi|beta>:       4.32 MB

     Dynamical RAM for      wfcinit/wfcrot:    3352.66 MB

     Dynamical RAM for           addusdens:   20519.03 MB

     Estimated static dynamical RAM per process >       6.38 GB

     Estimated max dynamical RAM per process >      26.42 GB

     The potential is recalculated from file :
     ./tmp/slab.save/charge-density


     negative rho (up, down):  1.790E-03 0.000E+00
     Starting wfcs are  432 randomized atomic wfcs
     Checking if some PAW data can be deallocated... 

     Band Structure Calculation
     CG style diagonalization

     Computing kpt #:     1  of    21
     c_bands: 14 eigenvalues not converged
     total cpu time spent up to now is      902.3 secs

     Computing kpt #:     2  of    21
     c_bands: 12 eigenvalues not converged
     total cpu time spent up to now is     1693.8 secs

     Computing kpt #:     3  of    21
     c_bands: 12 eigenvalues not converged
     total cpu time spent up to now is     2479.4 secs

     Computing kpt #:     4  of    21
     c_bands: 11 eigenvalues not converged
     total cpu time spent up to now is     3265.9 secs

     Computing kpt #:     5  of    21
     c_bands: 11 eigenvalues not converged
     total cpu time spent up to now is     4055.7 secs

     Computing kpt #:     6  of    21
     c_bands: 12 eigenvalues not converged
     total cpu time spent up to now is     4842.5 secs

     Computing kpt #:     7  of    21
     c_bands: 11 eigenvalues not converged
     total cpu time spent up to now is     5630.9 secs

     Computing kpt #:     8  of    21
     c_bands: 14 eigenvalues not converged
     total cpu time spent up to now is     6417.5 secs

     Computing kpt #:     9  of    21
     c_bands: 13 eigenvalues not converged
     total cpu time spent up to now is     7207.3 secs

     Computing kpt #:    10  of    21
     c_bands: 12 eigenvalues not converged
     total cpu time spent up to now is     8001.8 secs

     Computing kpt #:    11  of    21
     c_bands: 12 eigenvalues not converged
     total cpu time spent up to now is     8786.6 secs

     Computing kpt #:    12  of    21
     c_bands: 14 eigenvalues not converged
     total cpu time spent up to now is     9574.7 secs

     Computing kpt #:    13  of    21
     c_bands: 12 eigenvalues not converged
     total cpu time spent up to now is    10365.3 secs

     Computing kpt #:    14  of    21
     c_bands: 12 eigenvalues not converged
     total cpu time spent up to now is    11161.0 secs

     Computing kpt #:    15  of    21
     c_bands: 14 eigenvalues not converged
     total cpu time spent up to now is    11951.6 secs

     Computing kpt #:    16  of    21
     c_bands: 11 eigenvalues not converged
     total cpu time spent up to now is    12736.4 secs

     Computing kpt #:    17  of    21
     c_bands: 13 eigenvalues not converged
     total cpu time spent up to now is    13529.4 secs

     Computing kpt #:    18  of    21
     c_bands: 14 eigenvalues not converged
     total cpu time spent up to now is    14319.7 secs

     Computing kpt #:    19  of    21
     c_bands: 13 eigenvalues not converged
     total cpu time spent up to now is    15107.2 secs

     Computing kpt #:    20  of    21
     c_bands: 12 eigenvalues not converged
     total cpu time spent up to now is    15899.6 secs

     Computing kpt #:    21  of    21
     c_bands: 13 eigenvalues not converged
     total cpu time spent up to now is    16693.6 secs

     ethr =  1.60E-13,  avg # of iterations = 78.1

     total cpu time spent up to now is    16693.6 secs

     End of band structure calculation

          k = 0.0000 0.0000 0.0000 (253973 PWs)   bands (ev):

   -20.5981 -20.5882 -20.4803 -20.4784 -20.4520 -20.4511 -20.4075 -20.4072
   -20.2528 -20.2523 -20.1889 -20.1888 -20.1612 -20.1605 -20.1286 -20.1279
   -20.1276 -20.1271 -20.0838 -20.0833 -20.0410 -20.0400 -20.0317 -20.0316
   -19.4107 -19.2341 -19.1396 -19.1348 -19.1330 -19.1027 -19.0847 -18.9696
   -18.9630 -18.9520 -18.9413 -18.8613 -18.8598 -18.8315 -18.8275 -18.8223
   -18.7607 -18.7578 -18.7552 -18.7324 -18.6837 -18.6743 -18.6690 -18.5961
   -14.7234 -14.7195 -14.7119 -14.7096 -14.6968 -14.6910 -14.6871 -14.6759
   -14.6728 -14.6720 -14.6640 -14.6609 -14.6599 -14.6501 -14.6453 -14.6444
   -14.6421 -14.6403 -14.6396 -14.6320 -14.6227 -14.6183 -14.6159 -14.6154
   -14.6020 -14.6011 -14.5975 -14.5968 -14.5925 -14.5874 -14.5847 -14.5838
   -14.5809 -14.5794 -14.5742 -14.5733 -14.5663 -14.5653 -14.5622 -14.5573
   -14.5380 -14.5365 -14.5263 -14.5242 -14.5220 -14.5195 -14.5116 -14.5103
   -14.5068 -14.5045 -14.5017 -14.5001 -14.4947 -14.4843 -14.4792 -14.4791
   -14.4789 -14.4781 -14.4714 -14.4662 -14.4618 -14.4581 -14.4562 -14.4532
   -14.4487 -14.4484 -14.4447 -14.4415 -14.4315 -14.4291 -14.4262 -14.4249
   -14.4229 -14.4195 -14.4190 -14.4129 -14.4128 -14.4001 -14.3953 -14.3909
   -14.3815 -14.3815 -14.3780 -14.3773 -14.3675 -14.3648 -14.3632 -14.3582
   -14.3566 -14.3520 -14.3467 -14.3455 -14.3336 -14.3290 -14.3220 -14.3097
   -14.3046 -14.2908 -14.2862 -14.2690 -14.2528 -14.2450 -14.2303 -14.2137
   -14.1051 -14.0614 -14.0292 -13.9875 -13.9542 -13.9363 -13.8877 -13.8744
   -13.8374 -13.7363 -13.6947 -13.6912 -13.6448 -13.5695 -13.5593 -13.5124
    -8.1755  -8.1593  -8.0693  -8.0377  -8.0079  -7.9920  -7.9853  -7.9171
    -7.8716  -7.8370  -7.8198  -7.7827  -7.7756  -7.7455  -7.7047  -7.6216
    -7.5822  -7.3169  -7.2806  -7.2279  -7.0977  -7.0607  -7.0559  -6.9813
    -6.9626  -6.9435  -6.8916  -6.7936  -6.7431  -6.7130  -6.6912  -6.6464
    -6.4919  -6.4312  -6.3704  -6.2573  -6.1919  -6.1704  -6.1563  -6.0393
    -6.0154  -5.9208  -5.9145  -5.8253  -5.8152  -5.7040  -5.5680  -5.5299
    -5.4976  -5.4157  -5.3689  -5.3223  -5.2086  -5.1071  -5.0878  -5.0851
    -5.0768  -5.0151  -4.9992  -4.9302  -4.9086  -4.8902  -4.8694  -4.8292
    -4.6820  -4.6570  -4.5450  -4.4261  -4.3850  -4.3705  -4.3569  -4.3425
    -4.3404  -4.3078  -4.3034  -4.2196  -4.2155  -4.2028  -4.1530  -4.1291
    -4.1188  -4.0449  -4.0334  -4.0299  -4.0198  -3.9811  -3.9544  -3.9430
    -3.9364  -3.8623  -3.8286  -3.8284  -3.7384  -3.7120  -3.6731  -3.6415
    -3.6332  -3.5697  -3.5220  -3.4569  -3.4381  -3.3957  -3.3832  -3.3559
    -3.3399  -3.3342  -3.3186  -3.2517  -3.1745  -3.1629  -3.1612  -3.1553
    -3.1423  -3.0383  -3.0043  -2.8925  -2.8676  -2.8673  -2.8230  -2.8198
    -2.8102  -2.8039  -2.8022  -2.8015  -2.7198  -2.7181  -2.7140  -2.7108
    -2.6829  -2.6474  -2.6429  -2.6134  -2.5746  -2.5719  -2.5565  -2.5507
    -2.5425  -2.5252  -2.5063  -2.4642  -2.4280  -2.3624  -2.3435  -2.3403
    -0.5518   0.9470   1.8966   1.9015   1.9170   1.9473   2.1531   2.5508
     2.6713   2.7540   2.8275   2.8464   2.9824   3.0027   3.0427   3.1063

          k = 0.0246 0.0000 0.0000 (253893 PWs)   bands (ev):

   -20.5980 -20.5881 -20.4806 -20.4786 -20.4519 -20.4510 -20.4075 -20.4072
   -20.2527 -20.2522 -20.1890 -20.1889 -20.1610 -20.1604 -20.1285 -20.1279
   -20.1276 -20.1270 -20.0840 -20.0834 -20.0410 -20.0400 -20.0317 -20.0317
   -19.4105 -19.2340 -19.1452 -19.1400 -19.1226 -19.1026 -19.0845 -18.9695
   -18.9630 -18.9519 -18.9413 -18.8612 -18.8597 -18.8315 -18.8279 -18.8220
   -18.7609 -18.7581 -18.7554 -18.7326 -18.6837 -18.6743 -18.6687 -18.5962
   -14.7234 -14.7194 -14.7118 -14.7097 -14.6967 -14.6909 -14.6871 -14.6759
   -14.6727 -14.6719 -14.6641 -14.6609 -14.6599 -14.6502 -14.6457 -14.6442
   -14.6428 -14.6398 -14.6395 -14.6320 -14.6225 -14.6182 -14.6159 -14.6152
   -14.6024 -14.6012 -14.5976 -14.5967 -14.5926 -14.5874 -14.5846 -14.5838
   -14.5808 -14.5792 -14.5741 -14.5735 -14.5663 -14.5653 -14.5623 -14.5572
   -14.5380 -14.5368 -14.5267 -14.5240 -14.5219 -14.5195 -14.5117 -14.5102
   -14.5069 -14.5043 -14.5021 -14.4997 -14.4946 -14.4848 -14.4796 -14.4792
   -14.4788 -14.4778 -14.4713 -14.4660 -14.4615 -14.4582 -14.4568 -14.4526
   -14.4484 -14.4484 -14.4446 -14.4414 -14.4317 -14.4291 -14.4270 -14.4252
   -14.4225 -14.4197 -14.4190 -14.4127 -14.4124 -14.4002 -14.3953 -14.3905
   -14.3814 -14.3814 -14.3780 -14.3773 -14.3676 -14.3647 -14.3632 -14.3582
   -14.3566 -14.3520 -14.3467 -14.3455 -14.3336 -14.3291 -14.3221 -14.3098
   -14.3052 -14.2909 -14.2866 -14.2695 -14.2519 -14.2445 -14.2296 -14.2139
   -14.1049 -14.0630 -14.0295 -13.9878 -13.9527 -13.9362 -13.8877 -13.8739
   -13.8374 -13.7376 -13.6947 -13.6898 -13.6452 -13.5695 -13.5593 -13.5127
    -8.1753  -8.1592  -8.0694  -8.0377  -8.0083  -7.9920  -7.9856  -7.9175
    -7.8717  -7.8374  -7.8203  -7.7828  -7.7742  -7.7449  -7.7045  -7.6216
    -7.5811  -7.3169  -7.2811  -7.2280  -7.0961  -7.0610  -7.0551  -6.9834
    -6.9623  -6.9439  -6.8916  -6.7977  -6.7429  -6.7124  -6.6907  -6.6426
    -6.4925  -6.4311  -6.3704  -6.2573  -6.2000  -6.1656  -6.1568  -6.0372
    -6.0164  -5.9237  -5.9207  -5.8236  -5.8151  -5.6938  -5.5674  -5.5297
    -5.4978  -5.4151  -5.3687  -5.3221  -5.2090  -5.1066  -5.0938  -5.0791
    -5.0766  -5.0162  -4.9971  -4.9307  -4.9089  -4.8906  -4.8689  -4.8303
    -4.6818  -4.6559  -4.5458  -4.4260  -4.3859  -4.3698  -4.3597  -4.3520
    -4.3340  -4.3056  -4.3032  -4.2207  -4.2148  -4.2019  -4.1540  -4.1266
    -4.1187  -4.0511  -4.0310  -4.0266  -4.0207  -3.9802  -3.9578  -3.9427
    -3.9334  -3.8621  -3.8393  -3.8165  -3.7398  -3.7125  -3.6710  -3.6425
    -3.6317  -3.5700  -3.5243  -3.4582  -3.4373  -3.3958  -3.3832  -3.3540
    -3.3390  -3.3339  -3.3197  -3.2514  -3.1768  -3.1611  -3.1604  -3.1553
    -3.1426  -3.0384  -3.0048  -2.8937  -2.8691  -2.8671  -2.8224  -2.8196
    -2.8090  -2.8075  -2.8019  -2.8004  -2.7233  -2.7185  -2.7135  -2.7107
    -2.6796  -2.6474  -2.6431  -2.6129  -2.5751  -2.5723  -2.5566  -2.5503
    -2.5483  -2.5202  -2.5068  -2.4631  -2.4280  -2.3624  -2.3440  -2.3403
    -0.5487   0.9487   1.8346   1.8977   1.9483   1.9833   2.1541   2.5515
     2.6412   2.7823   2.8195   2.8464   2.9818   2.9885   3.0574   3.0905

          k = 0.0492 0.0000 0.0000 (253915 PWs)   bands (ev):

   -20.5975 -20.5877 -20.4813 -20.4793 -20.4517 -20.4509 -20.4077 -20.4074
   -20.2524 -20.2519 -20.1894 -20.1893 -20.1606 -20.1600 -20.1283 -20.1276
   -20.1273 -20.1267 -20.0843 -20.0837 -20.0410 -20.0400 -20.0318 -20.0318
   -19.4099 -19.2338 -19.1564 -19.1410 -19.1114 -19.1024 -19.0839 -18.9693
   -18.9632 -18.9518 -18.9412 -18.8608 -18.8593 -18.8315 -18.8288 -18.8212
   -18.7614 -18.7590 -18.7560 -18.7330 -18.6836 -18.6742 -18.6679 -18.5963
   -14.7232 -14.7191 -14.7118 -14.7098 -14.6964 -14.6906 -14.6870 -14.6758
   -14.6725 -14.6718 -14.6642 -14.6608 -14.6597 -14.6503 -14.6466 -14.6441
   -14.6440 -14.6394 -14.6391 -14.6320 -14.6222 -14.6181 -14.6161 -14.6145
   -14.6033 -14.6013 -14.5979 -14.5964 -14.5928 -14.5874 -14.5842 -14.5838
   -14.5806 -14.5786 -14.5738 -14.5738 -14.5663 -14.5652 -14.5624 -14.5569
   -14.5382 -14.5377 -14.5278 -14.5235 -14.5218 -14.5198 -14.5123 -14.5101
   -14.5075 -14.5039 -14.5025 -14.4992 -14.4946 -14.4862 -14.4809 -14.4793
   -14.4786 -14.4771 -14.4710 -14.4653 -14.4609 -14.4584 -14.4579 -14.4513
   -14.4484 -14.4478 -14.4444 -14.4410 -14.4323 -14.4293 -14.4286 -14.4261
   -14.4218 -14.4202 -14.4188 -14.4123 -14.4111 -14.4003 -14.3953 -14.3894
   -14.3813 -14.3809 -14.3782 -14.3774 -14.3678 -14.3646 -14.3629 -14.3582
   -14.3567 -14.3520 -14.3464 -14.3455 -14.3334 -14.3291 -14.3221 -14.3099
   -14.3069 -14.2911 -14.2877 -14.2708 -14.2494 -14.2428 -14.2277 -14.2144
   -14.1042 -14.0674 -14.0304 -13.9888 -13.9485 -13.9358 -13.8879 -13.8724
   -13.8373 -13.7413 -13.6947 -13.6862 -13.6462 -13.5696 -13.5593 -13.5135
    -8.1747  -8.1588  -8.0695  -8.0376  -8.0093  -7.9919  -7.9864  -7.9186
    -7.8721  -7.8387  -7.8218  -7.7831  -7.7705  -7.7430  -7.7040  -7.6215
    -7.5780  -7.3168  -7.2825  -7.2280  -7.0916  -7.0621  -7.0526  -6.9891
    -6.9619  -6.9452  -6.8918  -6.8091  -6.7424  -6.7108  -6.6893  -6.6325
    -6.4943  -6.4309  -6.3703  -6.2574  -6.2154  -6.1601  -6.1582  -6.0308
    -6.0205  -5.9454  -5.9205  -5.8188  -5.8147  -5.6679  -5.5654  -5.5291
    -5.4986  -5.4132  -5.3682  -5.3215  -5.2098  -5.1052  -5.1011  -5.0760
    -5.0717  -5.0192  -4.9910  -4.9321  -4.9100  -4.8917  -4.8675  -4.8334
    -4.6811  -4.6528  -4.5481  -4.4260  -4.3887  -4.3676  -4.3667  -4.3647
    -4.3300  -4.3027  -4.3003  -4.2242  -4.2127  -4.1993  -4.1570  -4.1202
    -4.1175  -4.0601  -4.0343  -4.0235  -4.0155  -3.9776  -3.9645  -3.9417
    -3.9278  -3.8615  -3.8487  -3.8034  -3.7434  -3.7138  -3.6649  -3.6454
    -3.6274  -3.5711  -3.5310  -3.4616  -3.4349  -3.3960  -3.3832  -3.3485
    -3.3363  -3.3329  -3.3226  -3.2507  -3.1816  -3.1611  -3.1552  -3.1551
    -3.1435  -3.0386  -3.0062  -2.8972  -2.8738  -2.8654  -2.8210  -2.8191
    -2.8136  -2.8057  -2.8029  -2.7996  -2.7313  -2.7194  -2.7121  -2.7102
    -2.6721  -2.6475  -2.6437  -2.6114  -2.5763  -2.5737  -2.5591  -2.5567
    -2.5493  -2.5119  -2.5082  -2.4600  -2.4280  -2.3623  -2.3452  -2.3404
    -0.5396   0.9535   1.7601   1.9009   1.9510   2.0561   2.1571   2.5535
     2.5884   2.8280   2.8336   2.8462   2.9244   2.9668   2.9797   3.0827

          k = 0.0738 0.0000 0.0000 (253947 PWs)   bands (ev):

   -20.5968 -20.5871 -20.4825 -20.4805 -20.4514 -20.4506 -20.4080 -20.4077
   -20.2519 -20.2514 -20.1901 -20.1899 -20.1600 -20.1594 -20.1279 -20.1273
   -20.1269 -20.1263 -20.0848 -20.0843 -20.0411 -20.0401 -20.0320 -20.0320
   -19.4089 -19.2333 -19.1676 -19.1426 -19.1021 -19.1003 -19.0831 -18.9689
   -18.9634 -18.9516 -18.9410 -18.8603 -18.8587 -18.8314 -18.8300 -18.8202
   -18.7623 -18.7605 -18.7570 -18.7337 -18.6834 -18.6741 -18.6665 -18.5964
   -14.7229 -14.7186 -14.7116 -14.7100 -14.6959 -14.6901 -14.6868 -14.6755
   -14.6722 -14.6715 -14.6645 -14.6607 -14.6595 -14.6506 -14.6478 -14.6458
   -14.6438 -14.6391 -14.6384 -14.6319 -14.6216 -14.6180 -14.6163 -14.6134
   -14.6047 -14.6016 -14.5984 -14.5961 -14.5932 -14.5873 -14.5838 -14.5836
   -14.5803 -14.5777 -14.5743 -14.5736 -14.5663 -14.5652 -14.5627 -14.5565
   -14.5390 -14.5385 -14.5293 -14.5228 -14.5218 -14.5202 -14.5133 -14.5099
   -14.5086 -14.5033 -14.5024 -14.4989 -14.4944 -14.4878 -14.4826 -14.4794
   -14.4782 -14.4766 -14.4708 -14.4644 -14.4598 -14.4589 -14.4587 -14.4499
   -14.4483 -14.4467 -14.4443 -14.4404 -14.4332 -14.4305 -14.4295 -14.4277
   -14.4213 -14.4206 -14.4185 -14.4117 -14.4092 -14.4005 -14.3954 -14.3879
   -14.3810 -14.3800 -14.3784 -14.3775 -14.3682 -14.3644 -14.3625 -14.3583
   -14.3569 -14.3521 -14.3460 -14.3454 -14.3332 -14.3292 -14.3223 -14.3101
   -14.3094 -14.2913 -14.2895 -14.2728 -14.2456 -14.2403 -14.2247 -14.2151
   -14.1032 -14.0740 -14.0320 -13.9903 -13.9423 -13.9351 -13.8883 -13.8699
   -13.8372 -13.7465 -13.6946 -13.6812 -13.6478 -13.5698 -13.5592 -13.5147
    -8.1738  -8.1581  -8.0697  -8.0375  -8.0110  -7.9918  -7.9878  -7.9205
    -7.8728  -7.8407  -7.8237  -7.7836  -7.7649  -7.7400  -7.7031  -7.6212
    -7.5730  -7.3166  -7.2849  -7.2275  -7.0845  -7.0640  -7.0485  -6.9977
    -6.9621  -6.9475  -6.8920  -6.8253  -6.7415  -6.7080  -6.6871  -6.6183
    -6.4973  -6.4304  -6.3701  -6.2575  -6.2327  -6.1606  -6.1593  -6.0323
    -6.0200  -5.9679  -5.9200  -5.8141  -5.8109  -5.6336  -5.5621  -5.5281
    -5.4997  -5.4102  -5.3673  -5.3205  -5.2108  -5.1088  -5.1029  -5.0751
    -5.0641  -5.0242  -4.9812  -4.9344  -4.9118  -4.8931  -4.8653  -4.8385
    -4.6801  -4.6477  -4.5518  -4.4267  -4.3934  -4.3786  -4.3756  -4.3640
    -4.3292  -4.3017  -4.2940  -4.2294  -4.2091  -4.1950  -4.1620  -4.1193
    -4.1071  -4.0686  -4.0393  -4.0282  -4.0031  -3.9739  -3.9716  -3.9400
    -3.9224  -3.8602  -3.8563  -3.7895  -3.7486  -3.7163  -3.6557  -3.6503
    -3.6212  -3.5730  -3.5413  -3.4663  -3.4315  -3.3965  -3.3831  -3.3403
    -3.3322  -3.3310  -3.3273  -3.2498  -3.1877  -3.1610  -3.1546  -3.1489
    -3.1451  -3.0390  -3.0086  -2.9025  -2.8804  -2.8627  -2.8213  -2.8191
    -2.8184  -2.8047  -2.8014  -2.8003  -2.7411  -2.7206  -2.7113  -2.7083
    -2.6632  -2.6474  -2.6447  -2.6093  -2.5783  -2.5761  -2.5713  -2.5568
    -2.5476  -2.5101  -2.5036  -2.4555  -2.4278  -2.3621  -2.3473  -2.3405
    -0.5245   0.9614   1.6850   1.9063   1.9556   2.1283   2.1620   2.5315
     2.5569   2.8245   2.8457   2.8619   2.9300   2.9574   2.9765   3.1091

          k = 0.0984 0.0000 0.0000 (253889 PWs)   bands (ev):

   -20.5959 -20.5862 -20.4842 -20.4821 -20.4510 -20.4501 -20.4084 -20.4081
   -20.2512 -20.2507 -20.1909 -20.1908 -20.1591 -20.1585 -20.1274 -20.1268
   -20.1263 -20.1257 -20.0856 -20.0850 -20.0412 -20.0403 -20.0323 -20.0322
   -19.4076 -19.2327 -19.1786 -19.1448 -19.1017 -19.0892 -19.0820 -18.9684
   -18.9637 -18.9513 -18.9409 -18.8596 -18.8578 -18.8315 -18.8313 -18.8189
   -18.7635 -18.7625 -18.7583 -18.7346 -18.6831 -18.6740 -18.6646 -18.5967
   -14.7224 -14.7179 -14.7114 -14.7103 -14.6951 -14.6895 -14.6866 -14.6753
   -14.6719 -14.6711 -14.6648 -14.6606 -14.6593 -14.6511 -14.6492 -14.6475
   -14.6436 -14.6387 -14.6376 -14.6318 -14.6210 -14.6177 -14.6166 -14.6120
   -14.6064 -14.6018 -14.5990 -14.5957 -14.5936 -14.5871 -14.5837 -14.5827
   -14.5799 -14.5765 -14.5751 -14.5738 -14.5662 -14.5653 -14.5628 -14.5560
   -14.5405 -14.5389 -14.5311 -14.5222 -14.5218 -14.5211 -14.5146 -14.5103
   -14.5097 -14.5023 -14.5020 -14.4989 -14.4942 -14.4893 -14.4846 -14.4797
   -14.4777 -14.4764 -14.4707 -14.4632 -14.4598 -14.4588 -14.4583 -14.4486
   -14.4482 -14.4454 -14.4443 -14.4396 -14.4342 -14.4324 -14.4298 -14.4298
   -14.4208 -14.4207 -14.4182 -14.4110 -14.4070 -14.4009 -14.3954 -14.3863
   -14.3807 -14.3788 -14.3787 -14.3777 -14.3685 -14.3642 -14.3620 -14.3584
   -14.3572 -14.3523 -14.3455 -14.3454 -14.3329 -14.3294 -14.3224 -14.3122
   -14.3104 -14.2917 -14.2916 -14.2751 -14.2409 -14.2369 -14.2211 -14.2162
   -14.1017 -14.0823 -14.0342 -13.9924 -13.9348 -13.9342 -13.8887 -13.8667
   -13.8368 -13.7526 -13.6946 -13.6753 -13.6500 -13.5701 -13.5592 -13.5164
    -8.1725  -8.1571  -8.0701  -8.0374  -8.0133  -7.9917  -7.9896  -7.9230
    -7.8737  -7.8433  -7.8256  -7.7844  -7.7580  -7.7361  -7.7019  -7.6205
    -7.5663  -7.3162  -7.2885  -7.2259  -7.0753  -7.0667  -7.0430  -7.0084
    -6.9632  -6.9507  -6.8923  -6.8444  -6.7405  -6.7042  -6.6844  -6.6018
    -6.5013  -6.4298  -6.3700  -6.2576  -6.2503  -6.1640  -6.1634  -6.0574
    -6.0056  -5.9809  -5.9194  -5.8133  -5.8003  -5.5964  -5.5577  -5.5269
    -5.5008  -5.4062  -5.3660  -5.3189  -5.2114  -5.1169  -5.0998  -5.0737
    -5.0560  -5.0307  -4.9686  -4.9376  -4.9140  -4.8946  -4.8624  -4.8454
    -4.6790  -4.6411  -4.5568  -4.4301  -4.4004  -4.3912  -4.3846  -4.3592
    -4.3308  -4.3002  -4.2883  -4.2354  -4.2041  -4.1893  -4.1689  -4.1209
    -4.0928  -4.0752  -4.0455  -4.0349  -3.9897  -3.9783  -3.9698  -3.9379
    -3.9179  -3.8618  -3.8578  -3.7749  -3.7543  -3.7201  -3.6569  -3.6447
    -3.6138  -3.5755  -3.5545  -3.4711  -3.4273  -3.3970  -3.3828  -3.3334
    -3.3301  -3.3282  -3.3270  -3.2491  -3.1948  -3.1609  -3.1537  -3.1473
    -3.1422  -3.0396  -3.0116  -2.9089  -2.8882  -2.8589  -2.8304  -2.8176
    -2.8171  -2.8072  -2.8024  -2.7971  -2.7508  -2.7218  -2.7116  -2.7050
    -2.6543  -2.6465  -2.6465  -2.6070  -2.5842  -2.5809  -2.5794  -2.5565
    -2.5454  -2.5124  -2.4959  -2.4505  -2.4269  -2.3617  -2.3502  -2.3407
    -0.5037   0.9726   1.6094   1.9138   1.9618   2.1689   2.1998   2.4734
     2.5616   2.8198   2.8446   2.8610   2.8979   2.9718   2.9750   3.1351

          k = 0.1230 0.0000 0.0000 (253877 PWs)   bands (ev):

   -20.5946 -20.5851 -20.4863 -20.4841 -20.4504 -20.4496 -20.4089 -20.4086
   -20.2503 -20.2498 -20.1920 -20.1919 -20.1580 -20.1574 -20.1268 -20.1262
   -20.1256 -20.1249 -20.0865 -20.0860 -20.0413 -20.0405 -20.0326 -20.0326
   -19.4059 -19.2320 -19.1896 -19.1474 -19.1011 -19.0807 -19.0783 -18.9678
   -18.9640 -18.9508 -18.9407 -18.8586 -18.8568 -18.8332 -18.8311 -18.8176
   -18.7651 -18.7649 -18.7600 -18.7358 -18.6827 -18.6738 -18.6623 -18.5970
   -14.7218 -14.7170 -14.7112 -14.7106 -14.6942 -14.6887 -14.6864 -14.6749
   -14.6715 -14.6705 -14.6651 -14.6606 -14.6590 -14.6516 -14.6508 -14.6494
   -14.6436 -14.6381 -14.6368 -14.6317 -14.6202 -14.6175 -14.6170 -14.6105
   -14.6084 -14.6021 -14.5996 -14.5952 -14.5940 -14.5869 -14.5836 -14.5818
   -14.5795 -14.5759 -14.5751 -14.5744 -14.5664 -14.5656 -14.5623 -14.5553
   -14.5420 -14.5393 -14.5330 -14.5225 -14.5220 -14.5219 -14.5156 -14.5126
   -14.5094 -14.5016 -14.5011 -14.4989 -14.4939 -14.4905 -14.4868 -14.4801
   -14.4771 -14.4765 -14.4706 -14.4620 -14.4605 -14.4589 -14.4567 -14.4480
   -14.4474 -14.4448 -14.4439 -14.4387 -14.4354 -14.4341 -14.4323 -14.4301
   -14.4206 -14.4204 -14.4178 -14.4101 -14.4046 -14.4013 -14.3955 -14.3848
   -14.3803 -14.3792 -14.3780 -14.3770 -14.3687 -14.3642 -14.3614 -14.3586
   -14.3575 -14.3524 -14.3452 -14.3448 -14.3326 -14.3296 -14.3226 -14.3151
   -14.3108 -14.2941 -14.2923 -14.2775 -14.2358 -14.2330 -14.2173 -14.2170
   -14.0999 -14.0916 -14.0370 -13.9948 -13.9329 -13.9267 -13.8893 -13.8628
   -13.8360 -13.7591 -13.6946 -13.6689 -13.6529 -13.5705 -13.5592 -13.5186
    -8.1708  -8.1559  -8.0706  -8.0372  -8.0163  -7.9918  -7.9916  -7.9260
    -7.8748  -7.8463  -7.8272  -7.7853  -7.7502  -7.7314  -7.7003  -7.6195
    -7.5582  -7.3154  -7.2930  -7.2230  -7.0702  -7.0645  -7.0361  -7.0210
    -6.9651  -6.9552  -6.8925  -6.8648  -6.7395  -6.6992  -6.6814  -6.5843
    -6.5064  -6.4291  -6.3699  -6.2674  -6.2579  -6.1717  -6.1682  -6.0925
    -5.9886  -5.9851  -5.9187  -5.8122  -5.7874  -5.5602  -5.5521  -5.5256
    -5.5003  -5.4017  -5.3641  -5.3166  -5.2111  -5.1256  -5.0960  -5.0720
    -5.0476  -5.0387  -4.9541  -4.9415  -4.9165  -4.8955  -4.8588  -4.8537
    -4.6781  -4.6332  -4.5629  -4.4396  -4.4096  -4.3991  -4.3930  -4.3533
    -4.3341  -4.2982  -4.2845  -4.2406  -4.1978  -4.1829  -4.1776  -4.1245
    -4.0861  -4.0698  -4.0522  -4.0434  -3.9843  -3.9753  -3.9658  -3.9353
    -3.9146  -3.8651  -3.8541  -3.7598  -3.7597  -3.7257  -3.6654  -3.6333
    -3.6059  -3.5788  -3.5696  -3.4750  -3.4228  -3.3977  -3.3823  -3.3407
    -3.3241  -3.3212  -3.3186  -3.2489  -3.2028  -3.1607  -3.1521  -3.1502
    -3.1355  -3.0404  -3.0151  -2.9161  -2.8964  -2.8542  -2.8405  -2.8168
    -2.8153  -2.8104  -2.8057  -2.7944  -2.7590  -2.7228  -2.7128  -2.7011
    -2.6492  -2.6462  -2.6446  -2.6049  -2.5972  -2.5841  -2.5832  -2.5558
    -2.5427  -2.5148  -2.4889  -2.4463  -2.4244  -2.3612  -2.3538  -2.3412
    -0.4774   0.9868   1.5336   1.9234   1.9696   2.1776   2.2703   2.4152
     2.5677   2.8055   2.8374   2.8422   2.8952   2.9682   3.0275   3.1705

          k = 0.1476 0.0000 0.0000 (253925 PWs)   bands (ev):

   -20.5931 -20.5837 -20.4888 -20.4864 -20.4497 -20.4489 -20.4095 -20.4093
   -20.2492 -20.2487 -20.1933 -20.1931 -20.1567 -20.1561 -20.1260 -20.1255
   -20.1248 -20.1241 -20.0877 -20.0871 -20.0415 -20.0407 -20.0330 -20.0329
   -19.4037 -19.2310 -19.2005 -19.1504 -19.1005 -19.0795 -19.0675 -18.9669
   -18.9644 -18.9502 -18.9404 -18.8575 -18.8555 -18.8352 -18.8309 -18.8161
   -18.7677 -18.7670 -18.7621 -18.7372 -18.6823 -18.6736 -18.6597 -18.5974
   -14.7211 -14.7160 -14.7109 -14.7109 -14.6931 -14.6878 -14.6862 -14.6745
   -14.6712 -14.6699 -14.6654 -14.6607 -14.6588 -14.6526 -14.6522 -14.6511
   -14.6435 -14.6374 -14.6358 -14.6317 -14.6196 -14.6175 -14.6171 -14.6105
   -14.6088 -14.6023 -14.6000 -14.5947 -14.5944 -14.5867 -14.5835 -14.5807
   -14.5791 -14.5769 -14.5752 -14.5737 -14.5671 -14.5662 -14.5613 -14.5547
   -14.5436 -14.5397 -14.5348 -14.5247 -14.5223 -14.5217 -14.5162 -14.5155
   -14.5091 -14.5021 -14.4997 -14.4983 -14.4934 -14.4914 -14.4890 -14.4806
   -14.4770 -14.4763 -14.4704 -14.4610 -14.4607 -14.4588 -14.4551 -14.4475
   -14.4465 -14.4458 -14.4426 -14.4378 -14.4364 -14.4356 -14.4347 -14.4302
   -14.4204 -14.4200 -14.4176 -14.4093 -14.4023 -14.4017 -14.3955 -14.3835
   -14.3799 -14.3796 -14.3783 -14.3748 -14.3689 -14.3642 -14.3606 -14.3588
   -14.3579 -14.3527 -14.3451 -14.3440 -14.3322 -14.3298 -14.3228 -14.3177
   -14.3113 -14.2966 -14.2929 -14.2799 -14.2309 -14.2285 -14.2181 -14.2127
   -14.1015 -14.0977 -14.0403 -13.9976 -13.9314 -13.9185 -13.8900 -13.8584
   -13.8347 -13.7657 -13.6946 -13.6624 -13.6563 -13.5709 -13.5593 -13.5212
    -8.1687  -8.1544  -8.0712  -8.0369  -8.0198  -7.9944  -7.9914  -7.9295
    -7.8760  -7.8496  -7.8284  -7.7863  -7.7418  -7.7260  -7.6985  -7.6182
    -7.5487  -7.3142  -7.2981  -7.2188  -7.0747  -7.0524  -7.0351  -7.0280
    -6.9679  -6.9612  -6.8924  -6.8852  -6.7385  -6.6931  -6.6786  -6.5666
    -6.5124  -6.4280  -6.3700  -6.2836  -6.2583  -6.1832  -6.1732  -6.1317
    -5.9853  -5.9701  -5.9179  -5.8108  -5.7722  -5.5457  -5.5331  -5.5245
    -5.4918  -5.3969  -5.3615  -5.3135  -5.2096  -5.1350  -5.0915  -5.0697
    -5.0477  -5.0387  -4.9460  -4.9395  -4.9191  -4.8944  -4.8631  -4.8546
    -4.6778  -4.6247  -4.5700  -4.4555  -4.4200  -4.4020  -4.4011  -4.3463
    -4.3383  -4.2955  -4.2839  -4.2432  -4.1914  -4.1866  -4.1762  -4.1304
    -4.0895  -4.0591  -4.0534  -4.0508  -3.9899  -3.9622  -3.9600  -3.9323
    -3.9126  -3.8661  -3.8492  -3.7643  -3.7445  -3.7335  -3.6757  -3.6232
    -3.5979  -3.5855  -3.5828  -3.4768  -3.4181  -3.3986  -3.3813  -3.3489
    -3.3187  -3.3153  -3.3063  -3.2495  -3.2119  -3.1603  -3.1538  -3.1494
    -3.1293  -3.0414  -3.0187  -2.9235  -2.9047  -2.8512  -2.8486  -2.8159
    -2.8144  -2.8137  -2.8100  -2.7951  -2.7637  -2.7237  -2.7150  -2.6970
    -2.6535  -2.6414  -2.6394  -2.6096  -2.6032  -2.5877  -2.5871  -2.5547
    -2.5396  -2.5173  -2.4827  -2.4441  -2.4195  -2.3604  -2.3580  -2.3420
    -0.4460   1.0040   1.4574   1.9350   1.9785   2.1883   2.3399   2.3575
     2.5750   2.7862   2.8069   2.8380   2.9639   3.0334   3.1665   3.1808

          k = 0.1722 0.0000 0.0000 (253905 PWs)   bands (ev):

   -20.5914 -20.5821 -20.4917 -20.4892 -20.4489 -20.4482 -20.4103 -20.4101
   -20.2480 -20.2475 -20.1947 -20.1946 -20.1551 -20.1546 -20.1251 -20.1248
   -20.1239 -20.1232 -20.0890 -20.0885 -20.0416 -20.0409 -20.0335 -20.0334
   -19.4013 -19.2299 -19.2112 -19.1536 -19.0997 -19.0784 -19.0570 -18.9659
   -18.9649 -18.9494 -18.9402 -18.8561 -18.8539 -18.8373 -18.8306 -18.8146
   -18.7707 -18.7692 -18.7644 -18.7388 -18.6818 -18.6734 -18.6569 -18.5978
   -14.7202 -14.7147 -14.7112 -14.7105 -14.6918 -14.6868 -14.6859 -14.6740
   -14.6711 -14.6691 -14.6656 -14.6609 -14.6587 -14.6544 -14.6530 -14.6526
   -14.6436 -14.6364 -14.6348 -14.6316 -14.6193 -14.6180 -14.6166 -14.6125
   -14.6071 -14.6024 -14.6002 -14.5948 -14.5941 -14.5865 -14.5833 -14.5795
   -14.5787 -14.5782 -14.5763 -14.5723 -14.5682 -14.5671 -14.5599 -14.5540
   -14.5450 -14.5402 -14.5364 -14.5273 -14.5227 -14.5218 -14.5189 -14.5164
   -14.5087 -14.5035 -14.4981 -14.4971 -14.4929 -14.4920 -14.4912 -14.4812
   -14.4778 -14.4752 -14.4702 -14.4612 -14.4594 -14.4587 -14.4538 -14.4473
   -14.4467 -14.4460 -14.4421 -14.4369 -14.4368 -14.4367 -14.4364 -14.4301
   -14.4200 -14.4196 -14.4174 -14.4084 -14.4023 -14.4002 -14.3955 -14.3824
   -14.3801 -14.3793 -14.3787 -14.3725 -14.3689 -14.3643 -14.3598 -14.3591
   -14.3583 -14.3529 -14.3449 -14.3431 -14.3318 -14.3300 -14.3229 -14.3199
   -14.3118 -14.2993 -14.2936 -14.2819 -14.2276 -14.2235 -14.2174 -14.2082
   -14.1118 -14.0952 -14.0443 -14.0006 -13.9297 -13.9109 -13.8908 -13.8537
   -13.8326 -13.7723 -13.6947 -13.6601 -13.6558 -13.5714 -13.5596 -13.5242
    -8.1663  -8.1527  -8.0720  -8.0367  -8.0238  -7.9972  -7.9912  -7.9333
    -7.8774  -7.8530  -7.8292  -7.7876  -7.7331  -7.7201  -7.6964  -7.6166
    -7.5381  -7.3124  -7.3035  -7.2132  -7.0802  -7.0504  -7.0393  -7.0190
    -6.9714  -6.9696  -6.9043  -6.8920  -6.7378  -6.6859  -6.6762  -6.5491
    -6.5192  -6.4268  -6.3705  -6.2985  -6.2589  -6.1971  -6.1791  -6.1720
    -5.9836  -5.9509  -5.9171  -5.8092  -5.7553  -5.5383  -5.5250  -5.5236
    -5.4666  -5.3924  -5.3582  -5.3093  -5.2065  -5.1451  -5.0866  -5.0668
    -5.0575  -5.0295  -4.9508  -4.9282  -4.9216  -4.8883  -4.8733  -4.8496
    -4.6781  -4.6159  -4.5776  -4.4749  -4.4307  -4.4093  -4.4026  -4.3424
    -4.3383  -4.2923  -4.2867  -4.2426  -4.1997  -4.1806  -4.1698  -4.1382
    -4.0929  -4.0657  -4.0642  -4.0293  -3.9956  -3.9592  -3.9439  -3.9289
    -3.9118  -3.8650  -3.8430  -3.7677  -3.7440  -3.7292  -3.6882  -3.6158
    -3.6010  -3.5900  -3.5874  -3.4758  -3.4134  -3.3995  -3.3799  -3.3579
    -3.3121  -3.3098  -3.2934  -3.2510  -3.2218  -3.1598  -3.1582  -3.1452
    -3.1241  -3.0425  -3.0223  -2.9309  -2.9127  -2.8618  -2.8422  -2.8189
    -2.8156  -2.8150  -2.8125  -2.7995  -2.7642  -2.7243  -2.7181  -2.6928
    -2.6600  -2.6369  -2.6350  -2.6208  -2.6022  -2.5914  -2.5899  -2.5530
    -2.5361  -2.5198  -2.4772  -2.4439  -2.4125  -2.3628  -2.3594  -2.3431
    -0.4096   1.0242   1.3810   1.9487   1.9880   2.2008   2.3010   2.4084
     2.5836   2.7615   2.7738   2.8314   2.9609   3.1140   3.1595   3.2104

          k = 0.1968 0.0000 0.0000 (253894 PWs)   bands (ev):

   -20.5894 -20.5802 -20.4949 -20.4922 -20.4480 -20.4473 -20.4112 -20.4110
   -20.2466 -20.2461 -20.1963 -20.1962 -20.1533 -20.1528 -20.1242 -20.1239
   -20.1229 -20.1222 -20.0906 -20.0901 -20.0418 -20.0412 -20.0340 -20.0339
   -19.3984 -19.2286 -19.2217 -19.1570 -19.0988 -19.0774 -19.0469 -18.9655
   -18.9648 -18.9484 -18.9399 -18.8546 -18.8522 -18.8398 -18.8303 -18.8130
   -18.7740 -18.7716 -18.7669 -18.7406 -18.6812 -18.6732 -18.6538 -18.5984
   -14.7192 -14.7134 -14.7114 -14.7101 -14.6904 -14.6857 -14.6857 -14.6734
   -14.6714 -14.6682 -14.6657 -14.6612 -14.6588 -14.6562 -14.6538 -14.6537
   -14.6437 -14.6354 -14.6335 -14.6317 -14.6193 -14.6185 -14.6158 -14.6145
   -14.6055 -14.6025 -14.6001 -14.5951 -14.5936 -14.5862 -14.5831 -14.5797
   -14.5783 -14.5782 -14.5776 -14.5710 -14.5694 -14.5682 -14.5586 -14.5534
   -14.5464 -14.5405 -14.5377 -14.5301 -14.5233 -14.5227 -14.5221 -14.5165
   -14.5083 -14.5053 -14.4966 -14.4958 -14.4931 -14.4924 -14.4921 -14.4818
   -14.4789 -14.4740 -14.4699 -14.4613 -14.4586 -14.4582 -14.4530 -14.4493
   -14.4458 -14.4456 -14.4428 -14.4385 -14.4374 -14.4361 -14.4352 -14.4296
   -14.4197 -14.4193 -14.4172 -14.4077 -14.4029 -14.3982 -14.3955 -14.3817
   -14.3806 -14.3791 -14.3788 -14.3702 -14.3688 -14.3645 -14.3594 -14.3590
   -14.3586 -14.3533 -14.3446 -14.3424 -14.3315 -14.3303 -14.3228 -14.3215
   -14.3125 -14.3020 -14.2945 -14.2837 -14.2275 -14.2181 -14.2136 -14.2037
   -14.1222 -14.0925 -14.0487 -14.0037 -13.9276 -13.9042 -13.8917 -13.8489
   -13.8294 -13.7785 -13.6950 -13.6645 -13.6492 -13.5719 -13.5599 -13.5275
    -8.1636  -8.1507  -8.0731  -8.0363  -8.0284  -8.0002  -7.9909  -7.9373
    -7.8788  -7.8565  -7.8295  -7.7890  -7.7242  -7.7138  -7.6940  -7.6150
    -7.5262  -7.3099  -7.3087  -7.2065  -7.0869  -7.0668  -7.0255  -7.0095
    -6.9814  -6.9758  -6.9204  -6.8909  -6.7374  -6.6776  -6.6744  -6.5324
    -6.5268  -6.4254  -6.3716  -6.3120  -6.2597  -6.2125  -6.2116  -6.1857
    -5.9808  -5.9317  -5.9164  -5.8073  -5.7367  -5.5303  -5.5258  -5.5232
    -5.4352  -5.3885  -5.3540  -5.3040  -5.2018  -5.1560  -5.0812  -5.0680
    -5.0634  -5.0204  -4.9555  -4.9239  -4.9235  -4.8838  -4.8745  -4.8434
    -4.6794  -4.6075  -4.5857  -4.4960  -4.4412  -4.4179  -4.4032  -4.3455
    -4.3295  -4.2913  -4.2884  -4.2400  -4.2114  -4.1705  -4.1640  -4.1473
    -4.0959  -4.0756  -4.0719  -4.0068  -4.0020  -3.9564  -3.9277  -3.9247
    -3.9118  -3.8622  -3.8358  -3.7694  -3.7572  -3.7143  -3.7035  -3.6148
    -3.6120  -3.5927  -3.5824  -3.4714  -3.4088  -3.4003  -3.3779  -3.3676
    -3.3054  -3.3043  -3.2804  -3.2538  -3.2322  -3.1632  -3.1590  -3.1393
    -3.1203  -3.0438  -3.0255  -2.9381  -2.9204  -2.8720  -2.8358  -2.8236
    -2.8206  -2.8177  -2.8115  -2.8039  -2.7623  -2.7248  -2.7221  -2.6886
    -2.6692  -2.6338  -2.6316  -2.6302  -2.6019  -2.5951  -2.5906  -2.5508
    -2.5322  -2.5223  -2.4723  -2.4450  -2.4044  -2.3681  -2.3582  -2.3447
    -0.3688   1.0472   1.3045   1.9642   1.9971   2.2150   2.2470   2.4756
     2.5935   2.7333   2.7393   2.8213   2.9101   2.9513   3.1562   3.2019

          k = 0.2214 0.0000 0.0000 (253918 PWs)   bands (ev):

   -20.5871 -20.5781 -20.4984 -20.4955 -20.4470 -20.4463 -20.4122 -20.4120
   -20.2451 -20.2446 -20.1980 -20.1979 -20.1514 -20.1509 -20.1232 -20.1230
   -20.1220 -20.1212 -20.0923 -20.0918 -20.0419 -20.0414 -20.0346 -20.0344
   -19.3951 -19.2321 -19.2272 -19.1606 -19.0978 -19.0765 -19.0371 -18.9661
   -18.9634 -18.9471 -18.9397 -18.8529 -18.8503 -18.8425 -18.8299 -18.8114
   -18.7773 -18.7743 -18.7696 -18.7426 -18.6807 -18.6731 -18.6507 -18.5991
   -14.7181 -14.7118 -14.7116 -14.7097 -14.6890 -14.6855 -14.6847 -14.6729
   -14.6722 -14.6671 -14.6656 -14.6614 -14.6589 -14.6580 -14.6547 -14.6546
   -14.6439 -14.6343 -14.6321 -14.6318 -14.6196 -14.6191 -14.6163 -14.6149
   -14.6038 -14.6024 -14.5998 -14.5953 -14.5931 -14.5858 -14.5828 -14.5815
   -14.5789 -14.5780 -14.5768 -14.5707 -14.5697 -14.5695 -14.5574 -14.5530
   -14.5476 -14.5408 -14.5386 -14.5328 -14.5267 -14.5241 -14.5226 -14.5167
   -14.5079 -14.5074 -14.4965 -14.4944 -14.4935 -14.4927 -14.4913 -14.4824
   -14.4803 -14.4726 -14.4695 -14.4612 -14.4586 -14.4570 -14.4527 -14.4513
   -14.4460 -14.4443 -14.4442 -14.4399 -14.4377 -14.4352 -14.4333 -14.4288
   -14.4194 -14.4189 -14.4172 -14.4070 -14.4035 -14.3966 -14.3954 -14.3812
   -14.3811 -14.3795 -14.3781 -14.3685 -14.3681 -14.3648 -14.3598 -14.3589
   -14.3581 -14.3536 -14.3442 -14.3419 -14.3312 -14.3305 -14.3231 -14.3213
   -14.3134 -14.3046 -14.2955 -14.2850 -14.2292 -14.2124 -14.2082 -14.1994
   -14.1326 -14.0894 -14.0537 -14.0069 -13.9252 -13.8989 -13.8926 -13.8444
   -13.8249 -13.7841 -13.6954 -13.6693 -13.6428 -13.5724 -13.5604 -13.5312
    -8.1605  -8.1484  -8.0744  -8.0360  -8.0333  -8.0033  -7.9905  -7.9415
    -7.8803  -7.8600  -7.8294  -7.7905  -7.7154  -7.7072  -7.6915  -7.6133
    -7.5133  -7.3135  -7.3065  -7.1987  -7.0949  -7.0838  -7.0112  -6.9997
    -6.9971  -6.9808  -6.9328  -6.8886  -6.7375  -6.6733  -6.6682  -6.5349
    -6.5168  -6.4236  -6.3737  -6.3240  -6.2608  -6.2493  -6.2288  -6.1930
    -5.9773  -5.9157  -5.9128  -5.8052  -5.7167  -5.5289  -5.5233  -5.5215
    -5.4048  -5.3855  -5.3490  -5.2977  -5.1953  -5.1676  -5.0789  -5.0757
    -5.0594  -5.0120  -4.9590  -4.9257  -4.9235  -4.8945  -4.8579  -4.8335
    -4.6817  -4.6002  -4.5939  -4.5175  -4.4509  -4.4271  -4.4050  -4.3469
    -4.3198  -4.2963  -4.2840  -4.2366  -4.2230  -4.1593  -4.1591  -4.1572
    -4.0988  -4.0872  -4.0777  -4.0099  -3.9840  -3.9534  -3.9217  -3.9124
    -3.9098  -3.8581  -3.8276  -3.7728  -3.7694  -3.7222  -3.7001  -3.6258
    -3.6120  -3.5985  -3.5752  -3.4641  -3.4044  -3.4011  -3.3779  -3.3753
    -3.3023  -3.2957  -3.2673  -3.2579  -3.2428  -3.1688  -3.1579  -3.1315
    -3.1180  -3.0452  -3.0283  -2.9449  -2.9277  -2.8813  -2.8343  -2.8266
    -2.8238  -2.8234  -2.8108  -2.8049  -2.7599  -2.7267  -2.7252  -2.6845
    -2.6807  -2.6381  -2.6359  -2.6260  -2.6023  -2.5986  -2.5891  -2.5479
    -2.5276  -2.5248  -2.4679  -2.4469  -2.3958  -2.3737  -2.3567  -2.3468
    -0.3239   1.0729   1.2279   1.9817   2.0031   2.1979   2.2310   2.5412
     2.6045   2.7037   2.7041   2.8079   2.8947   2.9597   3.1499   3.2195

          k = 0.2460 0.0000 0.0000 (253944 PWs)   bands (ev):

   -20.5846 -20.5758 -20.5022 -20.4990 -20.4459 -20.4452 -20.4133 -20.4132
   -20.2434 -20.2429 -20.1999 -20.1997 -20.1492 -20.1488 -20.1221 -20.1220
   -20.1210 -20.1202 -20.0942 -20.0937 -20.0421 -20.0417 -20.0353 -20.0350
   -19.3915 -19.2423 -19.2255 -19.1642 -19.0968 -19.0759 -19.0279 -18.9668
   -18.9619 -18.9453 -18.9395 -18.8510 -18.8481 -18.8454 -18.8294 -18.8098
   -18.7808 -18.7772 -18.7724 -18.7448 -18.6801 -18.6729 -18.6474 -18.5999
   -14.7169 -14.7117 -14.7101 -14.7093 -14.6875 -14.6853 -14.6839 -14.6734
   -14.6723 -14.6658 -14.6656 -14.6614 -14.6595 -14.6591 -14.6557 -14.6551
   -14.6441 -14.6334 -14.6322 -14.6305 -14.6202 -14.6195 -14.6176 -14.6139
   -14.6024 -14.6021 -14.5991 -14.5954 -14.5927 -14.5855 -14.5836 -14.5824
   -14.5803 -14.5778 -14.5755 -14.5719 -14.5706 -14.5687 -14.5566 -14.5527
   -14.5487 -14.5410 -14.5393 -14.5353 -14.5307 -14.5250 -14.5232 -14.5172
   -14.5093 -14.5075 -14.4982 -14.4930 -14.4929 -14.4920 -14.4903 -14.4830
   -14.4820 -14.4710 -14.4690 -14.4611 -14.4587 -14.4560 -14.4532 -14.4527
   -14.4463 -14.4457 -14.4432 -14.4410 -14.4377 -14.4340 -14.4310 -14.4277
   -14.4191 -14.4186 -14.4173 -14.4064 -14.4042 -14.3954 -14.3953 -14.3816
   -14.3811 -14.3799 -14.3774 -14.3680 -14.3664 -14.3652 -14.3603 -14.3590
   -14.3572 -14.3541 -14.3438 -14.3418 -14.3311 -14.3306 -14.3237 -14.3194
   -14.3143 -14.3071 -14.2966 -14.2858 -14.2317 -14.2063 -14.2025 -14.1954
   -14.1428 -14.0862 -14.0591 -14.0102 -13.9226 -13.8950 -13.8935 -13.8406
   -13.8189 -13.7886 -13.6960 -13.6745 -13.6364 -13.5730 -13.5612 -13.5350
    -8.1570  -8.1459  -8.0760  -8.0387  -8.0356  -8.0063  -7.9901  -7.9456
    -7.8817  -7.8635  -7.8289  -7.7921  -7.7069  -7.7004  -7.6887  -7.6119
    -7.4993  -7.3175  -7.3021  -7.1901  -7.1044  -7.1014  -7.0160  -6.9964
    -6.9903  -6.9865  -6.9416  -6.8848  -6.7385  -6.6728  -6.6577  -6.5435
    -6.5030  -6.4217  -6.3777  -6.3346  -6.2834  -6.2622  -6.2454  -6.2009
    -5.9733  -5.9152  -5.8945  -5.8029  -5.6955  -5.5326  -5.5240  -5.5121
    -5.3837  -5.3775  -5.3433  -5.2908  -5.1872  -5.1796  -5.0900  -5.0702
    -5.0547  -5.0059  -4.9597  -4.9271  -4.9256  -4.9050  -4.8471  -4.8142
    -4.6850  -4.6017  -4.5955  -4.5377  -4.4597  -4.4366  -4.4085  -4.3462
    -4.3093  -4.3007  -4.2793  -4.2338  -4.2335  -4.1675  -4.1551  -4.1470
    -4.1017  -4.0987  -4.0830  -4.0198  -3.9614  -3.9498  -3.9174  -3.9132
    -3.8927  -3.8534  -3.8188  -3.7902  -3.7676  -3.7441  -3.6871  -3.6340
    -3.6154  -3.6046  -3.5682  -3.4548  -3.4015  -3.4002  -3.3887  -3.3720
    -3.3007  -3.2874  -3.2633  -3.2544  -3.2526  -3.1750  -3.1565  -3.1219
    -3.1173  -3.0465  -3.0306  -2.9512  -2.9346  -2.8894  -2.8401  -2.8328
    -2.8317  -2.8161  -2.8103  -2.8039  -2.7578  -2.7316  -2.7255  -2.6935
    -2.6805  -2.6450  -2.6401  -2.6208  -2.6035  -2.6018  -2.5860  -2.5444
    -2.5273  -2.5224  -2.4640  -2.4493  -2.3873  -2.3795  -2.3550  -2.3495
    -0.2751   1.1013   1.1513   2.0007   2.0010   2.1593   2.2487   2.6049
     2.6167   2.6683   2.6730   2.7921   2.9073   2.9614   3.1430   3.2431

          k = 0.0174 0.0174 0.0000 (253896 PWs)   bands (ev):

   -20.5979 -20.5881 -20.4804 -20.4785 -20.4521 -20.4512 -20.4076 -20.4073
   -20.2526 -20.2521 -20.1889 -20.1888 -20.1611 -20.1605 -20.1285 -20.1279
   -20.1276 -20.1270 -20.0839 -20.0834 -20.0410 -20.0400 -20.0317 -20.0317
   -19.4105 -19.2344 -19.1419 -19.1400 -19.1259 -19.1020 -19.0847 -18.9695
   -18.9630 -18.9519 -18.9413 -18.8613 -18.8597 -18.8315 -18.8277 -18.8221
   -18.7608 -18.7580 -18.7553 -18.7328 -18.6834 -18.6743 -18.6689 -18.5962
   -14.7234 -14.7194 -14.7120 -14.7094 -14.6967 -14.6909 -14.6871 -14.6759
   -14.6727 -14.6720 -14.6639 -14.6610 -14.6598 -14.6509 -14.6450 -14.6442
   -14.6425 -14.6403 -14.6392 -14.6320 -14.6226 -14.6184 -14.6157 -14.6153
   -14.6022 -14.6011 -14.5979 -14.5967 -14.5923 -14.5874 -14.5847 -14.5840
   -14.5808 -14.5795 -14.5738 -14.5734 -14.5662 -14.5653 -14.5623 -14.5573
   -14.5381 -14.5366 -14.5265 -14.5242 -14.5220 -14.5196 -14.5119 -14.5110
   -14.5062 -14.5041 -14.5020 -14.4999 -14.4947 -14.4846 -14.4795 -14.4792
   -14.4789 -14.4778 -14.4713 -14.4661 -14.4625 -14.4574 -14.4565 -14.4528
   -14.4485 -14.4484 -14.4449 -14.4414 -14.4317 -14.4290 -14.4268 -14.4249
   -14.4234 -14.4196 -14.4182 -14.4128 -14.4127 -14.3998 -14.3957 -14.3904
   -14.3814 -14.3814 -14.3781 -14.3773 -14.3676 -14.3647 -14.3633 -14.3582
   -14.3566 -14.3519 -14.3468 -14.3455 -14.3335 -14.3291 -14.3220 -14.3099
   -14.3050 -14.2909 -14.2864 -14.2706 -14.2507 -14.2447 -14.2298 -14.2138
   -14.1057 -14.0621 -14.0288 -13.9874 -13.9533 -13.9365 -13.8876 -13.8741
   -13.8374 -13.7371 -13.6948 -13.6910 -13.6446 -13.5695 -13.5593 -13.5126
    -8.1753  -8.1592  -8.0696  -8.0375  -8.0082  -7.9922  -7.9855  -7.9175
    -7.8718  -7.8371  -7.8199  -7.7853  -7.7723  -7.7449  -7.7043  -7.6215
    -7.5813  -7.3167  -7.2806  -7.2281  -7.0974  -7.0609  -7.0560  -6.9822
    -6.9629  -6.9436  -6.8913  -6.7956  -6.7464  -6.7099  -6.6897  -6.6445
    -6.4926  -6.4342  -6.3679  -6.2580  -6.1961  -6.1674  -6.1567  -6.0384
    -6.0160  -5.9252  -5.9138  -5.8477  -5.7907  -5.6991  -5.5677  -5.5295
    -5.4978  -5.4152  -5.3692  -5.3217  -5.2087  -5.1060  -5.0932  -5.0820
    -5.0785  -5.0151  -4.9985  -4.9287  -4.9065  -4.8904  -4.8682  -4.8299
    -4.6817  -4.6571  -4.5455  -4.4266  -4.3855  -4.3730  -4.3637  -4.3476
    -4.3381  -4.3043  -4.3042  -4.2195  -4.2129  -4.2017  -4.1544  -4.1275
    -4.1185  -4.0473  -4.0313  -4.0291  -4.0201  -3.9803  -3.9543  -3.9429
    -3.9347  -3.8620  -3.8372  -3.8208  -3.7372  -3.7120  -3.6767  -3.6380
    -3.6326  -3.5685  -3.5233  -3.4592  -3.4385  -3.3943  -3.3826  -3.3582
    -3.3397  -3.3303  -3.3189  -3.2516  -3.1765  -3.1621  -3.1602  -3.1575
    -3.1408  -3.0383  -3.0046  -2.8931  -2.8690  -2.8672  -2.8244  -2.8198
    -2.8111  -2.8057  -2.8017  -2.8002  -2.7203  -2.7177  -2.7137  -2.7107
    -2.6815  -2.6482  -2.6421  -2.6131  -2.5769  -2.5724  -2.5566  -2.5496
    -2.5451  -2.5219  -2.5064  -2.4636  -2.4281  -2.3625  -2.3439  -2.3404
    -0.5487   0.9487   1.8568   1.8639   1.9624   1.9806   2.1541   2.5454
     2.6544   2.7701   2.8262   2.8517   2.9509   2.9669   2.9811   3.1096

          k = 0.0348 0.0348 0.0000 (253885 PWs)   bands (ev):

   -20.5975 -20.5877 -20.4806 -20.4787 -20.4526 -20.4517 -20.4078 -20.4075
   -20.2520 -20.2516 -20.1889 -20.1888 -20.1611 -20.1605 -20.1283 -20.1278
   -20.1274 -20.1269 -20.0842 -20.0837 -20.0411 -20.0400 -20.0318 -20.0318
   -19.4100 -19.2352 -19.1498 -19.1411 -19.1180 -19.1002 -19.0844 -18.9694
   -18.9631 -18.9518 -18.9412 -18.8615 -18.8595 -18.8315 -18.8282 -18.8216
   -18.7610 -18.7585 -18.7556 -18.7339 -18.6826 -18.6742 -18.6685 -18.5963
   -14.7232 -14.7191 -14.7123 -14.7090 -14.6964 -14.6905 -14.6872 -14.6760
   -14.6724 -14.6720 -14.6637 -14.6611 -14.6594 -14.6526 -14.6448 -14.6434
   -14.6433 -14.6401 -14.6385 -14.6319 -14.6223 -14.6188 -14.6153 -14.6150
   -14.6028 -14.6012 -14.5988 -14.5965 -14.5917 -14.5873 -14.5845 -14.5844
   -14.5806 -14.5799 -14.5736 -14.5728 -14.5659 -14.5651 -14.5626 -14.5576
   -14.5384 -14.5371 -14.5271 -14.5241 -14.5220 -14.5199 -14.5128 -14.5122
   -14.5053 -14.5032 -14.5026 -14.4997 -14.4947 -14.4853 -14.4806 -14.4795
   -14.4789 -14.4770 -14.4711 -14.4656 -14.4636 -14.4570 -14.4564 -14.4519
   -14.4487 -14.4475 -14.4453 -14.4409 -14.4323 -14.4290 -14.4283 -14.4248
   -14.4241 -14.4196 -14.4166 -14.4126 -14.4123 -14.3990 -14.3965 -14.3891
   -14.3812 -14.3812 -14.3785 -14.3772 -14.3677 -14.3646 -14.3633 -14.3581
   -14.3566 -14.3517 -14.3470 -14.3456 -14.3332 -14.3291 -14.3221 -14.3104
   -14.3062 -14.2910 -14.2868 -14.2738 -14.2463 -14.2436 -14.2281 -14.2142
   -14.1075 -14.0641 -14.0277 -13.9873 -13.9510 -13.9369 -13.8876 -13.8733
   -13.8372 -13.7394 -13.6952 -13.6904 -13.6437 -13.5695 -13.5593 -13.5132
    -8.1749  -8.1587  -8.0705  -8.0371  -8.0088  -7.9928  -7.9861  -7.9189
    -7.8724  -7.8375  -7.8204  -7.7892  -7.7663  -7.7430  -7.7030  -7.6213
    -7.5787  -7.3162  -7.2804  -7.2285  -7.0968  -7.0618  -7.0561  -6.9848
    -6.9641  -6.9438  -6.8906  -6.8015  -6.7533  -6.7048  -6.6842  -6.6392
    -6.4947  -6.4421  -6.3617  -6.2601  -6.2052  -6.1620  -6.1579  -6.0359
    -6.0178  -5.9376  -5.9107  -5.8716  -5.7605  -5.6856  -5.5667  -5.5282
    -5.4984  -5.4136  -5.3700  -5.3199  -5.2089  -5.1027  -5.1023  -5.0832
    -5.0796  -5.0147  -4.9964  -4.9245  -4.9008  -4.8907  -4.8647  -4.8321
    -4.6809  -4.6575  -4.5470  -4.4284  -4.3878  -4.3801  -4.3783  -4.3545
    -4.3416  -4.3061  -4.2940  -4.2195  -4.2063  -4.1995  -4.1587  -4.1228
    -4.1174  -4.0504  -4.0355  -4.0202  -4.0198  -3.9777  -3.9550  -3.9426
    -3.9298  -3.8609  -3.8472  -3.8131  -3.7340  -3.7124  -3.6844  -3.6309
    -3.6301  -3.5653  -3.5272  -3.4647  -3.4399  -3.3909  -3.3809  -3.3626
    -3.3391  -3.3213  -3.3196  -3.2514  -3.1811  -3.1624  -3.1619  -3.1568
    -3.1378  -3.0382  -3.0058  -2.8948  -2.8740  -2.8661  -2.8281  -2.8199
    -2.8165  -2.8063  -2.8017  -2.7972  -2.7220  -2.7169  -2.7129  -2.7106
    -2.6774  -2.6499  -2.6405  -2.6121  -2.5823  -2.5739  -2.5567  -2.5545
    -2.5429  -2.5155  -2.5068  -2.4618  -2.4282  -2.3628  -2.3449  -2.3407
    -0.5396   0.9535   1.8060   1.8153   2.0153   2.0312   2.1573   2.5305
     2.6208   2.7987   2.8282   2.8662   2.9171   2.9805   2.9815   3.0630

          k = 0.0522 0.0522 0.0000 (253931 PWs)   bands (ev):

   -20.5967 -20.5870 -20.4810 -20.4791 -20.4533 -20.4523 -20.4083 -20.4080
   -20.2511 -20.2506 -20.1890 -20.1888 -20.1610 -20.1604 -20.1281 -20.1278
   -20.1269 -20.1266 -20.0846 -20.0841 -20.0411 -20.0401 -20.0320 -20.0320
   -19.4091 -19.2365 -19.1576 -19.1428 -19.1100 -19.0975 -19.0839 -18.9692
   -18.9633 -18.9515 -18.9411 -18.8617 -18.8591 -18.8315 -18.8289 -18.8209
   -18.7615 -18.7593 -18.7562 -18.7356 -18.6813 -18.6741 -18.6678 -18.5966
   -14.7228 -14.7187 -14.7127 -14.7084 -14.6959 -14.6899 -14.6873 -14.6761
   -14.6719 -14.6719 -14.6635 -14.6610 -14.6590 -14.6547 -14.6448 -14.6445
   -14.6425 -14.6399 -14.6376 -14.6318 -14.6218 -14.6194 -14.6148 -14.6145
   -14.6038 -14.6011 -14.5999 -14.5963 -14.5911 -14.5873 -14.5850 -14.5842
   -14.5803 -14.5802 -14.5740 -14.5716 -14.5657 -14.5648 -14.5628 -14.5580
   -14.5388 -14.5377 -14.5283 -14.5242 -14.5221 -14.5203 -14.5139 -14.5133
   -14.5047 -14.5033 -14.5021 -14.4996 -14.4945 -14.4862 -14.4820 -14.4802
   -14.4788 -14.4761 -14.4708 -14.4650 -14.4645 -14.4574 -14.4557 -14.4512
   -14.4490 -14.4461 -14.4456 -14.4403 -14.4337 -14.4298 -14.4291 -14.4247
   -14.4246 -14.4196 -14.4152 -14.4123 -14.4117 -14.3977 -14.3974 -14.3876
   -14.3810 -14.3808 -14.3790 -14.3772 -14.3679 -14.3644 -14.3634 -14.3581
   -14.3565 -14.3514 -14.3474 -14.3456 -14.3328 -14.3292 -14.3221 -14.3114
   -14.3078 -14.2913 -14.2874 -14.2769 -14.2419 -14.2418 -14.2248 -14.2148
   -14.1103 -14.0671 -14.0262 -13.9872 -13.9473 -13.9376 -13.8875 -13.8720
   -13.8370 -13.7431 -13.6958 -13.6896 -13.6424 -13.5695 -13.5592 -13.5140
    -8.1743  -8.1579  -8.0719  -8.0363  -8.0099  -7.9938  -7.9870  -7.9210
    -7.8733  -7.8380  -7.8211  -7.7928  -7.7593  -7.7400  -7.7009  -7.6210
    -7.5745  -7.3152  -7.2802  -7.2291  -7.0957  -7.0634  -7.0560  -6.9891
    -6.9659  -6.9444  -6.8895  -6.8102  -6.7604  -6.7018  -6.6739  -6.6315
    -6.4979  -6.4528  -6.3535  -6.2639  -6.2162  -6.1599  -6.1576  -6.0320
    -6.0218  -5.9545  -5.9053  -5.8917  -5.7292  -5.6662  -5.5650  -5.5265
    -5.4989  -5.4110  -5.3713  -5.3170  -5.2092  -5.1140  -5.0978  -5.0895
    -5.0786  -5.0135  -4.9932  -4.9186  -4.8949  -4.8886  -4.8587  -4.8357
    -4.6794  -4.6583  -4.5496  -4.4323  -4.3977  -4.3909  -4.3906  -4.3648
    -4.3454  -4.3078  -4.2809  -4.2202  -4.1986  -4.1982  -4.1655  -4.1194
    -4.1121  -4.0521  -4.0412  -4.0180  -4.0093  -3.9728  -3.9574  -3.9423
    -3.9226  -3.8590  -3.8583  -3.8048  -3.7293  -3.7151  -3.6914  -3.6279
    -3.6210  -3.5603  -3.5337  -3.4710  -3.4426  -3.3872  -3.3786  -3.3670
    -3.3380  -3.3206  -3.3098  -3.2512  -3.1868  -3.1685  -3.1623  -3.1525
    -3.1346  -3.0381  -3.0076  -2.8978  -2.8822  -2.8641  -2.8331  -2.8246
    -2.8200  -2.8080  -2.7997  -2.7934  -2.7252  -2.7164  -2.7120  -2.7100
    -2.6717  -2.6518  -2.6386  -2.6104  -2.5890  -2.5762  -2.5629  -2.5569
    -2.5375  -2.5083  -2.5072  -2.4591  -2.4285  -2.3632  -2.3467  -2.3412
    -0.5246   0.9614   1.7559   1.7658   2.0686   2.0839   2.1626   2.5086
     2.5835   2.8053   2.8328   2.8868   2.9539   2.9787   3.0680   3.1439

          k = 0.0696 0.0696 0.0000 (253935 PWs)   bands (ev):

   -20.5957 -20.5860 -20.4815 -20.4796 -20.4542 -20.4532 -20.4090 -20.4087
   -20.2498 -20.2493 -20.1890 -20.1888 -20.1609 -20.1603 -20.1279 -20.1278
   -20.1262 -20.1261 -20.0853 -20.0847 -20.0413 -20.0403 -20.0322 -20.0322
   -19.4079 -19.2383 -19.1653 -19.1449 -19.1021 -19.0944 -19.0830 -18.9690
   -18.9636 -18.9512 -18.9410 -18.8621 -18.8587 -18.8314 -18.8297 -18.8201
   -18.7621 -18.7605 -18.7569 -18.7378 -18.6796 -18.6739 -18.6668 -18.5969
   -14.7223 -14.7180 -14.7130 -14.7078 -14.6954 -14.6890 -14.6875 -14.6762
   -14.6719 -14.6714 -14.6633 -14.6608 -14.6584 -14.6569 -14.6457 -14.6449
   -14.6419 -14.6394 -14.6367 -14.6317 -14.6212 -14.6199 -14.6144 -14.6139
   -14.6051 -14.6011 -14.6010 -14.5960 -14.5907 -14.5871 -14.5858 -14.5837
   -14.5805 -14.5799 -14.5744 -14.5705 -14.5658 -14.5646 -14.5626 -14.5586
   -14.5394 -14.5386 -14.5299 -14.5245 -14.5222 -14.5209 -14.5150 -14.5142
   -14.5046 -14.5042 -14.5013 -14.4994 -14.4941 -14.4873 -14.4835 -14.4811
   -14.4787 -14.4752 -14.4705 -14.4649 -14.4641 -14.4576 -14.4556 -14.4506
   -14.4492 -14.4458 -14.4442 -14.4395 -14.4358 -14.4308 -14.4294 -14.4250
   -14.4246 -14.4195 -14.4140 -14.4119 -14.4109 -14.3982 -14.3961 -14.3859
   -14.3807 -14.3802 -14.3796 -14.3771 -14.3680 -14.3642 -14.3635 -14.3581
   -14.3565 -14.3511 -14.3478 -14.3456 -14.3322 -14.3293 -14.3222 -14.3133
   -14.3092 -14.2919 -14.2879 -14.2795 -14.2397 -14.2382 -14.2196 -14.2157
   -14.1139 -14.0709 -14.0247 -13.9870 -13.9429 -13.9386 -13.8872 -13.8700
   -13.8366 -13.7478 -13.6965 -13.6886 -13.6408 -13.5696 -13.5592 -13.5153
    -8.1734  -8.1568  -8.0737  -8.0355  -8.0115  -7.9951  -7.9881  -7.9239
    -7.8746  -7.8386  -7.8219  -7.7960  -7.7518  -7.7360  -7.6981  -7.6203
    -7.5688  -7.3138  -7.2799  -7.2298  -7.0942  -7.0657  -7.0557  -6.9948
    -6.9685  -6.9452  -6.8880  -6.8208  -6.7666  -6.7005  -6.6607  -6.6224
    -6.5022  -6.4650  -6.3447  -6.2697  -6.2279  -6.1627  -6.1554  -6.0303
    -6.0270  -5.9712  -5.9068  -5.8980  -5.6974  -5.6432  -5.5624  -5.5252
    -5.4986  -5.4078  -5.3728  -5.3128  -5.2095  -5.1278  -5.0981  -5.0896
    -5.0785  -5.0113  -4.9890  -4.9118  -4.8945  -4.8793  -4.8507  -4.8410
    -4.6775  -4.6594  -4.5534  -4.4403  -4.4159  -4.4027  -4.3978  -4.3781
    -4.3454  -4.3089  -4.2677  -4.2216  -4.1988  -4.1941  -4.1728  -4.1193
    -4.1019  -4.0523  -4.0470  -4.0147  -3.9972  -3.9654  -3.9606  -3.9421
    -3.9151  -3.8695  -3.8558  -3.7959  -3.7236  -3.7228  -3.6945  -3.6236
    -3.6125  -3.5539  -3.5420  -3.4767  -3.4460  -3.3849  -3.3765  -3.3704
    -3.3364  -3.3212  -3.2971  -3.2510  -3.1930  -3.1750  -3.1630  -3.1480
    -3.1318  -3.0380  -3.0101  -2.9020  -2.8933  -2.8615  -2.8387  -2.8331
    -2.8204  -2.8118  -2.7959  -2.7894  -2.7300  -2.7162  -2.7117  -2.7081
    -2.6657  -2.6539  -2.6367  -2.6080  -2.5961  -2.5791  -2.5721  -2.5571
    -2.5316  -2.5072  -2.5012  -2.4555  -2.4287  -2.3637  -2.3490  -2.3418
    -0.5038   0.9726   1.7068   1.7169   2.1215   2.1368   2.1706   2.4823
     2.5458   2.7818   2.8594   2.9088   2.9549   2.9781   3.0721   3.1730

          k = 0.0870 0.0870 0.0000 (253962 PWs)   bands (ev):

   -20.5944 -20.5848 -20.4822 -20.4802 -20.4555 -20.4544 -20.4098 -20.4096
   -20.2481 -20.2477 -20.1890 -20.1888 -20.1607 -20.1601 -20.1278 -20.1278
   -20.1253 -20.1253 -20.0860 -20.0855 -20.0414 -20.0405 -20.0325 -20.0325
   -19.4063 -19.2405 -19.1729 -19.1472 -19.0943 -19.0914 -19.0811 -18.9686
   -18.9639 -18.9508 -18.9409 -18.8625 -18.8580 -18.8313 -18.8306 -18.8193
   -18.7630 -18.7618 -18.7579 -18.7404 -18.6778 -18.6735 -18.6657 -18.5973
   -14.7218 -14.7171 -14.7132 -14.7072 -14.6949 -14.6878 -14.6876 -14.6763
   -14.6718 -14.6708 -14.6633 -14.6604 -14.6592 -14.6576 -14.6471 -14.6450
   -14.6416 -14.6387 -14.6358 -14.6315 -14.6209 -14.6200 -14.6142 -14.6132
   -14.6063 -14.6019 -14.6009 -14.5957 -14.5903 -14.5869 -14.5868 -14.5831
   -14.5807 -14.5794 -14.5750 -14.5699 -14.5663 -14.5644 -14.5614 -14.5593
   -14.5400 -14.5396 -14.5319 -14.5253 -14.5224 -14.5213 -14.5159 -14.5149
   -14.5054 -14.5048 -14.5015 -14.4986 -14.4936 -14.4884 -14.4848 -14.4821
   -14.4786 -14.4743 -14.4702 -14.4651 -14.4632 -14.4576 -14.4559 -14.4502
   -14.4494 -14.4459 -14.4421 -14.4383 -14.4381 -14.4315 -14.4299 -14.4253
   -14.4245 -14.4191 -14.4130 -14.4115 -14.4101 -14.3988 -14.3945 -14.3843
   -14.3809 -14.3795 -14.3795 -14.3771 -14.3682 -14.3640 -14.3636 -14.3581
   -14.3565 -14.3508 -14.3483 -14.3455 -14.3319 -14.3295 -14.3222 -14.3158
   -14.3102 -14.2928 -14.2883 -14.2815 -14.2371 -14.2355 -14.2168 -14.2130
   -14.1179 -14.0752 -14.0234 -13.9868 -13.9396 -13.9381 -13.8864 -13.8674
   -13.8360 -13.7534 -13.6974 -13.6874 -13.6390 -13.5697 -13.5592 -13.5168
    -8.1723  -8.1555  -8.0759  -8.0345  -8.0136  -7.9965  -7.9896  -7.9274
    -7.8760  -7.8392  -7.8228  -7.7988  -7.7438  -7.7312  -7.6946  -7.6194
    -7.5616  -7.3122  -7.2797  -7.2306  -7.0923  -7.0688  -7.0550  -7.0016
    -6.9717  -6.9465  -6.8863  -6.8323  -6.7716  -6.7000  -6.6462  -6.6126
    -6.5073  -6.4779  -6.3360  -6.2782  -6.2395  -6.1664  -6.1566  -6.0458
    -6.0209  -5.9828  -5.9160  -5.8891  -5.6655  -5.6185  -5.5588  -5.5253
    -5.4965  -5.4039  -5.3743  -5.3075  -5.2097  -5.1432  -5.1049  -5.0819
    -5.0790  -5.0080  -4.9838  -4.9049  -4.8955  -4.8677  -4.8480  -4.8412
    -4.6751  -4.6610  -4.5583  -4.4549  -4.4331  -4.4150  -4.4035  -4.3928
    -4.3422  -4.3093  -4.2560  -4.2236  -4.2006  -4.1990  -4.1750  -4.1198
    -4.0905  -4.0525  -4.0515  -4.0105  -3.9849  -3.9632  -3.9557  -3.9416
    -3.9092  -3.8797  -3.8508  -3.7863  -3.7345  -3.7168  -3.6945  -3.6181
    -3.6064  -3.5499  -3.5467  -3.4812  -3.4499  -3.3860  -3.3753  -3.3712
    -3.3355  -3.3202  -3.2840  -3.2511  -3.1995  -3.1816  -3.1643  -3.1434
    -3.1291  -3.0381  -3.0132  -2.9073  -2.9069  -2.8587  -2.8443  -2.8407
    -2.8212  -2.8165  -2.7914  -2.7857  -2.7360  -2.7164  -2.7118  -2.7054
    -2.6611  -2.6560  -2.6349  -2.6052  -2.6030  -2.5821  -2.5818  -2.5572
    -2.5258  -2.5067  -2.4941  -2.4512  -2.4290  -2.3643  -2.3518  -2.3427
    -0.4774   0.9868   1.6589   1.6689   2.1670   2.1877   2.1893   2.4539
     2.5091   2.7402   2.8807   2.9244   2.9574   2.9842   3.0784   3.1662

          k = 0.1044 0.1044 0.0000 (253973 PWs)   bands (ev):

   -20.5927 -20.5833 -20.4830 -20.4809 -20.4569 -20.4558 -20.4109 -20.4107
   -20.2462 -20.2458 -20.1890 -20.1888 -20.1605 -20.1599 -20.1278 -20.1277
   -20.1244 -20.1244 -20.0870 -20.0864 -20.0416 -20.0407 -20.0329 -20.0329
   -19.4044 -19.2430 -19.1803 -19.1499 -19.0891 -19.0866 -19.0780 -18.9681
   -18.9643 -18.9504 -18.9407 -18.8631 -18.8573 -18.8315 -18.8312 -18.8184
   -18.7643 -18.7631 -18.7591 -18.7431 -18.6762 -18.6728 -18.6643 -18.5978
   -14.7212 -14.7160 -14.7134 -14.7065 -14.6944 -14.6882 -14.6859 -14.6763
   -14.6717 -14.6703 -14.6634 -14.6615 -14.6597 -14.6568 -14.6484 -14.6453
   -14.6417 -14.6379 -14.6348 -14.6313 -14.6216 -14.6191 -14.6143 -14.6128
   -14.6072 -14.6025 -14.6007 -14.5953 -14.5900 -14.5879 -14.5867 -14.5825
   -14.5809 -14.5789 -14.5756 -14.5699 -14.5669 -14.5644 -14.5601 -14.5597
   -14.5408 -14.5407 -14.5340 -14.5266 -14.5227 -14.5217 -14.5166 -14.5157
   -14.5070 -14.5050 -14.5022 -14.4974 -14.4935 -14.4897 -14.4855 -14.4829
   -14.4785 -14.4735 -14.4699 -14.4655 -14.4622 -14.4574 -14.4561 -14.4497
   -14.4494 -14.4461 -14.4411 -14.4394 -14.4370 -14.4320 -14.4308 -14.4257
   -14.4243 -14.4186 -14.4121 -14.4111 -14.4093 -14.3993 -14.3930 -14.3827
   -14.3815 -14.3788 -14.3787 -14.3771 -14.3683 -14.3638 -14.3637 -14.3581
   -14.3564 -14.3506 -14.3488 -14.3454 -14.3319 -14.3296 -14.3220 -14.3182
   -14.3111 -14.2940 -14.2885 -14.2831 -14.2342 -14.2332 -14.2181 -14.2056
   -14.1222 -14.0797 -14.0227 -13.9867 -13.9407 -13.9336 -13.8851 -13.8640
   -13.8351 -13.7597 -13.6984 -13.6861 -13.6372 -13.5700 -13.5592 -13.5187
    -8.1709  -8.1538  -8.0783  -8.0337  -8.0164  -7.9980  -7.9912  -7.9314
    -7.8776  -7.8397  -7.8238  -7.8012  -7.7355  -7.7257  -7.6906  -7.6183
    -7.5532  -7.3102  -7.2796  -7.2314  -7.0901  -7.0723  -7.0539  -7.0092
    -6.9756  -6.9484  -6.8847  -6.8439  -6.7754  -6.7000  -6.6312  -6.6028
    -6.5129  -6.4910  -6.3275  -6.2895  -6.2509  -6.1710  -6.1618  -6.0682
    -6.0130  -5.9886  -5.9194  -5.8787  -5.6337  -5.5931  -5.5542  -5.5272
    -5.4923  -5.3997  -5.3753  -5.3012  -5.2100  -5.1595  -5.1111  -5.0797
    -5.0731  -5.0037  -4.9773  -4.8984  -4.8967  -4.8566  -4.8553  -4.8312
    -4.6723  -4.6636  -4.5642  -4.4749  -4.4491  -4.4262  -4.4109  -4.4039
    -4.3372  -4.3096  -4.2474  -4.2261  -4.2117  -4.2021  -4.1736  -4.1199
    -4.0791  -4.0580  -4.0501  -4.0076  -3.9736  -3.9627  -3.9496  -3.9365
    -3.9058  -3.8869  -3.8435  -3.7767  -3.7483  -3.7089  -3.6935  -3.6114
    -3.6056  -3.5540  -3.5390  -3.4849  -3.4538  -3.3901  -3.3752  -3.3701
    -3.3363  -3.3167  -3.2715  -3.2514  -3.2058  -3.1880  -3.1664  -3.1388
    -3.1264  -3.0385  -3.0169  -2.9221  -2.9138  -2.8582  -2.8472  -2.8471
    -2.8232  -2.8209  -2.7868  -2.7825  -2.7427  -2.7170  -2.7120  -2.7023
    -2.6589  -2.6583  -2.6336  -2.6090  -2.6028  -2.5917  -2.5844  -2.5570
    -2.5202  -2.5052  -2.4873  -2.4466  -2.4292  -2.3650  -2.3551  -2.3437
    -0.4459   1.0040   1.6121   1.6221   2.1851   2.2330   2.2396   2.4253
     2.4751   2.6908   2.8973   2.9260   2.9886   3.0028   3.0470   3.0828

          k = 0.1218 0.1218 0.0000 (253925 PWs)   bands (ev):

   -20.5908 -20.5815 -20.4839 -20.4818 -20.4586 -20.4573 -20.4122 -20.4121
   -20.2439 -20.2435 -20.1889 -20.1887 -20.1602 -20.1597 -20.1279 -20.1277
   -20.1234 -20.1234 -20.0881 -20.0876 -20.0418 -20.0409 -20.0333 -20.0333
   -19.4021 -19.2458 -19.1876 -19.1527 -19.0873 -19.0790 -19.0738 -18.9676
   -18.9647 -18.9498 -18.9405 -18.8637 -18.8565 -18.8326 -18.8310 -18.8176
   -18.7661 -18.7643 -18.7606 -18.7460 -18.6751 -18.6713 -18.6629 -18.5985
   -14.7206 -14.7146 -14.7135 -14.7059 -14.6941 -14.6887 -14.6838 -14.6762
   -14.6716 -14.6700 -14.6637 -14.6636 -14.6590 -14.6558 -14.6495 -14.6456
   -14.6421 -14.6368 -14.6338 -14.6312 -14.6225 -14.6178 -14.6147 -14.6131
   -14.6074 -14.6027 -14.6005 -14.5948 -14.5897 -14.5891 -14.5865 -14.5819
   -14.5810 -14.5782 -14.5763 -14.5707 -14.5670 -14.5645 -14.5610 -14.5577
   -14.5418 -14.5416 -14.5361 -14.5283 -14.5233 -14.5220 -14.5173 -14.5166
   -14.5091 -14.5049 -14.5028 -14.4962 -14.4943 -14.4905 -14.4858 -14.4833
   -14.4784 -14.4728 -14.4695 -14.4665 -14.4613 -14.4571 -14.4558 -14.4493
   -14.4492 -14.4463 -14.4429 -14.4376 -14.4356 -14.4325 -14.4319 -14.4259
   -14.4239 -14.4179 -14.4114 -14.4107 -14.4084 -14.3996 -14.3918 -14.3821
   -14.3814 -14.3782 -14.3779 -14.3766 -14.3684 -14.3638 -14.3636 -14.3582
   -14.3563 -14.3504 -14.3494 -14.3452 -14.3327 -14.3297 -14.3215 -14.3201
   -14.3117 -14.2955 -14.2887 -14.2844 -14.2311 -14.2310 -14.2196 -14.1981
   -14.1266 -14.0842 -14.0228 -13.9867 -13.9418 -13.9298 -13.8830 -13.8600
   -13.8338 -13.7663 -13.6994 -13.6846 -13.6354 -13.5704 -13.5593 -13.5210
    -8.1693  -8.1519  -8.0808  -8.0329  -8.0197  -7.9995  -7.9931  -7.9358
    -7.8793  -7.8402  -7.8247  -7.8032  -7.7270  -7.7197  -7.6860  -7.6169
    -7.5435  -7.3079  -7.2797  -7.2321  -7.0877  -7.0764  -7.0523  -7.0172
    -6.9798  -6.9509  -6.8835  -6.8548  -6.7781  -6.7003  -6.6162  -6.5935
    -6.5189  -6.5039  -6.3196  -6.3035  -6.2621  -6.1768  -6.1708  -6.0946
    -6.0027  -5.9903  -5.9178  -5.8673  -5.6023  -5.5681  -5.5484  -5.5305
    -5.4860  -5.3953  -5.3755  -5.2940  -5.2104  -5.1762  -5.1158  -5.0805
    -5.0640  -4.9985  -4.9696  -4.8976  -4.8927  -4.8668  -4.8421  -4.8219
    -4.6693  -4.6674  -4.5707  -4.4963  -4.4654  -4.4357  -4.4263  -4.4050
    -4.3317  -4.3100  -4.2440  -4.2291  -4.2264  -4.2009  -4.1730  -4.1190
    -4.0686  -4.0641  -4.0478  -4.0079  -3.9636  -3.9574  -3.9517  -3.9250
    -3.9050  -3.8883  -3.8341  -3.7672  -3.7630  -3.6995  -3.6931  -3.6114
    -3.6036  -3.5525  -3.5310  -3.4878  -3.4573  -3.3956  -3.3764  -3.3687
    -3.3387  -3.3112  -3.2606  -3.2519  -3.2111  -3.1940  -3.1695  -3.1345
    -3.1236  -3.0393  -3.0209  -2.9382  -2.9214  -2.8628  -2.8523  -2.8445
    -2.8283  -2.8234  -2.7824  -2.7801  -2.7491  -2.7180  -2.7123  -2.6990
    -2.6610  -2.6594  -2.6332  -2.6135  -2.6022  -2.6013  -2.5849  -2.5564
    -2.5147  -2.5024  -2.4807  -2.4419  -2.4290  -2.3658  -2.3587  -2.3449
    -0.4094   1.0241   1.5667   1.5766   2.1982   2.2813   2.2839   2.4002
     2.4474   2.6374   2.9171   2.9342   3.0205   3.0293   3.0864   3.1544

          k = 0.1392 0.1392 0.0000 (253915 PWs)   bands (ev):

   -20.5887 -20.5795 -20.4849 -20.4827 -20.4604 -20.4591 -20.4138 -20.4137
   -20.2413 -20.2409 -20.1887 -20.1885 -20.1598 -20.1594 -20.1280 -20.1277
   -20.1223 -20.1223 -20.0894 -20.0888 -20.0420 -20.0412 -20.0338 -20.0337
   -19.3995 -19.2488 -19.1947 -19.1559 -19.0858 -19.0716 -19.0688 -18.9669
   -18.9652 -18.9491 -18.9402 -18.8644 -18.8557 -18.8337 -18.8308 -18.8168
   -18.7682 -18.7655 -18.7623 -18.7489 -18.6745 -18.6692 -18.6613 -18.5992
   -14.7200 -14.7135 -14.7131 -14.7053 -14.6939 -14.6893 -14.6816 -14.6760
   -14.6715 -14.6698 -14.6655 -14.6643 -14.6582 -14.6549 -14.6501 -14.6460
   -14.6427 -14.6355 -14.6327 -14.6311 -14.6236 -14.6167 -14.6151 -14.6140
   -14.6068 -14.6025 -14.6002 -14.5942 -14.5903 -14.5895 -14.5864 -14.5813
   -14.5811 -14.5780 -14.5767 -14.5719 -14.5670 -14.5646 -14.5621 -14.5554
   -14.5430 -14.5423 -14.5378 -14.5301 -14.5240 -14.5223 -14.5182 -14.5176
   -14.5115 -14.5046 -14.5032 -14.4961 -14.4949 -14.4908 -14.4857 -14.4832
   -14.4783 -14.4721 -14.4691 -14.4679 -14.4605 -14.4567 -14.4549 -14.4493
   -14.4487 -14.4465 -14.4447 -14.4358 -14.4342 -14.4330 -14.4328 -14.4260
   -14.4234 -14.4173 -14.4109 -14.4104 -14.4074 -14.3999 -14.3910 -14.3826
   -14.3803 -14.3785 -14.3768 -14.3755 -14.3684 -14.3638 -14.3634 -14.3582
   -14.3562 -14.3504 -14.3500 -14.3450 -14.3343 -14.3297 -14.3214 -14.3208
   -14.3121 -14.2970 -14.2887 -14.2854 -14.2290 -14.2277 -14.2212 -14.1908
   -14.1309 -14.0884 -14.0237 -13.9872 -13.9427 -13.9271 -13.8802 -13.8552
   -13.8319 -13.7732 -13.7003 -13.6831 -13.6338 -13.5709 -13.5595 -13.5235
    -8.1675  -8.1497  -8.0835  -8.0324  -8.0235  -8.0010  -7.9950  -7.9406
    -7.8808  -7.8405  -7.8258  -7.8048  -7.7184  -7.7134  -7.6809  -7.6152
    -7.5326  -7.3054  -7.2801  -7.2326  -7.0854  -7.0807  -7.0503  -7.0250
    -6.9843  -6.9541  -6.8836  -6.8640  -6.7800  -6.7010  -6.6015  -6.5851
    -6.5248  -6.5163  -6.3198  -6.3125  -6.2733  -6.1839  -6.1829  -6.1224
    -5.9898  -5.9895  -5.9125  -5.8551  -5.5718  -5.5450  -5.5413  -5.5341
    -5.4781  -5.3907  -5.3745  -5.2864  -5.2112  -5.1925  -5.1186  -5.0812
    -5.0550  -4.9926  -4.9606  -4.8980  -4.8886  -4.8780  -4.8280  -4.8145
    -4.6729  -4.6663  -4.5770  -4.5169  -4.4824  -4.4431  -4.4423  -4.4036
    -4.3268  -4.3111  -4.2445  -4.2408  -4.2339  -4.1960  -4.1741  -4.1168
    -4.0712  -4.0600  -4.0438  -4.0112  -3.9577  -3.9541  -3.9489  -3.9166
    -3.9053  -3.8806  -3.8231  -3.7783  -3.7582  -3.6944  -3.6889  -3.6208
    -3.5948  -3.5479  -3.5230  -3.4902  -3.4599  -3.4017  -3.3787  -3.3678
    -3.3420  -3.3052  -3.2530  -3.2526  -3.2139  -3.1995  -3.1735  -3.1306
    -3.1204  -3.0407  -3.0253  -2.9543  -2.9301  -2.8693  -2.8565  -2.8392
    -2.8342  -2.8265  -2.7790  -2.7787  -2.7541  -2.7195  -2.7127  -2.6959
    -2.6641  -2.6624  -2.6341  -2.6179  -2.6081  -2.6040  -2.5836  -2.5556
    -2.5095  -2.4980  -2.4744  -2.4379  -2.4277  -2.3666  -2.3625  -2.3462
    -0.3683   1.0470   1.5227   1.5324   2.2117   2.3113   2.3139   2.3922
     2.4362   2.5823   2.8763   2.9024   3.0537   3.0580   3.0894   3.1415

          k = 0.1566 0.1566 0.0000 (253888 PWs)   bands (ev):

   -20.5862 -20.5772 -20.4860 -20.4837 -20.4623 -20.4609 -20.4156 -20.4155
   -20.2385 -20.2381 -20.1885 -20.1882 -20.1594 -20.1590 -20.1281 -20.1278
   -20.1213 -20.1212 -20.0908 -20.0902 -20.0422 -20.0415 -20.0343 -20.0342
   -19.3966 -19.2519 -19.2017 -19.1593 -19.0842 -19.0644 -19.0635 -18.9660
   -18.9657 -18.9483 -18.9400 -18.8651 -18.8548 -18.8350 -18.8304 -18.8161
   -18.7704 -18.7668 -18.7642 -18.7516 -18.6740 -18.6670 -18.6596 -18.6000
   -14.7193 -14.7134 -14.7114 -14.7047 -14.6937 -14.6901 -14.6794 -14.6756
   -14.6714 -14.6699 -14.6670 -14.6652 -14.6577 -14.6541 -14.6501 -14.6466
   -14.6436 -14.6339 -14.6317 -14.6310 -14.6249 -14.6166 -14.6154 -14.6147
   -14.6059 -14.6019 -14.5998 -14.5937 -14.5914 -14.5893 -14.5862 -14.5813
   -14.5810 -14.5789 -14.5760 -14.5732 -14.5671 -14.5648 -14.5634 -14.5532
   -14.5441 -14.5431 -14.5391 -14.5320 -14.5251 -14.5228 -14.5196 -14.5188
   -14.5136 -14.5044 -14.5034 -14.4980 -14.4937 -14.4910 -14.4853 -14.4829
   -14.4782 -14.4716 -14.4696 -14.4686 -14.4601 -14.4563 -14.4538 -14.4494
   -14.4484 -14.4465 -14.4459 -14.4347 -14.4344 -14.4327 -14.4326 -14.4258
   -14.4228 -14.4166 -14.4107 -14.4101 -14.4064 -14.4001 -14.3904 -14.3829
   -14.3794 -14.3792 -14.3757 -14.3741 -14.3683 -14.3637 -14.3632 -14.3584
   -14.3561 -14.3506 -14.3504 -14.3447 -14.3362 -14.3297 -14.3222 -14.3201
   -14.3118 -14.2987 -14.2888 -14.2864 -14.2273 -14.2244 -14.2226 -14.1841
   -14.1351 -14.0922 -14.0254 -13.9881 -13.9434 -13.9256 -13.8768 -13.8499
   -13.8292 -13.7801 -13.7010 -13.6815 -13.6324 -13.5716 -13.5598 -13.5264
    -8.1655  -8.1473  -8.0863  -8.0320  -8.0277  -8.0025  -7.9970  -7.9455
    -7.8822  -7.8407  -7.8269  -7.8061  -7.7099  -7.7067  -7.6755  -7.6134
    -7.5207  -7.3027  -7.2806  -7.2330  -7.0852  -7.0835  -7.0479  -7.0323
    -6.9888  -6.9580  -6.8867  -6.8694  -6.7812  -6.7021  -6.5875  -6.5778
    -6.5305  -6.5280  -6.3380  -6.3063  -6.2849  -6.1967  -6.1933  -6.1495
    -5.9868  -5.9746  -5.9047  -5.8425  -5.5432  -5.5403  -5.5321  -5.5221
    -5.4679  -5.3860  -5.3718  -5.2789  -5.2125  -5.2075  -5.1192  -5.0815
    -5.0463  -4.9862  -4.9505  -4.8978  -4.8932  -4.8826  -4.8137  -4.8096
    -4.6805  -4.6637  -4.5823  -4.5357  -4.5001  -4.4577  -4.4489  -4.4008
    -4.3238  -4.3134  -4.2530  -4.2462  -4.2401  -4.1891  -4.1770  -4.1135
    -4.0794  -4.0543  -4.0373  -4.0156  -3.9625  -3.9481  -3.9422  -3.9122
    -3.9037  -3.8651  -3.8114  -3.7935  -3.7493  -3.6983  -3.6775  -3.6302
    -3.5852  -3.5433  -3.5152  -3.4923  -3.4609  -3.4081  -3.3820  -3.3677
    -3.3456  -3.2994  -3.2532  -3.2508  -3.2123  -3.2045  -3.1787  -3.1277
    -3.1168  -3.0428  -3.0299  -2.9697  -2.9395  -2.8761  -2.8596  -2.8405
    -2.8331  -2.8310  -2.7787  -2.7776  -2.7561  -2.7215  -2.7134  -2.6936
    -2.6675  -2.6674  -2.6366  -2.6240  -2.6092  -2.6070  -2.5817  -2.5547
    -2.5044  -2.4922  -2.4684  -2.4355  -2.4244  -2.3674  -2.3665  -2.3477
    -0.3229   1.0726   1.4801   1.4898   2.2251   2.3088   2.3098   2.4229
     2.4490   2.5314   2.8834   2.8923   3.0781   3.0851   3.0879   3.1245

          k = 0.1740 0.1740 0.0000 (253961 PWs)   bands (ev):

   -20.5835 -20.5747 -20.4871 -20.4847 -20.4644 -20.4629 -20.4176 -20.4176
   -20.2355 -20.2351 -20.1881 -20.1878 -20.1590 -20.1586 -20.1282 -20.1278
   -20.1203 -20.1202 -20.0923 -20.0918 -20.0424 -20.0417 -20.0348 -20.0347
   -19.3934 -19.2551 -19.2084 -19.1631 -19.0823 -19.0580 -19.0575 -18.9663
   -18.9649 -18.9474 -18.9397 -18.8660 -18.8539 -18.8363 -18.8300 -18.8155
   -18.7728 -18.7681 -18.7664 -18.7542 -18.6735 -18.6647 -18.6579 -18.6010
   -14.7186 -14.7132 -14.7096 -14.7042 -14.6936 -14.6910 -14.6779 -14.6752
   -14.6712 -14.6701 -14.6677 -14.6664 -14.6575 -14.6532 -14.6494 -14.6473
   -14.6445 -14.6321 -14.6311 -14.6306 -14.6260 -14.6174 -14.6169 -14.6134
   -14.6049 -14.6011 -14.5993 -14.5938 -14.5919 -14.5891 -14.5862 -14.5815
   -14.5809 -14.5801 -14.5749 -14.5745 -14.5672 -14.5652 -14.5644 -14.5510
   -14.5452 -14.5437 -14.5401 -14.5339 -14.5266 -14.5238 -14.5211 -14.5198
   -14.5151 -14.5049 -14.5034 -14.4992 -14.4925 -14.4912 -14.4845 -14.4825
   -14.4782 -14.4718 -14.4706 -14.4681 -14.4601 -14.4558 -14.4526 -14.4496
   -14.4488 -14.4461 -14.4460 -14.4355 -14.4344 -14.4323 -14.4313 -14.4251
   -14.4220 -14.4159 -14.4106 -14.4098 -14.4053 -14.4004 -14.3900 -14.3831
   -14.3801 -14.3786 -14.3746 -14.3728 -14.3682 -14.3635 -14.3629 -14.3586
   -14.3561 -14.3512 -14.3504 -14.3445 -14.3382 -14.3296 -14.3229 -14.3201
   -14.3103 -14.3004 -14.2889 -14.2872 -14.2273 -14.2223 -14.2211 -14.1781
   -14.1391 -14.0954 -14.0281 -13.9897 -13.9438 -13.9251 -13.8734 -13.8441
   -13.8253 -13.7868 -13.7016 -13.6797 -13.6313 -13.5725 -13.5603 -13.5296
    -8.1633  -8.1447  -8.0891  -8.0323  -8.0320  -8.0040  -7.9990  -7.9505
    -7.8833  -7.8408  -7.8281  -7.8071  -7.7015  -7.6999  -7.6699  -7.6115
    -7.5077  -7.2999  -7.2813  -7.2332  -7.0899  -7.0825  -7.0452  -7.0382
    -6.9932  -6.9624  -6.8929  -6.8710  -6.7821  -6.7038  -6.5746  -6.5718
    -6.5386  -6.5354  -6.3577  -6.3012  -6.2970  -6.2114  -6.2072  -6.1731
    -5.9826  -5.9575  -5.8952  -5.8298  -5.5444  -5.5263  -5.5116  -5.5055
    -5.4545  -5.3815  -5.3673  -5.2726  -5.2198  -5.2143  -5.1177  -5.0815
    -5.0380  -4.9796  -4.9396  -4.9062  -4.8967  -4.8808  -4.8101  -4.7965
    -4.6902  -4.6615  -4.5860  -4.5524  -4.5181  -4.4721  -4.4534  -4.3971
    -4.3234  -4.3172  -4.2623  -4.2503  -4.2434  -4.1822  -4.1814  -4.1091
    -4.0886  -4.0510  -4.0291  -4.0198  -3.9669  -3.9439  -3.9419  -3.9080
    -3.8970  -3.8467  -3.8112  -3.7970  -3.7406  -3.7052  -3.6660  -3.6375
    -3.5746  -3.5403  -3.5075  -3.4944  -3.4598  -3.4146  -3.3863  -3.3682
    -3.3492  -3.2942  -3.2537  -3.2535  -3.2092  -3.2068  -3.1852  -3.1259
    -3.1132  -3.0454  -3.0345  -2.9839  -2.9494  -2.8827  -2.8619  -2.8472
    -2.8371  -2.8267  -2.7802  -2.7781  -2.7547  -2.7238  -2.7143  -2.6928
    -2.6738  -2.6702  -2.6430  -2.6266  -2.6105  -2.6073  -2.5799  -2.5543
    -2.4993  -2.4852  -2.4627  -2.4345  -2.4194  -2.3704  -2.3682  -2.3492
    -0.2737   1.1008   1.4392   1.4488   2.2347   2.2863   2.2936   2.4373
     2.4715   2.5235   2.8611   2.9302   3.0888   3.0960   3.0982   3.1247

     Writing all to output data dir ./tmp/slab.save/ :
     XML data file, pseudopotentials, collected wavefunctions
 
     init_run     :     17.50s CPU     33.09s WALL (       1 calls)
     electrons    :   6590.58s CPU  16660.19s WALL (       1 calls)

     Called by init_run:
     wfcinit      :      0.00s CPU      0.00s WALL (       1 calls)
     wfcinit:atom :      0.22s CPU      0.37s WALL (      21 calls)
     wfcinit:wfcr :      1.99s CPU     50.55s WALL (      21 calls)
     potinit      :     12.23s CPU     24.25s WALL (       1 calls)
     hinit0       :      2.76s CPU      2.94s WALL (       1 calls)

     Called by electrons:
     c_bands      :   6590.58s CPU  16660.12s WALL (       1 calls)
     v_of_rho     :      0.12s CPU      0.24s WALL (       1 calls)
     v_h          :      0.06s CPU      0.10s WALL (       1 calls)
     v_xc         :      0.06s CPU      0.14s WALL (       1 calls)
     newd         :      0.09s CPU      0.37s WALL (       1 calls)
                                        0.37s GPU  (       1 calls)
     PAW_pot      :      7.13s CPU      9.09s WALL (       1 calls)

     Called by c_bands:
     init_us_2    :      0.07s CPU      0.28s WALL (      21 calls)
     ccgdiagg     :   6580.28s CPU  16499.17s WALL (     126 calls)
     wfcrot       :      8.17s CPU    127.05s WALL (     126 calls)
                                      127.04s GPU  (     126 calls)

     Called by sum_band:

     Called by *cgdiagg:
     h_psi        :   2290.85s CPU   6223.80s WALL (  486439 calls)
                                     6187.57s GPU  (  486439 calls)
     s_psi        :   3568.26s CPU   6522.53s WALL (  972752 calls)

     Called by h_psi:
     h_psi:calbec :      8.99s CPU   1229.85s WALL (  486439 calls)
                                     1221.11s GPU  (  486439 calls)
     vloc_psi     :    232.44s CPU    884.96s WALL (  486439 calls)
                                      877.31s GPU  (  486439 calls)
     add_vuspsi   :   1727.29s CPU   3995.37s WALL (  486439 calls)
                                     3986.80s GPU  (  486439 calls)
     hs_1psi      :   4024.86s CPU  10133.15s WALL (  486313 calls)
                                    10092.23s GPU  (  486313 calls)
     s_1psi       :   1859.96s CPU   5164.02s WALL (  486313 calls)
                                     5154.70s GPU  (  486313 calls)

     General routines
     calbec       :      8.47s CPU     33.87s WALL (  972752 calls)
     fft          :      2.96s CPU      6.36s WALL (      13 calls)
                                        0.12s GPU  (      12 calls)
     ffts         :      1.97s CPU      8.48s WALL (       1 calls)
     fftw         :     13.20s CPU    517.26s WALL (  978170 calls)
                                      504.36s GPU  (  978170 calls)
     interpolate  :      4.91s CPU     14.78s WALL (       1 calls)
     davcio       :      0.31s CPU     35.02s WALL (      42 calls)
 
     Parallel routines

     PAW routines
     PAW_pot      :      7.13s CPU      9.09s WALL (       1 calls)
 
     PWSCF        :      1h50m CPU      4h38m WALL

 
   This run was terminated on:  13:57:57  29Sep2026            

=------------------------------------------------------------------------------=
   JOB DONE.
=------------------------------------------------------------------------------=
Warning: ieee_invalid is signaling
Warning: ieee_divide_by_zero is signaling
Warning: ieee_inexact is signaling
FORTRAN STOP
