
     Program PWSCF v.7.5 starts on 27Sep2026 at  4:58: 4 

     This program is part of the open-source Quantum ESPRESSO suite
     for quantum simulation of materials; please cite
         "P. Giannozzi et al., J. Phys.:Condens. Matter 21 395502 (2009);
         "P. Giannozzi et al., J. Phys.:Condens. Matter 29 465901 (2017);
         "P. Giannozzi et al., J. Chem. Phys. 152 154105 (2020);
          URL http://www.quantum-espresso.org", 
     in publications or presentations arising from this work. More details at
     http://www.quantum-espresso.org/quote

     Parallel version (MPI & OpenMP), running on      10 processor cores
     Number of MPI processes:                10
     Threads/MPI process:                     1

     MPI processes distributed on     1 nodes
     12939 MiB available memory on the printing compute node when the environment starts

     Reading input from scf_ecut60_k3.in
Warning: card &CELL ignored
Warning: card   PRESS_CONV_THR = 0.2 ignored

     Current dimensions of program PWSCF are:
     Max number of different atomic species (ntypx) = 10
     Max number of k-points (npk) =  40000
     Max angular momentum in pseudopotentials (lmaxx) =  4
     file In.pbe-dn-kjpaw_psl.1.0.0.UPF: wavefunction(s)  5S 5P 4D renormalized
     file O.pbe-n-kjpaw_psl.1.0.0.UPF: wavefunction(s)  2S 2P renormalized

     K-points division:     npool     =       2
     R & G space division:  proc/nbgrp/npool/nimage =       5
     Subspace diagonalization in iterative solution of the eigenvalue problem:
     one sub-group per band group will be used
     ELPA distributed-memory algorithm (size of sub-group:  2*  2 procs)


     Parallelization info
     --------------------
     sticks:   dense  smooth     PW     G-vecs:    dense   smooth      PW
     Min        1973     987    267               124056    43942    6100
     Max        1973     988    267               124057    43943    6101
     Sum        9865    4937   1335               620283   219711   30501

     Using Slab Decomposition



     bravais-lattice index     =            3
     lattice parameter (alat)  =      19.1184  a.u.
     unit-cell volume          =    3493.9916 (a.u.)^3
     number of atoms/cell      =           40
     number of atomic types    =            2
     number of electrons       =       352.00
     number of Kohn-Sham states=          190
     kinetic-energy cutoff     =      60.0000  Ry
     charge density cutoff     =     480.0000  Ry
     scf convergence threshold =      1.0E-09
     mixing beta               =       0.4000
     number of iterations used =            8  plain     mixing
     Exchange-correlation= SLA  PW   PBX  PBC
                           (   1   4   3   4   0   0   0)

     celldm(1)=  19.118359  celldm(2)=   0.000000  celldm(3)=   0.000000
     celldm(4)=   0.000000  celldm(5)=   0.000000  celldm(6)=   0.000000

     crystal axes: (cart. coord. in units of alat)
               a(1) = (   0.500000   0.500000   0.500000 )  
               a(2) = (  -0.500000   0.500000   0.500000 )  
               a(3) = (  -0.500000  -0.500000   0.500000 )  

     reciprocal axes: (cart. coord. in units 2 pi/alat)
               b(1) = (  1.000000  0.000000  1.000000 )  
               b(2) = ( -1.000000  1.000000  0.000000 )  
               b(3) = (  0.000000 -1.000000  1.000000 )  


     PseudoPot. # 1 for In read from file:
     ../pseudo/In.pbe-dn-kjpaw_psl.1.0.0.UPF
     MD5 check sum: 235b15e6a7fdfd96486e0ecdcb5b12c6
     Pseudo is Projector augmented-wave + core cor, Zval = 13.0
     Generated using &quot;atomic&quot; code by A. Dal Corso  v.6.3
     Shape of augmentation charge: PSQ
     Using radial grid of 1241 points,  6 beta functions with: 
                l(1) =   0
                l(2) =   0
                l(3) =   1
                l(4) =   1
                l(5) =   2
                l(6) =   2
     Q(r) pseudized with 0 coefficients 


     PseudoPot. # 2 for O  read from file:
     ../pseudo/O.pbe-n-kjpaw_psl.1.0.0.UPF
     MD5 check sum: e99d9cef9b487d1ca56f5b95ecd0fd7a
     Pseudo is Projector augmented-wave + core cor, Zval =  6.0
     Generated using &quot;atomic&quot; code by A. Dal Corso  v.6.3
     Shape of augmentation charge: PSQ
     Using radial grid of 1095 points,  4 beta functions with: 
                l(1) =   0
                l(2) =   0
                l(3) =   1
                l(4) =   1
     Q(r) pseudized with 0 coefficients 


     atomic species   valence    mass     pseudopotential
     In               13.00   114.81800     In( 1.00)
     O                 6.00    15.99900     O ( 1.00)

      2 Sym. Ops., with inversion, found



   Cartesian axes

     site n.     atom                  positions (alat units)
         1        In     tau(   1) = (  -0.2500000   0.2500000   0.7500000  )
         2        In     tau(   2) = (   0.2500000   0.2500000   0.2500000  )
         3        In     tau(   3) = (  -0.2500000  -0.2500000   0.2500000  )
         4        In     tau(   4) = (  -0.2500000   0.2500000   0.2500000  )
         5        In     tau(   5) = (  -0.4662000   0.2500000   0.7162000  )
         6        In     tau(   6) = (  -0.0338000   0.7500000   0.7838000  )
         7        In     tau(   7) = (  -0.2500000   0.0000000   0.7162000  )
         8        In     tau(   8) = (  -0.7500000   0.0000000   0.7838000  )
         9        In     tau(   9) = (  -0.0000000   0.4662000   0.7162000  )
        10        In     tau(  10) = (   0.0000000   0.0338000   0.7838000  )
        11        In     tau(  11) = (  -0.0338000   0.2500000   0.7838000  )
        12        In     tau(  12) = (  -0.4662000  -0.2500000   0.7162000  )
        13        In     tau(  13) = (  -0.2500000   0.5000000   0.7838000  )
        14        In     tau(  14) = (   0.2500000   0.5000000   0.7162000  )
        15        In     tau(  15) = (  -0.5000000   0.0338000   0.7838000  )
        16        In     tau(  16) = (  -0.5000000   0.4662000   0.7162000  )
        17        O      tau(  17) = (  -0.3905000   0.3821000   0.9273000  )
        18        O      tau(  18) = (  -0.6095000   0.3821000   1.3369000  )
        19        O      tau(  19) = (  -0.1095000   0.6179000   0.8821000  )
        20        O      tau(  20) = (   0.1095000   0.6179000   0.8537000  )
        21        O      tau(  21) = (  -0.3821000   0.1547000   0.9273000  )
        22        O      tau(  22) = (  -0.3821000   0.3453000   1.3369000  )
        23        O      tau(  23) = (  -0.6179000   0.1547000   0.8821000  )
        24        O      tau(  24) = (  -0.6179000   0.3453000   0.8537000  )
        25        O      tau(  25) = (  -0.1547000   0.3905000   0.9273000  )
        26        O      tau(  26) = (  -0.3453000   0.6095000   1.3369000  )
        27        O      tau(  27) = (  -0.1547000   0.1095000   0.8821000  )
        28        O      tau(  28) = (  -0.3453000  -0.1095000   0.8537000  )
        29        O      tau(  29) = (  -0.1095000   0.1179000   0.5727000  )
        30        O      tau(  30) = (   0.1095000   0.1179000   0.1631000  )
        31        O      tau(  31) = (  -0.3905000  -0.1179000   0.6179000  )
        32        O      tau(  32) = (  -0.6095000  -0.1179000   0.6463000  )
        33        O      tau(  33) = (  -0.1179000   0.3453000   0.5727000  )
        34        O      tau(  34) = (  -0.1179000   0.1547000   0.1631000  )
        35        O      tau(  35) = (   0.1179000   0.3453000   0.6179000  )
        36        O      tau(  36) = (   0.1179000   0.1547000   0.6463000  )
        37        O      tau(  37) = (  -0.3453000   0.1095000   0.5727000  )
        38        O      tau(  38) = (  -0.1547000  -0.1095000   0.1631000  )
        39        O      tau(  39) = (  -0.3453000   0.3905000   0.6179000  )
        40        O      tau(  40) = (  -0.1547000   0.6095000   0.6463000  )

     number of k points=    14
                       cart. coord. in units 2pi/alat
        k(    1) = (   0.0000000   0.0000000   0.0000000), wk =   0.0740741
        k(    2) = (   0.0000000  -0.3333333   0.3333333), wk =   0.1481481
        k(    3) = (  -0.3333333   0.6666667  -0.3333333), wk =   0.1481481
        k(    4) = (   0.0000000   0.0000000   0.6666667), wk =   0.1481481
        k(    5) = (   0.0000000  -0.3333333  -0.3333333), wk =   0.1481481
        k(    6) = (  -0.3333333   0.0000000  -0.3333333), wk =   0.1481481
        k(    7) = (   0.3333333   0.0000000  -0.3333333), wk =   0.1481481
        k(    8) = (   0.3333333   0.3333333   0.0000000), wk =   0.1481481
        k(    9) = (  -0.3333333   0.3333333   0.0000000), wk =   0.1481481
        k(   10) = (   0.3333333   0.6666667   0.3333333), wk =   0.1481481
        k(   11) = (  -0.3333333  -0.6666667   0.3333333), wk =   0.1481481
        k(   12) = (   0.6666667  -0.3333333   0.3333333), wk =   0.1481481
        k(   13) = (   0.6666667   0.0000000   0.0000000), wk =   0.1481481
        k(   14) = (   0.0000000   0.6666667   0.0000000), wk =   0.1481481

     Dense  grid:   620283 G-vectors     FFT dimensions: ( 120, 120, 120)

     Smooth grid:   219711 G-vectors     FFT dimensions: (  81,  81,  81)

     Estimated max dynamical RAM per process >     492.70 MB

     Estimated total dynamical RAM >       4.66 GB

     Initial potential from superposition of free atoms

     starting charge     351.9405, renormalised to     352.0000
     Starting wfcs are  240 randomized atomic wfcs
     Checking if some PAW data can be deallocated... 

     total cpu time spent up to now is       22.9 secs

     per-process dynamical memory:   248.3 Mb

     Self-consistent Calculation

     iteration #  1     ecut=    60.00 Ry     beta= 0.40
     Davidson diagonalization with overlap
     ethr =  1.00E-02,  avg # of iterations =  2.0

     total cpu time spent up to now is       67.3 secs

     total energy              =   -7558.05283322 Ry
     estimated scf accuracy    <      17.31769614 Ry

     iteration #  2     ecut=    60.00 Ry     beta= 0.40
     Davidson diagonalization with overlap
     ethr =  4.92E-03,  avg # of iterations =  4.4

     total cpu time spent up to now is      119.1 secs

     total energy              =   -7560.30514606 Ry
     estimated scf accuracy    <      16.42933492 Ry

     iteration #  3     ecut=    60.00 Ry     beta= 0.40
     Davidson diagonalization with overlap
     ethr =  4.67E-03,  avg # of iterations =  2.0

     total cpu time spent up to now is      165.4 secs

     total energy              =   -7563.64472595 Ry
     estimated scf accuracy    <      11.37696132 Ry

     iteration #  4     ecut=    60.00 Ry     beta= 0.40
     Davidson diagonalization with overlap
     ethr =  3.23E-03,  avg # of iterations =  1.4

     total cpu time spent up to now is      208.2 secs

     total energy              =   -7564.59338173 Ry
     estimated scf accuracy    <       4.14119134 Ry

     iteration #  5     ecut=    60.00 Ry     beta= 0.40
     Davidson diagonalization with overlap
     ethr =  1.18E-03,  avg # of iterations =  2.0

     total cpu time spent up to now is      255.5 secs

     total energy              =   -7564.90785790 Ry
     estimated scf accuracy    <       1.54359674 Ry

     iteration #  6     ecut=    60.00 Ry     beta= 0.40
     Davidson diagonalization with overlap
     ethr =  4.39E-04,  avg # of iterations =  2.0

     total cpu time spent up to now is      305.1 secs

     total energy              =   -7564.96137427 Ry
     estimated scf accuracy    <       0.57753906 Ry

     iteration #  7     ecut=    60.00 Ry     beta= 0.40
     Davidson diagonalization with overlap
     ethr =  1.64E-04,  avg # of iterations =  2.0

     total cpu time spent up to now is      354.0 secs

     total energy              =   -7565.00414424 Ry
     estimated scf accuracy    <       0.19195729 Ry

     iteration #  8     ecut=    60.00 Ry     beta= 0.40
     Davidson diagonalization with overlap
     ethr =  5.45E-05,  avg # of iterations =  8.4

     total cpu time spent up to now is      416.7 secs

     total energy              =   -7565.01987202 Ry
     estimated scf accuracy    <       0.46644538 Ry

     iteration #  9     ecut=    60.00 Ry     beta= 0.40
     Davidson diagonalization with overlap
     ethr =  5.45E-05,  avg # of iterations =  2.0

     total cpu time spent up to now is      461.8 secs

     total energy              =   -7565.05138965 Ry
     estimated scf accuracy    <       0.06126851 Ry

     iteration # 10     ecut=    60.00 Ry     beta= 0.40
     Davidson diagonalization with overlap
     ethr =  1.74E-05,  avg # of iterations =  8.1

     total cpu time spent up to now is      524.8 secs

     total energy              =   -7565.05572789 Ry
     estimated scf accuracy    <       0.03554304 Ry

     iteration # 11     ecut=    60.00 Ry     beta= 0.40
     Davidson diagonalization with overlap
     ethr =  1.01E-05,  avg # of iterations =  7.6

     total cpu time spent up to now is      588.4 secs

     total energy              =   -7565.06038857 Ry
     estimated scf accuracy    <       0.00536505 Ry

     iteration # 12     ecut=    60.00 Ry     beta= 0.40
     Davidson diagonalization with overlap
     c_bands:  1 eigenvalues not converged
     c_bands:  1 eigenvalues not converged
     c_bands:  1 eigenvalues not converged
     ethr =  1.52E-06,  avg # of iterations = 13.1

     total cpu time spent up to now is      712.1 secs

     total energy              =   -7565.06325328 Ry
     estimated scf accuracy    <       0.00404009 Ry

     iteration # 13     ecut=    60.00 Ry     beta= 0.40
     Davidson diagonalization with overlap
     ethr =  1.15E-06,  avg # of iterations =  4.3

     total cpu time spent up to now is      774.9 secs

     total energy              =   -7565.06314121 Ry
     estimated scf accuracy    <       0.00165522 Ry

     iteration # 14     ecut=    60.00 Ry     beta= 0.40
     Davidson diagonalization with overlap
--------------------------------------------------------------------------
prterun noticed that process rank 5 with PID 2597 on node dell exited on
signal 15 (Terminated).
--------------------------------------------------------------------------
