
     Program PWSCF v.7.5 starts on 27Sep2026 at  4:38:17 

     This program is part of the open-source Quantum ESPRESSO suite
     for quantum simulation of materials; please cite
         "P. Giannozzi et al., J. Phys.:Condens. Matter 21 395502 (2009);
         "P. Giannozzi et al., J. Phys.:Condens. Matter 29 465901 (2017);
         "P. Giannozzi et al., J. Chem. Phys. 152 154105 (2020);
          URL http://www.quantum-espresso.org", 
     in publications or presentations arising from this work. More details at
     http://www.quantum-espresso.org/quote

     Parallel version (MPI & OpenMP), running on      10 processor cores
     Number of MPI processes:                10
     Threads/MPI process:                     1

     MPI processes distributed on     1 nodes
     13429 MiB available memory on the printing compute node when the environment starts

     Reading input from scf_ecut50_k3.in
Warning: card &CELL ignored
Warning: card   PRESS_CONV_THR = 0.2 ignored

     Current dimensions of program PWSCF are:
     Max number of different atomic species (ntypx) = 10
     Max number of k-points (npk) =  40000
     Max angular momentum in pseudopotentials (lmaxx) =  4
     file In.pbe-dn-kjpaw_psl.1.0.0.UPF: wavefunction(s)  5S 5P 4D renormalized
     file O.pbe-n-kjpaw_psl.1.0.0.UPF: wavefunction(s)  2S 2P renormalized

     K-points division:     npool     =       2
     R & G space division:  proc/nbgrp/npool/nimage =       5
     Subspace diagonalization in iterative solution of the eigenvalue problem:
     one sub-group per band group will be used
     ELPA distributed-memory algorithm (size of sub-group:  2*  2 procs)


     Parallelization info
     --------------------
     sticks:   dense  smooth     PW     G-vecs:    dense   smooth      PW
     Min        1644     823    222                94342    33375    4662
     Max        1645     824    223                94343    33377    4663
     Sum        8223    4119   1113               471713   166879   23311

     Using Slab Decomposition



     bravais-lattice index     =            3
     lattice parameter (alat)  =      19.1184  a.u.
     unit-cell volume          =    3493.9916 (a.u.)^3
     number of atoms/cell      =           40
     number of atomic types    =            2
     number of electrons       =       352.00
     number of Kohn-Sham states=          190
     kinetic-energy cutoff     =      50.0000  Ry
     charge density cutoff     =     400.0000  Ry
     scf convergence threshold =      1.0E-09
     mixing beta               =       0.4000
     number of iterations used =            8  plain     mixing
     Exchange-correlation= SLA  PW   PBX  PBC
                           (   1   4   3   4   0   0   0)

     celldm(1)=  19.118359  celldm(2)=   0.000000  celldm(3)=   0.000000
     celldm(4)=   0.000000  celldm(5)=   0.000000  celldm(6)=   0.000000

     crystal axes: (cart. coord. in units of alat)
               a(1) = (   0.500000   0.500000   0.500000 )  
               a(2) = (  -0.500000   0.500000   0.500000 )  
               a(3) = (  -0.500000  -0.500000   0.500000 )  

     reciprocal axes: (cart. coord. in units 2 pi/alat)
               b(1) = (  1.000000  0.000000  1.000000 )  
               b(2) = ( -1.000000  1.000000  0.000000 )  
               b(3) = (  0.000000 -1.000000  1.000000 )  


     PseudoPot. # 1 for In read from file:
     ../pseudo/In.pbe-dn-kjpaw_psl.1.0.0.UPF
     MD5 check sum: 235b15e6a7fdfd96486e0ecdcb5b12c6
     Pseudo is Projector augmented-wave + core cor, Zval = 13.0
     Generated using &quot;atomic&quot; code by A. Dal Corso  v.6.3
     Shape of augmentation charge: PSQ
     Using radial grid of 1241 points,  6 beta functions with: 
                l(1) =   0
                l(2) =   0
                l(3) =   1
                l(4) =   1
                l(5) =   2
                l(6) =   2
     Q(r) pseudized with 0 coefficients 


     PseudoPot. # 2 for O  read from file:
     ../pseudo/O.pbe-n-kjpaw_psl.1.0.0.UPF
     MD5 check sum: e99d9cef9b487d1ca56f5b95ecd0fd7a
     Pseudo is Projector augmented-wave + core cor, Zval =  6.0
     Generated using &quot;atomic&quot; code by A. Dal Corso  v.6.3
     Shape of augmentation charge: PSQ
     Using radial grid of 1095 points,  4 beta functions with: 
                l(1) =   0
                l(2) =   0
                l(3) =   1
                l(4) =   1
     Q(r) pseudized with 0 coefficients 


     atomic species   valence    mass     pseudopotential
     In               13.00   114.81800     In( 1.00)
     O                 6.00    15.99900     O ( 1.00)

      2 Sym. Ops., with inversion, found



   Cartesian axes

     site n.     atom                  positions (alat units)
         1        In     tau(   1) = (  -0.2500000   0.2500000   0.7500000  )
         2        In     tau(   2) = (   0.2500000   0.2500000   0.2500000  )
         3        In     tau(   3) = (  -0.2500000  -0.2500000   0.2500000  )
         4        In     tau(   4) = (  -0.2500000   0.2500000   0.2500000  )
         5        In     tau(   5) = (  -0.4662000   0.2500000   0.7162000  )
         6        In     tau(   6) = (  -0.0338000   0.7500000   0.7838000  )
         7        In     tau(   7) = (  -0.2500000   0.0000000   0.7162000  )
         8        In     tau(   8) = (  -0.7500000   0.0000000   0.7838000  )
         9        In     tau(   9) = (  -0.0000000   0.4662000   0.7162000  )
        10        In     tau(  10) = (   0.0000000   0.0338000   0.7838000  )
        11        In     tau(  11) = (  -0.0338000   0.2500000   0.7838000  )
        12        In     tau(  12) = (  -0.4662000  -0.2500000   0.7162000  )
        13        In     tau(  13) = (  -0.2500000   0.5000000   0.7838000  )
        14        In     tau(  14) = (   0.2500000   0.5000000   0.7162000  )
        15        In     tau(  15) = (  -0.5000000   0.0338000   0.7838000  )
        16        In     tau(  16) = (  -0.5000000   0.4662000   0.7162000  )
        17        O      tau(  17) = (  -0.3905000   0.3821000   0.9273000  )
        18        O      tau(  18) = (  -0.6095000   0.3821000   1.3369000  )
        19        O      tau(  19) = (  -0.1095000   0.6179000   0.8821000  )
        20        O      tau(  20) = (   0.1095000   0.6179000   0.8537000  )
        21        O      tau(  21) = (  -0.3821000   0.1547000   0.9273000  )
        22        O      tau(  22) = (  -0.3821000   0.3453000   1.3369000  )
        23        O      tau(  23) = (  -0.6179000   0.1547000   0.8821000  )
        24        O      tau(  24) = (  -0.6179000   0.3453000   0.8537000  )
        25        O      tau(  25) = (  -0.1547000   0.3905000   0.9273000  )
        26        O      tau(  26) = (  -0.3453000   0.6095000   1.3369000  )
        27        O      tau(  27) = (  -0.1547000   0.1095000   0.8821000  )
        28        O      tau(  28) = (  -0.3453000  -0.1095000   0.8537000  )
        29        O      tau(  29) = (  -0.1095000   0.1179000   0.5727000  )
        30        O      tau(  30) = (   0.1095000   0.1179000   0.1631000  )
        31        O      tau(  31) = (  -0.3905000  -0.1179000   0.6179000  )
        32        O      tau(  32) = (  -0.6095000  -0.1179000   0.6463000  )
        33        O      tau(  33) = (  -0.1179000   0.3453000   0.5727000  )
        34        O      tau(  34) = (  -0.1179000   0.1547000   0.1631000  )
        35        O      tau(  35) = (   0.1179000   0.3453000   0.6179000  )
        36        O      tau(  36) = (   0.1179000   0.1547000   0.6463000  )
        37        O      tau(  37) = (  -0.3453000   0.1095000   0.5727000  )
        38        O      tau(  38) = (  -0.1547000  -0.1095000   0.1631000  )
        39        O      tau(  39) = (  -0.3453000   0.3905000   0.6179000  )
        40        O      tau(  40) = (  -0.1547000   0.6095000   0.6463000  )

     number of k points=    14
                       cart. coord. in units 2pi/alat
        k(    1) = (   0.0000000   0.0000000   0.0000000), wk =   0.0740741
        k(    2) = (   0.0000000  -0.3333333   0.3333333), wk =   0.1481481
        k(    3) = (  -0.3333333   0.6666667  -0.3333333), wk =   0.1481481
        k(    4) = (   0.0000000   0.0000000   0.6666667), wk =   0.1481481
        k(    5) = (   0.0000000  -0.3333333  -0.3333333), wk =   0.1481481
        k(    6) = (  -0.3333333   0.0000000  -0.3333333), wk =   0.1481481
        k(    7) = (   0.3333333   0.0000000  -0.3333333), wk =   0.1481481
        k(    8) = (   0.3333333   0.3333333   0.0000000), wk =   0.1481481
        k(    9) = (  -0.3333333   0.3333333   0.0000000), wk =   0.1481481
        k(   10) = (   0.3333333   0.6666667   0.3333333), wk =   0.1481481
        k(   11) = (  -0.3333333  -0.6666667   0.3333333), wk =   0.1481481
        k(   12) = (   0.6666667  -0.3333333   0.3333333), wk =   0.1481481
        k(   13) = (   0.6666667   0.0000000   0.0000000), wk =   0.1481481
        k(   14) = (   0.0000000   0.6666667   0.0000000), wk =   0.1481481

     Dense  grid:   471713 G-vectors     FFT dimensions: ( 108, 108, 108)

     Smooth grid:   166879 G-vectors     FFT dimensions: (  75,  75,  75)

     Estimated max dynamical RAM per process >     374.87 MB

     Estimated total dynamical RAM >       3.55 GB

     Check: negative core charge=   -0.000002

     Initial potential from superposition of free atoms

     starting charge     351.9405, renormalised to     352.0000
     Starting wfcs are  240 randomized atomic wfcs
     Checking if some PAW data can be deallocated... 

     total cpu time spent up to now is       18.4 secs

     per-process dynamical memory:   220.1 Mb

     Self-consistent Calculation

     iteration #  1     ecut=    50.00 Ry     beta= 0.40
     Davidson diagonalization with overlap
     ethr =  1.00E-02,  avg # of iterations =  2.0

     total cpu time spent up to now is       48.4 secs

     total energy              =   -7557.85306291 Ry
     estimated scf accuracy    <      17.41472029 Ry

     iteration #  2     ecut=    50.00 Ry     beta= 0.40
     Davidson diagonalization with overlap
     ethr =  4.95E-03,  avg # of iterations =  4.1

     total cpu time spent up to now is       83.5 secs

     total energy              =   -7560.34219638 Ry
     estimated scf accuracy    <      17.03307368 Ry

     iteration #  3     ecut=    50.00 Ry     beta= 0.40
     Davidson diagonalization with overlap
     ethr =  4.84E-03,  avg # of iterations =  2.0

     total cpu time spent up to now is      118.2 secs

     total energy              =   -7563.62563779 Ry
     estimated scf accuracy    <      11.47516331 Ry

     iteration #  4     ecut=    50.00 Ry     beta= 0.40
     Davidson diagonalization with overlap
     ethr =  3.26E-03,  avg # of iterations =  1.6

     total cpu time spent up to now is      150.2 secs

     total energy              =   -7564.56836121 Ry
     estimated scf accuracy    <       4.04475321 Ry

     iteration #  5     ecut=    50.00 Ry     beta= 0.40
     Davidson diagonalization with overlap
     ethr =  1.15E-03,  avg # of iterations =  2.0

     total cpu time spent up to now is      179.7 secs

     total energy              =   -7564.84193586 Ry
     estimated scf accuracy    <       1.47073286 Ry

     iteration #  6     ecut=    50.00 Ry     beta= 0.40
     Davidson diagonalization with overlap
     ethr =  4.18E-04,  avg # of iterations =  2.0

     total cpu time spent up to now is      211.5 secs

     total energy              =   -7564.88977688 Ry
     estimated scf accuracy    <       0.50571285 Ry

     iteration #  7     ecut=    50.00 Ry     beta= 0.40
     Davidson diagonalization with overlap
     ethr =  1.44E-04,  avg # of iterations =  2.0

     total cpu time spent up to now is      242.7 secs

     total energy              =   -7564.92523232 Ry
     estimated scf accuracy    <       0.20918794 Ry

     iteration #  8     ecut=    50.00 Ry     beta= 0.40
     Davidson diagonalization with overlap
     ethr =  5.94E-05,  avg # of iterations =  4.9

     total cpu time spent up to now is      279.8 secs

     total energy              =   -7564.92791231 Ry
     estimated scf accuracy    <       0.41122639 Ry

     iteration #  9     ecut=    50.00 Ry     beta= 0.40
     Davidson diagonalization with overlap
     ethr =  5.94E-05,  avg # of iterations =  2.0

     total cpu time spent up to now is      319.9 secs

     total energy              =   -7564.96232696 Ry
     estimated scf accuracy    <       0.04119508 Ry

     iteration # 10     ecut=    50.00 Ry     beta= 0.40
     Davidson diagonalization with overlap
     c_bands:  1 eigenvalues not converged
     c_bands:  1 eigenvalues not converged
     c_bands:  2 eigenvalues not converged
     ethr =  1.17E-05,  avg # of iterations = 18.1

     total cpu time spent up to now is      391.9 secs

     total energy              =   -7564.96787773 Ry
     estimated scf accuracy    <       0.04362529 Ry

     iteration # 11     ecut=    50.00 Ry     beta= 0.40
     Davidson diagonalization with overlap
     c_bands:  1 eigenvalues not converged
     ethr =  1.17E-05,  avg # of iterations =  3.5

     total cpu time spent up to now is      427.9 secs

     total energy              =   -7564.97062742 Ry
     estimated scf accuracy    <       0.00636498 Ry

     iteration # 12     ecut=    50.00 Ry     beta= 0.40
     Davidson diagonalization with overlap
     c_bands:  1 eigenvalues not converged
     ethr =  1.81E-06,  avg # of iterations = 14.2

     total cpu time spent up to now is      492.4 secs

     total energy              =   -7564.97496602 Ry
     estimated scf accuracy    <       0.00936931 Ry

     iteration # 13     ecut=    50.00 Ry     beta= 0.40
     Davidson diagonalization with overlap
     ethr =  1.81E-06,  avg # of iterations =  3.3

     total cpu time spent up to now is      525.0 secs

     total energy              =   -7564.97435654 Ry
     estimated scf accuracy    <       0.00404754 Ry

     iteration # 14     ecut=    50.00 Ry     beta= 0.40
     Davidson diagonalization with overlap
     ethr =  1.15E-06,  avg # of iterations =  3.3

     total cpu time spent up to now is      561.3 secs

     total energy              =   -7564.97484581 Ry
     estimated scf accuracy    <       0.00057477 Ry

     iteration # 15     ecut=    50.00 Ry     beta= 0.40
     Davidson diagonalization with overlap
     ethr =  1.63E-07,  avg # of iterations =  5.0

     total cpu time spent up to now is      611.0 secs

     total energy              =   -7564.97516373 Ry
     estimated scf accuracy    <       0.00025017 Ry

     iteration # 16     ecut=    50.00 Ry     beta= 0.40
     Davidson diagonalization with overlap
     ethr =  7.11E-08,  avg # of iterations =  1.7

     total cpu time spent up to now is      641.2 secs

     total energy              =   -7564.97516014 Ry
     estimated scf accuracy    <       0.00007593 Ry

     iteration # 17     ecut=    50.00 Ry     beta= 0.40
     Davidson diagonalization with overlap
     ethr =  2.16E-08,  avg # of iterations =  2.3

     total cpu time spent up to now is      676.2 secs

     total energy              =   -7564.97516531 Ry
     estimated scf accuracy    <       0.00005015 Ry

     iteration # 18     ecut=    50.00 Ry     beta= 0.40
     Davidson diagonalization with overlap
     ethr =  1.42E-08,  avg # of iterations =  2.3

     total cpu time spent up to now is      710.8 secs

     total energy              =   -7564.97517297 Ry
     estimated scf accuracy    <       0.00000569 Ry

     iteration # 19     ecut=    50.00 Ry     beta= 0.40
     Davidson diagonalization with overlap
     ethr =  1.62E-09,  avg # of iterations =  7.7

     total cpu time spent up to now is      764.7 secs

     total energy              =   -7564.97517645 Ry
     estimated scf accuracy    <       0.00000792 Ry

     iteration # 20     ecut=    50.00 Ry     beta= 0.40
     Davidson diagonalization with overlap
     ethr =  1.62E-09,  avg # of iterations =  2.0

     total cpu time spent up to now is      796.1 secs

     total energy              =   -7564.97517651 Ry
     estimated scf accuracy    <       0.00000244 Ry

     iteration # 21     ecut=    50.00 Ry     beta= 0.40
     Davidson diagonalization with overlap
     ethr =  6.93E-10,  avg # of iterations =  5.1

     total cpu time spent up to now is      836.6 secs

     total energy              =   -7564.97517693 Ry
     estimated scf accuracy    <       0.00000146 Ry

     iteration # 22     ecut=    50.00 Ry     beta= 0.40
     Davidson diagonalization with overlap
     ethr =  4.14E-10,  avg # of iterations =  4.6

     total cpu time spent up to now is      874.3 secs

     total energy              =   -7564.97517717 Ry
     estimated scf accuracy    <       0.00000036 Ry

     iteration # 23     ecut=    50.00 Ry     beta= 0.40
     Davidson diagonalization with overlap
     c_bands:  1 eigenvalues not converged
     ethr =  1.03E-10,  avg # of iterations =  9.1

     total cpu time spent up to now is      920.9 secs

     total energy              =   -7564.97517726 Ry
     estimated scf accuracy    <       0.00000010 Ry

     iteration # 24     ecut=    50.00 Ry     beta= 0.40
     Davidson diagonalization with overlap
     ethr =  2.97E-11,  avg # of iterations =  2.9

     total cpu time spent up to now is      956.6 secs

     total energy              =   -7564.97517725 Ry
     estimated scf accuracy    <       0.00000004 Ry

     iteration # 25     ecut=    50.00 Ry     beta= 0.40
     Davidson diagonalization with overlap
     ethr =  1.04E-11,  avg # of iterations =  5.7

     total cpu time spent up to now is      997.3 secs

     total energy              =   -7564.97517726 Ry
     estimated scf accuracy    <       0.00000002 Ry

     iteration # 26     ecut=    50.00 Ry     beta= 0.40
     Davidson diagonalization with overlap
     ethr =  5.45E-12,  avg # of iterations =  5.2

     total cpu time spent up to now is     1042.4 secs

     total energy              =   -7564.97517726 Ry
     estimated scf accuracy    <       0.00000001 Ry

     iteration # 27     ecut=    50.00 Ry     beta= 0.40
     Davidson diagonalization with overlap
     ethr =  2.91E-12,  avg # of iterations =  2.0

     total cpu time spent up to now is     1075.5 secs

     total energy              =   -7564.97517726 Ry
     estimated scf accuracy    <          3.6E-09 Ry

     iteration # 28     ecut=    50.00 Ry     beta= 0.40
     Davidson diagonalization with overlap
     ethr =  1.03E-12,  avg # of iterations =  2.4

     total cpu time spent up to now is     1110.7 secs

     total energy              =   -7564.97517726 Ry
     estimated scf accuracy    <          3.0E-09 Ry

     iteration # 29     ecut=    50.00 Ry     beta= 0.40
     Davidson diagonalization with overlap
     ethr =  8.63E-13,  avg # of iterations =  1.9

     total cpu time spent up to now is     1142.6 secs

     End of self-consistent calculation

          k = 0.0000 0.0000 0.0000 ( 20929 PWs)   bands (ev):

   -13.6299 -13.3189 -12.2855 -12.0391 -11.4258 -10.6578 -10.0058  -9.7566
    -9.6528  -9.5813  -9.3368  -9.0762  -8.9501  -8.5179  -8.4963  -8.3578
    -8.1382  -8.1279  -7.8993  -7.7997  -7.5942  -7.4686  -7.3488  -7.2898
    -7.1582  -7.0178  -6.8650  -6.7543  -6.6874  -6.5403  -6.3651  -6.3232
    -6.1680  -6.1577  -6.0860  -5.9978  -5.9791  -5.8687  -5.8618  -5.7964
    -5.7522  -5.6859  -5.6494  -5.6295  -5.5269  -5.5061  -5.4844  -5.4424
    -5.3958  -5.3915  -5.3261  -5.2742  -5.2670  -5.2282  -5.2102  -5.1580
    -5.1373  -5.1035  -5.0769  -5.0729  -4.9925  -4.8944  -4.8813  -4.8527
    -4.7937  -4.7853  -4.7733  -4.7462  -4.7192  -4.6047  -4.5861  -4.5836
    -4.5191  -4.5079  -4.4471  -4.4284  -4.3978  -4.3840  -4.3726  -4.3408
    -4.2952  -4.2879  -4.2631  -4.2405  -4.2216  -4.1453  -4.1439  -4.1236
    -4.1205  -4.0529  -3.9523  -3.8932  -3.8200  -3.8147  -3.7141  -3.6090
    -3.5967  -3.5376  -3.2579  -3.1575  -2.9136  -2.8964  -2.6452  -2.2610
     1.8786   1.9271   2.1133   2.1992   2.2443   2.5696   2.8653   3.0956
     3.2813   3.3173   3.6032   3.6246   3.8380   3.9370   4.0940   4.2717
     4.4731   4.6358   4.8597   4.9708   5.1213   5.2300   5.3461   5.4145
     5.6077   5.7898   5.8016   5.8336   5.8625   6.1447   6.1507   6.2587
     6.5067   6.5104   6.7524   6.7975   6.8541   7.0249   7.0821   7.1363
     7.3522   7.4545   7.4655   7.4981   7.5482   7.6125   7.6650   7.8054
     8.0162   8.0673   8.1572   8.3319   8.4113   8.6511   8.7895   8.8881
     8.9342   8.9843   9.0761   9.1431   9.1750   9.3671   9.4885   9.5335
     9.7710   9.8191   9.8729   9.9359  10.0177  10.3225  10.3695  10.3972
    10.5095  10.7209  11.1447  11.5240  11.6974  11.8907  12.1911  12.3427
    12.4153  12.4570  12.7465  13.2041  13.2505  13.7448

          k = 0.0000-0.3333 0.3333 ( 20890 PWs)   bands (ev):

   -13.6237 -13.3273 -12.2800 -12.0412 -11.4252 -10.6599  -9.9932  -9.7779
    -9.6428  -9.6024  -9.2840  -9.1324  -8.9131  -8.5619  -8.4868  -8.4110
    -8.1311  -8.0698  -7.9049  -7.7451  -7.6191  -7.4923  -7.3445  -7.2790
    -7.1428  -6.9924  -6.8116  -6.7654  -6.7018  -6.6506  -6.3158  -6.2895
    -6.1474  -6.1299  -6.0695  -6.0500  -6.0239  -5.8960  -5.8424  -5.8217
    -5.7561  -5.7418  -5.7192  -5.6897  -5.5449  -5.4920  -5.4841  -5.4412
    -5.4123  -5.3355  -5.2833  -5.2585  -5.2399  -5.1957  -5.1813  -5.1738
    -5.1402  -5.1037  -5.0609  -5.0305  -4.9746  -4.8997  -4.8723  -4.8431
    -4.7946  -4.7856  -4.7529  -4.7365  -4.6941  -4.6547  -4.5986  -4.5862
    -4.5442  -4.5005  -4.4502  -4.4184  -4.3738  -4.3551  -4.3383  -4.3306
    -4.3088  -4.2757  -4.2622  -4.2444  -4.2190  -4.1597  -4.1492  -4.1363
    -4.0969  -4.0504  -3.9940  -3.9036  -3.8181  -3.8055  -3.7559  -3.6991
    -3.5982  -3.4701  -3.3201  -3.0628  -2.9360  -2.9086  -2.5950  -2.3113
     1.7896   1.9233   2.0771   2.2355   2.3020   2.5135   2.9951   3.1396
     3.2299   3.3699   3.5646   3.6614   3.8577   3.8932   4.1174   4.3467
     4.5027   4.6194   4.8011   4.8992   5.1215   5.2770   5.3148   5.4136
     5.4977   5.5616   5.6284   5.8335   5.9743   6.1050   6.2122   6.3097
     6.4629   6.5908   6.7408   6.7652   6.8519   7.0321   7.1238   7.3048
     7.3387   7.3820   7.4718   7.5155   7.5694   7.6658   7.7691   7.9779
     8.0413   8.1328   8.1790   8.2374   8.4494   8.5548   8.7541   8.8170
     8.8854   8.9427   9.0627   9.1216   9.1964   9.2556   9.4231   9.5611
     9.6980   9.8737   9.9290  10.0075  10.1683  10.2890  10.3228  10.4658
    10.4944  10.7915  11.1732  11.5058  11.7519  11.8402  12.1297  12.2439
    12.5667  12.6093  12.8233  12.9688  13.2865  13.5366

          k =-0.3333 0.6667-0.3333 ( 20859 PWs)   bands (ev):

   -13.6230 -13.3272 -12.2712 -12.0552 -11.4115 -10.6862  -9.9829  -9.7553
    -9.6662  -9.5650  -9.3604  -9.1041  -8.8455  -8.7176  -8.4267  -8.3210
    -8.1285  -8.1175  -7.9249  -7.6772  -7.6093  -7.5331  -7.3506  -7.2772
    -7.1086  -6.9774  -6.8793  -6.7592  -6.7065  -6.6295  -6.3053  -6.2790
    -6.1977  -6.1037  -6.0503  -6.0247  -5.9767  -5.9160  -5.8911  -5.8472
    -5.8088  -5.7560  -5.7015  -5.6631  -5.5755  -5.5206  -5.4747  -5.4706
    -5.4486  -5.3775  -5.3274  -5.2600  -5.2183  -5.1848  -5.1801  -5.1384
    -5.0783  -5.0642  -5.0454  -5.0185  -5.0020  -4.9416  -4.8775  -4.8423
    -4.7870  -4.7832  -4.7568  -4.7071  -4.6596  -4.6224  -4.6097  -4.5711
    -4.4932  -4.4846  -4.4553  -4.4173  -4.3927  -4.3894  -4.3414  -4.3391
    -4.3087  -4.2968  -4.2279  -4.2018  -4.1913  -4.1836  -4.1362  -4.1182
    -4.0617  -4.0585  -4.0070  -3.9466  -3.8844  -3.8151  -3.7354  -3.7005
    -3.6701  -3.4275  -3.2278  -3.1131  -2.9582  -2.8441  -2.6503  -2.3241
     1.7881   1.9384   2.0766   2.2485   2.3419   2.5634   2.9614   3.0272
     3.1808   3.3083   3.5713   3.6234   3.7705   4.0126   4.2887   4.4054
     4.5397   4.6504   4.7689   4.8353   5.0845   5.2624   5.2918   5.3998
     5.4915   5.5228   5.6238   5.8400   5.9988   6.0534   6.1891   6.3556
     6.4157   6.5342   6.6033   6.8114   6.9059   7.0096   7.0494   7.1448
     7.3488   7.4657   7.6355   7.6623   7.6820   7.7584   7.8293   7.9222
     8.0054   8.1334   8.1998   8.3179   8.3816   8.6851   8.7383   8.8349
     8.8930   8.9402   8.9924   9.0824   9.1847   9.3478   9.4113   9.5268
     9.6243   9.7575   9.9571   9.9691  10.1335  10.2234  10.3937  10.4635
    10.6470  10.8134  11.1912  11.5105  11.6095  11.7925  11.9044  12.4459
    12.6030  12.7584  12.8771  12.9713  13.1052  13.5408

          k = 0.0000 0.0000 0.6667 ( 20826 PWs)   bands (ev):

   -13.6275 -13.3212 -12.2850 -12.0386 -11.4252 -10.6611 -10.0048  -9.7295
    -9.6487  -9.6099  -9.3819  -9.0446  -8.9225  -8.5627  -8.5183  -8.3617
    -8.1273  -8.0789  -7.8770  -7.7460  -7.6346  -7.5154  -7.3552  -7.2844
    -7.1577  -7.0152  -6.8686  -6.7525  -6.6899  -6.5401  -6.3659  -6.3238
    -6.1659  -6.1505  -6.0862  -5.9909  -5.9897  -5.8642  -5.8616  -5.7999
    -5.7353  -5.6752  -5.6498  -5.6290  -5.5243  -5.5103  -5.4830  -5.4457
    -5.3970  -5.3853  -5.3294  -5.2871  -5.2651  -5.2209  -5.2167  -5.1534
    -5.1315  -5.1021  -5.0745  -5.0713  -4.9988  -4.8817  -4.8776  -4.8568
    -4.7912  -4.7825  -4.7744  -4.7457  -4.7117  -4.6124  -4.5897  -4.5779
    -4.5244  -4.5121  -4.4467  -4.4305  -4.4097  -4.3789  -4.3720  -4.3368
    -4.2939  -4.2896  -4.2530  -4.2461  -4.2099  -4.1506  -4.1432  -4.1171
    -4.1145  -4.0561  -3.9474  -3.8972  -3.8437  -3.8079  -3.7457  -3.6128
    -3.5896  -3.5529  -3.2766  -3.1692  -2.9135  -2.8891  -2.6087  -2.2392
     1.8424   1.9207   2.1568   2.1879   2.3476   2.5668   2.8448   3.0816
     3.2274   3.3270   3.5536   3.5776   3.8073   3.8875   4.1498   4.3522
     4.4979   4.5799   4.7783   4.9057   5.0272   5.2339   5.2530   5.5306
     5.5814   5.7152   5.7865   5.9195   6.0586   6.0894   6.1890   6.3165
     6.4186   6.6082   6.6482   6.8645   6.9024   7.0442   7.1085   7.1914
     7.3523   7.3993   7.4833   7.5331   7.5896   7.6631   7.7157   7.8142
     7.9699   8.0100   8.1293   8.2516   8.3655   8.6008   8.6716   8.8357
     8.8580   9.0746   9.1145   9.1660   9.2416   9.3445   9.5201   9.6127
     9.8381   9.8867   9.9338  10.0218  10.2497  10.3079  10.3521  10.4583
    10.5366  10.7098  10.9175  11.4652  11.6152  11.6804  12.2318  12.2545
    12.5341  12.6431  12.8838  13.1277  13.2451  13.7294

          k = 0.0000-0.3333-0.3333 ( 20890 PWs)   bands (ev):

   -13.6255 -13.3243 -12.2814 -12.0421 -11.4251 -10.6616  -9.9883  -9.7738
    -9.6415  -9.6090  -9.3036  -9.1125  -8.9428  -8.5240  -8.4634  -8.3975
    -8.1360  -8.1109  -7.8558  -7.7601  -7.6367  -7.5236  -7.3486  -7.2669
    -7.1443  -6.9917  -6.8106  -6.7717  -6.6984  -6.6497  -6.3138  -6.2930
    -6.1434  -6.1307  -6.0570  -6.0486  -6.0285  -5.8935  -5.8412  -5.8327
    -5.7596  -5.7324  -5.7209  -5.6874  -5.5380  -5.5030  -5.4870  -5.4463
    -5.4100  -5.3326  -5.2833  -5.2600  -5.2345  -5.2019  -5.1859  -5.1765
    -5.1416  -5.1026  -5.0595  -5.0382  -4.9781  -4.9054  -4.8705  -4.8468
    -4.7968  -4.7861  -4.7535  -4.7315  -4.6949  -4.6605  -4.5937  -4.5847
    -4.5426  -4.4875  -4.4562  -4.4171  -4.3696  -4.3604  -4.3488  -4.3280
    -4.3023  -4.2786  -4.2565  -4.2471  -4.2081  -4.1635  -4.1518  -4.1357
    -4.0988  -4.0449  -3.9938  -3.9070  -3.8284  -3.7733  -3.7467  -3.6895
    -3.5722  -3.4820  -3.3296  -3.0661  -2.9454  -2.8995  -2.6157  -2.3150
     1.8155   1.9391   1.9656   2.2050   2.3654   2.5509   2.9679   3.1801
     3.2920   3.3448   3.5533   3.5751   3.7934   4.0138   4.1939   4.3746
     4.3989   4.5952   4.8331   4.9385   5.1021   5.1959   5.3024   5.4182
     5.5129   5.5710   5.7071   5.8981   5.9898   6.0730   6.1984   6.3078
     6.3633   6.4732   6.7081   6.8149   6.8618   7.0458   7.1783   7.2817
     7.3021   7.4151   7.4709   7.5689   7.6549   7.6669   7.7363   7.9711
     7.9906   8.1176   8.1608   8.2439   8.4677   8.5893   8.6464   8.7958
     8.8471   8.9533   9.1083   9.1632   9.2752   9.3429   9.4111   9.5424
     9.7055   9.7908   9.9552  10.0135  10.1406  10.3063  10.3795  10.4404
    10.5037  10.7566  11.1140  11.5488  11.7344  11.9175  12.1414  12.2996
    12.5199  12.5922  12.7044  12.9353  13.4048  13.5611

          k =-0.3333 0.0000-0.3333 ( 20890 PWs)   bands (ev):

   -13.6285 -13.3201 -12.2740 -12.0557 -11.4108 -10.6790 -10.0024  -9.7349
    -9.6711  -9.5930  -9.2872  -9.1674  -8.8396  -8.6664  -8.4271  -8.3256
    -8.1548  -8.1091  -7.9790  -7.6521  -7.6348  -7.5135  -7.3726  -7.2684
    -7.1246  -6.9936  -6.9120  -6.7459  -6.6700  -6.5434  -6.3295  -6.2843
    -6.2363  -6.1044  -6.0554  -5.9973  -5.9635  -5.9438  -5.8775  -5.8248
    -5.8047  -5.7034  -5.6323  -5.6098  -5.5961  -5.5187  -5.4837  -5.4402
    -5.4008  -5.3933  -5.3800  -5.3253  -5.2361  -5.2005  -5.1628  -5.1263
    -5.1164  -5.0804  -5.0662  -5.0484  -4.9951  -4.9746  -4.8921  -4.8596
    -4.8136  -4.7506  -4.7360  -4.7154  -4.6478  -4.6310  -4.5970  -4.5565
    -4.5014  -4.4922  -4.4546  -4.4354  -4.4220  -4.3931  -4.3631  -4.3419
    -4.2994  -4.2883  -4.2262  -4.2023  -4.1942  -4.1734  -4.1450  -4.1329
    -4.0763  -4.0584  -3.9687  -3.9141  -3.9074  -3.7870  -3.7385  -3.6754
    -3.6654  -3.4199  -3.2791  -3.1169  -2.9610  -2.7980  -2.6800  -2.2835
     1.8683   1.9626   2.1124   2.1733   2.3349   2.6695   2.6863   3.0577
     3.1624   3.2682   3.3943   3.6953   3.8783   4.0238   4.2703   4.3523
     4.4561   4.6976   4.9274   5.0227   5.0870   5.2198   5.2952   5.4349
     5.4887   5.6318   5.7247   5.8642   5.8868   6.0321   6.3293   6.3942
     6.4053   6.5277   6.6085   6.7511   6.8585   6.9803   7.1738   7.2545
     7.2874   7.3299   7.5117   7.5654   7.6680   7.7222   7.8140   7.8749
     7.9845   8.0874   8.1480   8.2301   8.3922   8.6372   8.7191   8.7765
     8.8653   8.9572   9.0022   9.1416   9.2106   9.3701   9.4967   9.5122
     9.6674   9.8356   9.9773   9.9984  10.1402  10.3248  10.3862  10.4468
    10.4969  10.8343  11.2280  11.4213  11.6012  11.8831  12.0620  12.3504
    12.4957  12.6299  12.9045  13.1053  13.3019  13.4836

          k = 0.3333 0.0000-0.3333 ( 20890 PWs)   bands (ev):

   -13.6265 -13.3227 -12.2735 -12.0551 -11.4115 -10.6866  -9.9812  -9.7327
    -9.6711  -9.6032  -9.3049  -9.1498  -8.8627  -8.6704  -8.4180  -8.2859
    -8.1671  -8.1126  -7.9707  -7.6732  -7.5859  -7.5385  -7.3722  -7.2851
    -7.1177  -6.9929  -6.9159  -6.7537  -6.6876  -6.5436  -6.3330  -6.2909
    -6.2486  -6.0918  -6.0563  -5.9963  -5.9657  -5.9404  -5.8790  -5.8304
    -5.7906  -5.7008  -5.6349  -5.6024  -5.5889  -5.5151  -5.4839  -5.4353
    -5.4044  -5.4000  -5.3799  -5.3281  -5.2310  -5.2026  -5.1636  -5.1302
    -5.1178  -5.0795  -5.0675  -5.0457  -4.9893  -4.9784  -4.8935  -4.8490
    -4.8188  -4.7619  -4.7414  -4.7150  -4.6429  -4.6270  -4.6006  -4.5587
    -4.5009  -4.4900  -4.4496  -4.4282  -4.4057  -4.3958  -4.3575  -4.3487
    -4.3069  -4.2945  -4.2389  -4.2051  -4.1902  -4.1729  -4.1448  -4.1316
    -4.0707  -4.0576  -3.9701  -3.9232  -3.9039  -3.7898  -3.7287  -3.6820
    -3.6165  -3.4091  -3.2808  -3.1429  -2.9645  -2.8176  -2.6911  -2.2741
     1.7907   1.9859   2.1288   2.2101   2.3518   2.6988   2.7766   3.0137
     3.1391   3.2455   3.4297   3.6502   3.8544   4.0086   4.3350   4.3501
     4.4261   4.6938   4.9323   4.9421   5.0353   5.1668   5.3380   5.4893
     5.5598   5.6604   5.7370   5.7453   5.9110   6.0701   6.2494   6.3523
     6.4420   6.5516   6.6682   6.7376   6.8567   6.9695   7.0933   7.1960
     7.3612   7.3949   7.4323   7.5371   7.7050   7.7888   7.7946   7.8996
     7.9628   8.1010   8.1490   8.2466   8.3144   8.6734   8.7406   8.8422
     8.9109   8.9880   8.9953   9.1470   9.2356   9.3194   9.5303   9.5698
     9.7003   9.8167   9.9095   9.9989  10.1614  10.2484  10.3671  10.4481
    10.5281  10.8007  11.2272  11.4540  11.6170  11.8173  12.0671  12.3970
    12.4011  12.5736  12.8706  13.1988  13.3116  13.6105

          k = 0.3333 0.3333 0.0000 ( 20890 PWs)   bands (ev):

   -13.6231 -13.3272 -12.2723 -12.0563 -11.4098 -10.6803  -9.9852  -9.7915
    -9.6738  -9.5268  -9.3182  -9.1278  -8.8808  -8.6811  -8.4191  -8.2807
    -8.1775  -8.1177  -7.9925  -7.6529  -7.6199  -7.5156  -7.3523  -7.2538
    -7.1198  -6.9782  -6.8785  -6.7556  -6.6896  -6.6282  -6.3061  -6.2783
    -6.1933  -6.1105  -6.0495  -6.0277  -5.9691  -5.9204  -5.8899  -5.8479
    -5.8118  -5.7610  -5.7106  -5.6698  -5.5731  -5.5177  -5.4849  -5.4773
    -5.4455  -5.3713  -5.3340  -5.2614  -5.2071  -5.1923  -5.1779  -5.1324
    -5.0801  -5.0630  -5.0463  -5.0195  -5.0003  -4.9413  -4.8809  -4.8464
    -4.7908  -4.7803  -4.7566  -4.7053  -4.6692  -4.6238  -4.6135  -4.5669
    -4.4996  -4.4831  -4.4566  -4.4127  -4.3943  -4.3787  -4.3457  -4.3399
    -4.3084  -4.2898  -4.2322  -4.2066  -4.1908  -4.1873  -4.1358  -4.1093
    -4.0680  -4.0545  -4.0060  -3.9340  -3.8810  -3.8102  -3.7322  -3.6856
    -3.6335  -3.4304  -3.2586  -3.1248  -2.9337  -2.8390  -2.6905  -2.3285
     1.7846   1.9330   2.0635   2.2575   2.3011   2.5448   3.0010   3.0187
     3.1657   3.3580   3.5730   3.7345   3.8192   3.9830   4.2237   4.4314
     4.5196   4.6262   4.7923   4.9065   5.0449   5.1497   5.2785   5.3870
     5.4678   5.6232   5.7295   5.8486   5.9782   6.0946   6.1735   6.2724
     6.3969   6.4973   6.6488   6.7767   6.8430   6.9137   7.0777   7.1683
     7.4123   7.4266   7.6090   7.6615   7.6985   7.7253   7.8686   7.9456
     8.0374   8.1289   8.1866   8.2672   8.5181   8.6910   8.7172   8.7964
     8.8373   8.9001   8.9789   9.1329   9.2312   9.3539   9.4341   9.4669
     9.6262   9.7925   9.9121  10.0398  10.0936  10.2312  10.3327  10.4842
    10.5026  10.8016  11.2413  11.5744  11.8254  11.9165  12.0575  12.2433
    12.4083  12.4825  12.8477  13.0132  13.2869  13.4918

          k =-0.3333 0.3333 0.0000 ( 20890 PWs)   bands (ev):

   -13.6257 -13.3232 -12.2747 -12.0531 -11.4122 -10.6852  -9.9836  -9.7449
    -9.6658  -9.5934  -9.3101  -9.1550  -8.8539  -8.6805  -8.4118  -8.3274
    -8.1531  -8.1076  -7.9167  -7.6875  -7.6186  -7.5348  -7.3514  -7.2815
    -7.1077  -6.9678  -6.8787  -6.7514  -6.7070  -6.6325  -6.3178  -6.2603
    -6.1720  -6.0845  -6.0667  -6.0154  -5.9957  -5.9341  -5.8935  -5.8638
    -5.8160  -5.7811  -5.6687  -5.6508  -5.5666  -5.5302  -5.5061  -5.4610
    -5.4203  -5.3736  -5.3111  -5.2780  -5.2354  -5.2102  -5.1643  -5.1247
    -5.0959  -5.0690  -5.0499  -5.0192  -4.9873  -4.9568  -4.8940  -4.8441
    -4.7983  -4.7608  -4.7432  -4.6947  -4.6622  -4.6241  -4.5851  -4.5748
    -4.5135  -4.4616  -4.4364  -4.4087  -4.4063  -4.3898  -4.3689  -4.3438
    -4.3063  -4.2745  -4.2391  -4.2168  -4.1991  -4.1779  -4.1346  -4.1159
    -4.0759  -4.0377  -4.0014  -3.9219  -3.8960  -3.8243  -3.7587  -3.6821
    -3.6597  -3.5003  -3.1556  -3.0971  -2.9671  -2.8166  -2.6993  -2.3256
     1.8321   1.9475   2.0726   2.2414   2.3370   2.4616   2.7937   3.1518
     3.2286   3.4462   3.4947   3.6832   3.9458   4.0116   4.1957   4.3464
     4.4631   4.5981   4.7878   4.9222   5.0031   5.2120   5.2927   5.4170
     5.4519   5.5688   5.6448   5.8097   5.9965   6.1425   6.2288   6.3338
     6.4073   6.4789   6.6322   6.7482   6.8754   7.0158   7.0833   7.1357
     7.3890   7.4844   7.5413   7.6129   7.6451   7.8318   7.8655   7.9470
     8.0048   8.1749   8.1998   8.3868   8.4703   8.6599   8.8040   8.8104
     8.8478   8.9760   9.0662   9.1145   9.1742   9.3076   9.3818   9.5107
     9.6619   9.7020   9.7986   9.9748  10.1392  10.2584  10.3390  10.4298
    10.5186  10.7984  11.2416  11.3204  11.6758  11.8351  12.0917  12.4594
    12.5526  12.7704  12.8295  12.9949  13.2489  13.3868

          k = 0.3333 0.6667 0.3333 ( 20859 PWs)   bands (ev):

   -13.6235 -13.3258 -12.2752 -12.0536 -11.4104 -10.6852  -9.9739  -9.7711
    -9.6784  -9.5682  -9.2934  -9.1560  -8.8687  -8.6778  -8.4107  -8.3038
    -8.1646  -8.1130  -7.9430  -7.6409  -7.6195  -7.5692  -7.3616  -7.2624
    -7.1151  -6.9682  -6.8795  -6.7542  -6.7017  -6.6277  -6.3183  -6.2704
    -6.1722  -6.0859  -6.0681  -6.0178  -5.9814  -5.9335  -5.8974  -5.8633
    -5.8159  -5.7774  -5.6624  -5.6588  -5.5677  -5.5274  -5.5123  -5.4586
    -5.4286  -5.3736  -5.3119  -5.2780  -5.2315  -5.2118  -5.1643  -5.1210
    -5.0944  -5.0680  -5.0483  -5.0160  -4.9887  -4.9574  -4.9006  -4.8423
    -4.8009  -4.7652  -4.7369  -4.6941  -4.6669  -4.6293  -4.5795  -4.5763
    -4.5166  -4.4651  -4.4325  -4.4073  -4.4035  -4.3922  -4.3656  -4.3450
    -4.3053  -4.2663  -4.2390  -4.2235  -4.2101  -4.1740  -4.1264  -4.1166
    -4.0704  -4.0380  -3.9961  -3.9277  -3.8859  -3.8217  -3.7362  -3.6888
    -3.6283  -3.4857  -3.2042  -3.1152  -2.9518  -2.8325  -2.7085  -2.3146
     1.7722   1.9435   2.0546   2.2699   2.3292   2.5187   2.8273   3.1406
     3.1808   3.4794   3.4902   3.6837   3.9548   4.0540   4.1729   4.3269
     4.4933   4.5589   4.8274   4.9744   4.9937   5.1030   5.2232   5.3786
     5.5043   5.6552   5.6699   5.8853   5.9443   6.0870   6.2759   6.3009
     6.4299   6.4811   6.6292   6.7543   6.9346   6.9833   7.0956   7.1786
     7.3137   7.4476   7.5021   7.6904   7.7414   7.8052   7.8645   7.9390
     7.9704   8.0660   8.1809   8.2583   8.4402   8.5786   8.7189   8.8036
     8.8799   8.9422   9.0139   9.1363   9.2786   9.3309   9.4198   9.5011
     9.6881   9.7817   9.8210  10.0700  10.1322  10.2521  10.4081  10.4986
    10.6384  10.7806  11.1826  11.5031  11.7767  11.8187  12.0926  12.3435
    12.3790  12.7150  12.7417  12.9733  13.2365  13.4866

          k =-0.3333-0.6667 0.3333 ( 20859 PWs)   bands (ev):

   -13.6236 -13.3260 -12.2747 -12.0535 -11.4101 -10.6807  -9.9869  -9.7773
    -9.6711  -9.5651  -9.2673  -9.1804  -8.8319  -8.7026  -8.4139  -8.3600
    -8.1334  -8.0955  -7.9703  -7.6489  -7.6196  -7.5349  -7.3621  -7.2604
    -7.1179  -6.9681  -6.8793  -6.7446  -6.6958  -6.6292  -6.3183  -6.2619
    -6.1647  -6.0942  -6.0689  -6.0242  -5.9897  -5.9336  -5.8954  -5.8524
    -5.8199  -5.7784  -5.6702  -5.6588  -5.5594  -5.5305  -5.5131  -5.4666
    -5.4264  -5.3723  -5.3090  -5.2768  -5.2362  -5.2113  -5.1597  -5.1232
    -5.0946  -5.0678  -5.0462  -5.0147  -4.9802  -4.9606  -4.8920  -4.8375
    -4.8069  -4.7634  -4.7408  -4.6940  -4.6669  -4.6270  -4.5828  -4.5773
    -4.5120  -4.4608  -4.4450  -4.4099  -4.4024  -4.3885  -4.3734  -4.3452
    -4.2956  -4.2714  -4.2404  -4.2218  -4.2017  -4.1779  -4.1296  -4.1180
    -4.0769  -4.0405  -3.9967  -3.9264  -3.8871  -3.8146  -3.7426  -3.7034
    -3.6573  -3.4859  -3.1767  -3.1362  -2.9406  -2.8291  -2.6855  -2.3181
     1.7811   1.9385   2.1672   2.2651   2.2802   2.4025   2.8036   3.1130
     3.2591   3.4387   3.5224   3.7798   3.9102   4.0044   4.2265   4.2959
     4.4688   4.6191   4.7498   4.9220   4.9770   5.1093   5.3556   5.4423
     5.5306   5.5944   5.7264   5.8402   5.9239   6.0576   6.2261   6.2432
     6.4703   6.6068   6.7055   6.7639   6.8668   6.9656   7.0442   7.2376
     7.3320   7.4191   7.5502   7.6174   7.6608   7.7701   7.8998   7.9569
     8.0036   8.0557   8.2133   8.3305   8.3961   8.6482   8.7251   8.7716
     8.8304   8.8710   9.0228   9.1360   9.2266   9.3241   9.3851   9.5227
     9.5759   9.7992   9.9615  10.0623  10.1165  10.2264  10.4373  10.4818
    10.6324  10.8117  11.2066  11.5097  11.7443  11.8373  12.0802  12.2946
    12.4297  12.7288  12.8559  12.9454  13.1850  13.4577

          k = 0.6667-0.3333 0.3333 ( 20859 PWs)   bands (ev):

   -13.6248 -13.3244 -12.2722 -12.0558 -11.4112 -10.6833  -9.9918  -9.7509
    -9.6685  -9.5629  -9.3615  -9.1044  -8.8650  -8.6798  -8.4289  -8.3112
    -8.1526  -8.1175  -7.9187  -7.6826  -7.5978  -7.5600  -7.3560  -7.2624
    -7.1128  -6.9758  -6.8767  -6.7600  -6.6972  -6.6280  -6.3038  -6.2722
    -6.1979  -6.1045  -6.0484  -6.0215  -5.9731  -5.9200  -5.8840  -5.8526
    -5.8150  -5.7591  -5.6997  -5.6711  -5.5717  -5.5230  -5.4846  -5.4712
    -5.4392  -5.3758  -5.3300  -5.2628  -5.2173  -5.1902  -5.1806  -5.1346
    -5.0861  -5.0627  -5.0452  -5.0192  -5.0044  -4.9389  -4.8859  -4.8412
    -4.7839  -4.7699  -4.7596  -4.7052  -4.6619  -4.6277  -4.6122  -4.5694
    -4.4968  -4.4805  -4.4557  -4.4155  -4.4041  -4.3841  -4.3441  -4.3396
    -4.3168  -4.2838  -4.2307  -4.1991  -4.1878  -4.1860  -4.1346  -4.1109
    -4.0644  -4.0534  -4.0063  -3.9380  -3.8931  -3.8067  -3.7491  -3.6994
    -3.6664  -3.4282  -3.2430  -3.0918  -2.9630  -2.8270  -2.6592  -2.3317
     1.8353   1.9440   1.9946   2.2588   2.3280   2.5737   2.9104   3.0094
     3.2322   3.3446   3.5047   3.6574   3.7924   4.0782   4.2388   4.4606
     4.4890   4.5945   4.8286   4.9351   5.0684   5.1531   5.3075   5.3535
     5.4254   5.5924   5.6556   5.9028   6.0358   6.0657   6.2367   6.2899
     6.3522   6.5016   6.6216   6.7531   6.9209   7.0182   7.0853   7.2454
     7.3405   7.4315   7.5091   7.6014   7.6608   7.7819   7.9346   7.9831
     8.0241   8.1509   8.1935   8.2878   8.3787   8.6250   8.7247   8.7950
     8.8537   8.9387   9.0288   9.1077   9.2652   9.3290   9.3995   9.4519
     9.6879   9.7002   9.9200  10.0089  10.1436  10.3172  10.3900  10.4392
    10.6458  10.8113  11.0970  11.5427  11.6066  11.7955  12.0106  12.4840
    12.5394  12.7709  12.8763  13.0490  13.0737  13.4283

          k = 0.6667 0.0000 0.0000 ( 20826 PWs)   bands (ev):

   -13.6263 -13.3225 -12.2735 -12.0551 -11.4109 -10.6840  -9.9925  -9.7199
    -9.6724  -9.6044  -9.3374  -9.1267  -8.8289  -8.6988  -8.4262  -8.3247
    -8.1277  -8.0968  -7.9692  -7.6664  -7.5899  -7.5654  -7.3721  -7.2743
    -7.1214  -6.9924  -6.9138  -6.7527  -6.6764  -6.5433  -6.3317  -6.2885
    -6.2426  -6.0950  -6.0558  -5.9951  -5.9734  -5.9351  -5.8779  -5.8264
    -5.7960  -5.6936  -5.6306  -5.6064  -5.5898  -5.5154  -5.4873  -5.4418
    -5.4073  -5.3945  -5.3810  -5.3226  -5.2403  -5.2017  -5.1565  -5.1331
    -5.1168  -5.0768  -5.0606  -5.0476  -4.9949  -4.9760  -4.8906  -4.8540
    -4.8108  -4.7537  -4.7379  -4.7152  -4.6406  -4.6311  -4.5999  -4.5572
    -4.5011  -4.4934  -4.4528  -4.4448  -4.4099  -4.3939  -4.3603  -4.3442
    -4.3013  -4.2914  -4.2324  -4.2022  -4.1877  -4.1728  -4.1496  -4.1265
    -4.0706  -4.0614  -3.9706  -3.9235  -3.9080  -3.7876  -3.7292  -3.7010
    -3.6492  -3.3976  -3.2994  -3.1429  -2.9609  -2.8163  -2.6544  -2.2672
     1.8316   1.9620   2.1438   2.2091   2.4029   2.6644   2.7281   3.0433
     3.1290   3.2633   3.3779   3.6429   3.7707   4.0833   4.2943   4.3803
     4.4665   4.6409   4.9154   4.9231   5.0117   5.1743   5.2753   5.3930
     5.5813   5.6349   5.7591   5.9078   5.9275   6.0389   6.1628   6.3489
     6.4372   6.5775   6.6534   6.7488   6.9377   6.9915   7.1326   7.1837
     7.2964   7.4358   7.5158   7.6027   7.6882   7.7125   7.8689   7.8873
     7.9612   7.9923   8.1589   8.2615   8.4305   8.7297   8.7774   8.8544
     8.8725   8.9835   9.0969   9.1643   9.2925   9.3693   9.3943   9.5945
     9.6308   9.7365   9.9121  10.0532  10.1635  10.2856  10.3440  10.5014
    10.6282  10.7200  10.9006  11.3700  11.7220  11.7580  11.9702  12.3941
    12.5442  12.7571  12.9452  13.1578  13.3027  13.4474

          k = 0.0000 0.6667 0.0000 ( 20826 PWs)   bands (ev):

   -13.6233 -13.3270 -12.2804 -12.0413 -11.4250 -10.6619  -9.9915  -9.7689
    -9.6345  -9.6142  -9.3311  -9.0930  -8.9213  -8.5573  -8.4974  -8.3922
    -8.1293  -8.0658  -7.8687  -7.7468  -7.6378  -7.5254  -7.3474  -7.2728
    -7.1433  -6.9907  -6.8153  -6.7678  -6.6989  -6.6492  -6.3158  -6.2934
    -6.1467  -6.1285  -6.0551  -6.0476  -6.0303  -5.8977  -5.8395  -5.8233
    -5.7560  -5.7280  -5.7207  -5.6905  -5.5372  -5.4976  -5.4919  -5.4452
    -5.4084  -5.3318  -5.2821  -5.2618  -5.2420  -5.2034  -5.1813  -5.1746
    -5.1400  -5.1000  -5.0606  -5.0336  -4.9762  -4.9008  -4.8682  -4.8410
    -4.7987  -4.7786  -4.7515  -4.7349  -4.6937  -4.6568  -4.6007  -4.5836
    -4.5418  -4.4951  -4.4532  -4.4196  -4.3762  -4.3552  -4.3484  -4.3281
    -4.3068  -4.2685  -4.2614  -4.2498  -4.2081  -4.1653  -4.1519  -4.1354
    -4.0888  -4.0502  -3.9927  -3.9031  -3.8301  -3.8095  -3.7466  -3.6966
    -3.6093  -3.4399  -3.3547  -3.0752  -2.9373  -2.9031  -2.5857  -2.3007
     1.7894   1.9406   2.0365   2.2598   2.3456   2.5437   2.9724   3.1652
     3.2649   3.3494   3.4504   3.6286   3.8128   3.9704   4.1426   4.3715
     4.4592   4.5723   4.7635   4.9306   5.0953   5.1918   5.2495   5.4196
     5.5290   5.5854   5.6166   5.8304   6.0288   6.1091   6.2316   6.3368
     6.4550   6.5400   6.6344   6.8161   6.9186   6.9988   7.0786   7.3038
     7.3542   7.4366   7.4705   7.5884   7.6061   7.6701   7.8124   7.9518
     8.0042   8.1993   8.2317   8.2842   8.4060   8.6152   8.7735   8.7995
     8.8958   8.9917   9.1121   9.1200   9.2362   9.2878   9.4970   9.5278
     9.6027   9.8754   9.9261  10.0098  10.2306  10.2478  10.3270  10.4855
    10.5375  10.7009  10.9255  11.5329  11.6194  11.7948  12.0610  12.3394
    12.6573  12.7172  12.7997  13.0426  13.2478  13.7029

     highest occupied, lowest unoccupied level (ev):    10.5014   10.4944

!    total energy              =   -7564.97517726 Ry
     total all-electron energy =   -191820.368074 Ry
     estimated scf accuracy    <          5.1E-10 Ry

     The total energy is the sum of the following terms:
     one-electron contribution =   -1292.91027419 Ry
     hartree contribution      =     966.62555855 Ry
     xc contribution           =    -925.82425894 Ry
     ewald contribution        =   -1719.40755935 Ry
     one-center paw contrib.   =   -4593.45864334 Ry

     convergence has been achieved in  29 iterations

     Forces acting on atoms (cartesian axes, Ry/au):

     atom    1 type  1   force =     0.00000000    0.00000000    0.00000000
     atom    2 type  1   force =     0.00000000    0.00000000    0.00000000
     atom    3 type  1   force =     0.00000000    0.00000000    0.00000000
     atom    4 type  1   force =     0.00000000    0.00000000    0.00000000
     atom    5 type  1   force =    -0.22713677   -0.17471318   -0.09296631
     atom    6 type  1   force =     0.58421432   -0.55360667   -0.32200258
     atom    7 type  1   force =     0.04335698    0.02824304   -0.15568701
     atom    8 type  1   force =     0.67365748   -0.70768462   -0.30288867
     atom    9 type  1   force =    -0.07260834    0.26118238   -0.07532604
     atom   10 type  1   force =    -0.10482545   -0.34568819   -0.14388955
     atom   11 type  1   force =     0.22713677    0.17471318    0.09296631
     atom   12 type  1   force =    -0.58421432    0.55360667    0.32200258
     atom   13 type  1   force =    -0.04335698   -0.02824304    0.15568701
     atom   14 type  1   force =    -0.67365748    0.70768462    0.30288867
     atom   15 type  1   force =     0.07260834   -0.26118238    0.07532604
     atom   16 type  1   force =     0.10482545    0.34568819    0.14388955
     atom   17 type  2   force =     0.00800158    0.08068426   -0.09088427
     atom   18 type  2   force =    -0.34425763    0.54005398    0.22795581
     atom   19 type  2   force =    -0.17747864   -0.10465878    0.18520405
     atom   20 type  2   force =     0.12558941   -0.12542973   -0.08668167
     atom   21 type  2   force =     0.01139958   -0.03311584   -0.06764295
     atom   22 type  2   force =     0.07896227    0.21927493    0.09361163
     atom   23 type  2   force =    -0.03842599   -0.10265653    0.03471641
     atom   24 type  2   force =     0.06507677    0.15264239    0.21738298
     atom   25 type  2   force =     0.04573878   -0.11360663   -0.08851211
     atom   26 type  2   force =    -0.48774633    0.63056478    0.70962997
     atom   27 type  2   force =    -0.01119075    0.04203168    0.03536825
     atom   28 type  2   force =    -0.11917827   -0.02372633    0.13213123
     atom   29 type  2   force =    -0.00800158   -0.08068426    0.09088427
     atom   30 type  2   force =     0.34425763   -0.54005398   -0.22795581
     atom   31 type  2   force =     0.17747864    0.10465878   -0.18520405
     atom   32 type  2   force =    -0.12558941    0.12542973    0.08668167
     atom   33 type  2   force =    -0.01139958    0.03311584    0.06764295
     atom   34 type  2   force =    -0.07896227   -0.21927493   -0.09361163
     atom   35 type  2   force =     0.03842599    0.10265653   -0.03471641
     atom   36 type  2   force =    -0.06507677   -0.15264239   -0.21738298
     atom   37 type  2   force =    -0.04573878    0.11360663    0.08851211
     atom   38 type  2   force =     0.48774633   -0.63056478   -0.70962997
     atom   39 type  2   force =     0.01119075   -0.04203168   -0.03536825
     atom   40 type  2   force =     0.11917827    0.02372633   -0.13213123

     Total force =     2.861046     Total SCF correction =     0.000051


     Computing stress (Cartesian axis) and pressure

          total   stress  (Ry/bohr**3)                   (kbar)     P=      765.01
   0.00708647  -0.00079961  -0.00030813         1042.46     -117.63      -45.33
  -0.00079961   0.00756805   0.00034304         -117.63     1113.30       50.46
  -0.00030813   0.00034304   0.00094682          -45.33       50.46      139.28


     Writing all to output data dir ./tmp/ec50.save/ :
     XML data file, charge density, pseudopotentials, collected wavefunctions

     init_run     :     16.46s CPU     17.12s WALL (       1 calls)
     electrons    :   1083.26s CPU   1124.45s WALL (       1 calls)
     forces       :      6.44s CPU      6.77s WALL (       1 calls)
     stress       :     21.52s CPU     21.65s WALL (       1 calls)

     Called by init_run:
     wfcinit      :     13.05s CPU     13.13s WALL (       1 calls)
     potinit      :      1.77s CPU      2.08s WALL (       1 calls)
     hinit0       :      0.51s CPU      0.56s WALL (       1 calls)

     Called by electrons:
     c_bands      :    908.49s CPU    936.94s WALL (      29 calls)
     sum_band     :    126.80s CPU    134.51s WALL (      29 calls)
     v_of_rho     :      7.50s CPU      8.30s WALL (      30 calls)
     newd         :      8.07s CPU     11.18s WALL (      30 calls)
     PAW_pot      :     32.35s CPU     32.46s WALL (      30 calls)
     mix_rho      :      1.03s CPU      1.10s WALL (      29 calls)

     Called by c_bands:
     init_us_2    :      7.59s CPU      7.81s WALL (     427 calls)
     cegterg      :    841.43s CPU    865.25s WALL (     203 calls)

     Called by *egterg:
     cdiaghg      :     43.06s CPU     43.21s WALL (    1044 calls)
     h_psi        :    490.28s CPU    504.56s WALL (    1051 calls)
     s_psi        :     70.45s CPU     71.56s WALL (    1051 calls)
     g_psi        :      1.92s CPU      1.98s WALL (     841 calls)

     Called by h_psi:
     h_psi:calbec :     73.14s CPU     74.74s WALL (    1051 calls)
     vloc_psi     :    344.10s CPU    353.31s WALL (    1051 calls)
                                        0.00s GPU  (    1051 calls)
     add_vuspsi   :     71.16s CPU     72.21s WALL (    1051 calls)

     General routines
     calbec       :    118.15s CPU    118.02s WALL (    1373 calls)
     fft          :      5.75s CPU      6.36s WALL (     413 calls)
     ffts         :      0.29s CPU      0.31s WALL (      59 calls)
     fftw         :    362.79s CPU    375.71s WALL (  231070 calls)
     interpolate  :      0.72s CPU      0.78s WALL (      30 calls)

     Parallel routines

     PWSCF        :  18m48.44s CPU  19m44.90s WALL


   This run was terminated on:   4:58: 2  27Sep2026            

=------------------------------------------------------------------------------=
   JOB DONE.
=------------------------------------------------------------------------------=
Note: The following floating-point exceptions are signalling: IEEE_INVALID_FLAG IEEE_UNDERFLOW_FLAG IEEE_DENORMAL
Note: The following floating-point exceptions are signalling: IEEE_INVALID_FLAG IEEE_UNDERFLOW_FLAG IEEE_DENORMAL
Note: The following floating-point exceptions are signalling: IEEE_INVALID_FLAG IEEE_UNDERFLOW_FLAG IEEE_DENORMAL
Note: The following floating-point exceptions are signalling: IEEE_INVALID_FLAG IEEE_UNDERFLOW_FLAG IEEE_DENORMAL
Note: The following floating-point exceptions are signalling: IEEE_INVALID_FLAG IEEE_UNDERFLOW_FLAG IEEE_DENORMAL
Note: The following floating-point exceptions are signalling: IEEE_INVALID_FLAG IEEE_UNDERFLOW_FLAG IEEE_DENORMAL
Note: The following floating-point exceptions are signalling: IEEE_INVALID_FLAG IEEE_UNDERFLOW_FLAG IEEE_DENORMAL
Note: The following floating-point exceptions are signalling: IEEE_INVALID_FLAG
Note: The following floating-point exceptions are signalling: IEEE_INVALID_FLAG
Note: The following floating-point exceptions are signalling: IEEE_INVALID_FLAG IEEE_UNDERFLOW_FLAG IEEE_DENORMAL
