
     Program PWSCF v.7.5 starts on 27Sep2026 at  5:12:22 

     This program is part of the open-source Quantum ESPRESSO suite
     for quantum simulation of materials; please cite
         "P. Giannozzi et al., J. Phys.:Condens. Matter 21 395502 (2009);
         "P. Giannozzi et al., J. Phys.:Condens. Matter 29 465901 (2017);
         "P. Giannozzi et al., J. Chem. Phys. 152 154105 (2020);
          URL http://www.quantum-espresso.org", 
     in publications or presentations arising from this work. More details at
     http://www.quantum-espresso.org/quote

     Parallel version (MPI & OpenMP), running on      10 processor cores
     Number of MPI processes:                10
     Threads/MPI process:                     1

     MPI processes distributed on     1 nodes
     12232 MiB available memory on the printing compute node when the environment starts

     Reading input from scf_ecut50_k3.in
Warning: card &CELL ignored
Warning: card   PRESS_CONV_THR = 0.2 ignored

     Current dimensions of program PWSCF are:
     Max number of different atomic species (ntypx) = 10
     Max number of k-points (npk) =  40000
     Max angular momentum in pseudopotentials (lmaxx) =  4
     file In.pbe-dn-kjpaw_psl.1.0.0.UPF: wavefunction(s)  5S 5P 4D renormalized
     file O.pbe-n-kjpaw_psl.1.0.0.UPF: wavefunction(s)  2S 2P renormalized

     K-points division:     npool     =       2
     R & G space division:  proc/nbgrp/npool/nimage =       5
     Subspace diagonalization in iterative solution of the eigenvalue problem:
     one sub-group per band group will be used
     ELPA distributed-memory algorithm (size of sub-group:  2*  2 procs)


     Parallelization info
     --------------------
     sticks:   dense  smooth     PW     G-vecs:    dense   smooth      PW
     Min        1644     823    222                94342    33375    4662
     Max        1645     824    223                94343    33377    4663
     Sum        8223    4119   1113               471713   166879   23311

     Using Slab Decomposition



     bravais-lattice index     =            3
     lattice parameter (alat)  =      19.1184  a.u.
     unit-cell volume          =    3493.9916 (a.u.)^3
     number of atoms/cell      =           40
     number of atomic types    =            2
     number of electrons       =       352.00
     number of Kohn-Sham states=          190
     kinetic-energy cutoff     =      50.0000  Ry
     charge density cutoff     =     400.0000  Ry
     scf convergence threshold =      1.0E-09
     mixing beta               =       0.4000
     number of iterations used =            8  plain     mixing
     Exchange-correlation= SLA  PW   PBX  PBC
                           (   1   4   3   4   0   0   0)

     celldm(1)=  19.118359  celldm(2)=   0.000000  celldm(3)=   0.000000
     celldm(4)=   0.000000  celldm(5)=   0.000000  celldm(6)=   0.000000

     crystal axes: (cart. coord. in units of alat)
               a(1) = (   0.500000   0.500000   0.500000 )  
               a(2) = (  -0.500000   0.500000   0.500000 )  
               a(3) = (  -0.500000  -0.500000   0.500000 )  

     reciprocal axes: (cart. coord. in units 2 pi/alat)
               b(1) = (  1.000000  0.000000  1.000000 )  
               b(2) = ( -1.000000  1.000000  0.000000 )  
               b(3) = (  0.000000 -1.000000  1.000000 )  


     PseudoPot. # 1 for In read from file:
     ../pseudo/In.pbe-dn-kjpaw_psl.1.0.0.UPF
     MD5 check sum: 235b15e6a7fdfd96486e0ecdcb5b12c6
     Pseudo is Projector augmented-wave + core cor, Zval = 13.0
     Generated using &quot;atomic&quot; code by A. Dal Corso  v.6.3
     Shape of augmentation charge: PSQ
     Using radial grid of 1241 points,  6 beta functions with: 
                l(1) =   0
                l(2) =   0
                l(3) =   1
                l(4) =   1
                l(5) =   2
                l(6) =   2
     Q(r) pseudized with 0 coefficients 


     PseudoPot. # 2 for O  read from file:
     ../pseudo/O.pbe-n-kjpaw_psl.1.0.0.UPF
     MD5 check sum: e99d9cef9b487d1ca56f5b95ecd0fd7a
     Pseudo is Projector augmented-wave + core cor, Zval =  6.0
     Generated using &quot;atomic&quot; code by A. Dal Corso  v.6.3
     Shape of augmentation charge: PSQ
     Using radial grid of 1095 points,  4 beta functions with: 
                l(1) =   0
                l(2) =   0
                l(3) =   1
                l(4) =   1
     Q(r) pseudized with 0 coefficients 


     atomic species   valence    mass     pseudopotential
     In               13.00   114.81800     In( 1.00)
     O                 6.00    15.99900     O ( 1.00)

      2 Sym. Ops., with inversion, found



   Cartesian axes

     site n.     atom                  positions (alat units)
         1        In     tau(   1) = (  -0.2500000   0.2500000   0.7500000  )
         2        In     tau(   2) = (   0.2500000   0.2500000   0.2500000  )
         3        In     tau(   3) = (  -0.2500000  -0.2500000   0.2500000  )
         4        In     tau(   4) = (  -0.2500000   0.2500000   0.2500000  )
         5        In     tau(   5) = (  -0.4664000  -0.2500000   0.7164000  )
         6        In     tau(   6) = (  -0.0336000   0.2500000   0.7836000  )
         7        In     tau(   7) = (   0.2500000   0.5000000   0.7164000  )
         8        In     tau(   8) = (  -0.2500000   0.5000000   0.7836000  )
         9        In     tau(   9) = (  -0.5000000   0.4664000   0.7164000  )
        10        In     tau(  10) = (  -0.5000000   0.0336000   0.7836000  )
        11        In     tau(  11) = (  -0.0336000   0.7500000   0.7836000  )
        12        In     tau(  12) = (  -0.4664000   0.2500000   0.7164000  )
        13        In     tau(  13) = (  -0.7500000   0.0000000   0.7836000  )
        14        In     tau(  14) = (  -0.2500000  -0.0000000   0.7164000  )
        15        In     tau(  15) = (   0.0000000   0.0336000   0.7836000  )
        16        In     tau(  16) = (   0.0000000   0.4664000   0.7164000  )
        17        O      tau(  17) = (  -0.3905000   0.3832000   0.9266000  )
        18        O      tau(  18) = (  -0.6095000   0.3832000   1.3398000  )
        19        O      tau(  19) = (  -0.1095000   0.6168000   0.8792000  )
        20        O      tau(  20) = (   0.1095000   0.6168000   0.8544000  )
        21        O      tau(  21) = (  -0.3832000   0.1529000   0.9266000  )
        22        O      tau(  22) = (  -0.3832000   0.3471000   1.3398000  )
        23        O      tau(  23) = (  -0.6168000   0.1529000   0.8792000  )
        24        O      tau(  24) = (  -0.6168000   0.3471000   0.8544000  )
        25        O      tau(  25) = (  -0.1529000   0.3905000   0.9266000  )
        26        O      tau(  26) = (  -0.3471000   0.6095000   1.3398000  )
        27        O      tau(  27) = (  -0.1529000   0.1095000   0.8792000  )
        28        O      tau(  28) = (  -0.3471000  -0.1095000   0.8544000  )
        29        O      tau(  29) = (  -0.1095000   0.1168000   0.5734000  )
        30        O      tau(  30) = (   0.1095000   0.1168000   0.1602000  )
        31        O      tau(  31) = (  -0.3905000  -0.1168000   0.6208000  )
        32        O      tau(  32) = (  -0.6095000  -0.1168000   0.6456000  )
        33        O      tau(  33) = (  -0.1168000   0.3471000   0.5734000  )
        34        O      tau(  34) = (  -0.1168000   0.1529000   0.1602000  )
        35        O      tau(  35) = (   0.1168000   0.3471000   0.6208000  )
        36        O      tau(  36) = (   0.1168000   0.1529000   0.6456000  )
        37        O      tau(  37) = (  -0.3471000   0.1095000   0.5734000  )
        38        O      tau(  38) = (  -0.1529000  -0.1095000   0.1602000  )
        39        O      tau(  39) = (  -0.3471000   0.3905000   0.6208000  )
        40        O      tau(  40) = (  -0.1529000   0.6095000   0.6456000  )

     number of k points=    14
                       cart. coord. in units 2pi/alat
        k(    1) = (   0.0000000   0.0000000   0.0000000), wk =   0.0740741
        k(    2) = (   0.0000000  -0.3333333   0.3333333), wk =   0.1481481
        k(    3) = (  -0.3333333   0.6666667  -0.3333333), wk =   0.1481481
        k(    4) = (   0.0000000   0.0000000   0.6666667), wk =   0.1481481
        k(    5) = (   0.0000000  -0.3333333  -0.3333333), wk =   0.1481481
        k(    6) = (  -0.3333333   0.0000000  -0.3333333), wk =   0.1481481
        k(    7) = (   0.3333333   0.0000000  -0.3333333), wk =   0.1481481
        k(    8) = (   0.3333333   0.3333333   0.0000000), wk =   0.1481481
        k(    9) = (  -0.3333333   0.3333333   0.0000000), wk =   0.1481481
        k(   10) = (   0.3333333   0.6666667   0.3333333), wk =   0.1481481
        k(   11) = (  -0.3333333  -0.6666667   0.3333333), wk =   0.1481481
        k(   12) = (   0.6666667  -0.3333333   0.3333333), wk =   0.1481481
        k(   13) = (   0.6666667   0.0000000   0.0000000), wk =   0.1481481
        k(   14) = (   0.0000000   0.6666667   0.0000000), wk =   0.1481481

     Dense  grid:   471713 G-vectors     FFT dimensions: ( 108, 108, 108)

     Smooth grid:   166879 G-vectors     FFT dimensions: (  75,  75,  75)

     Estimated max dynamical RAM per process >     374.87 MB

     Estimated total dynamical RAM >       3.55 GB

     Check: negative core charge=   -0.000001

     Initial potential from superposition of free atoms

     starting charge     351.9405, renormalised to     352.0000
     Starting wfcs are  240 randomized atomic wfcs
     Checking if some PAW data can be deallocated... 

     total cpu time spent up to now is       18.7 secs

     per-process dynamical memory:   220.1 Mb

     Self-consistent Calculation

     iteration #  1     ecut=    50.00 Ry     beta= 0.40
     Davidson diagonalization with overlap
     ethr =  1.00E-02,  avg # of iterations =  2.0

     total cpu time spent up to now is       54.3 secs

     total energy              =   -7558.11297192 Ry
     estimated scf accuracy    <      17.31111990 Ry

     iteration #  2     ecut=    50.00 Ry     beta= 0.40
     Davidson diagonalization with overlap
     ethr =  4.92E-03,  avg # of iterations =  4.1

     total cpu time spent up to now is       94.7 secs

     total energy              =   -7560.53700975 Ry
     estimated scf accuracy    <      16.98765888 Ry

     iteration #  3     ecut=    50.00 Ry     beta= 0.40
     Davidson diagonalization with overlap
     ethr =  4.83E-03,  avg # of iterations =  2.0

     total cpu time spent up to now is      130.0 secs

     total energy              =   -7563.93588012 Ry
     estimated scf accuracy    <      10.87691671 Ry

     iteration #  4     ecut=    50.00 Ry     beta= 0.40
     Davidson diagonalization with overlap
     ethr =  3.09E-03,  avg # of iterations =  1.8

     total cpu time spent up to now is      163.5 secs

     total energy              =   -7564.81326399 Ry
     estimated scf accuracy    <       3.80764754 Ry

     iteration #  5     ecut=    50.00 Ry     beta= 0.40
     Davidson diagonalization with overlap
     ethr =  1.08E-03,  avg # of iterations =  2.0

     total cpu time spent up to now is      198.1 secs

     total energy              =   -7565.07447721 Ry
     estimated scf accuracy    <       1.44174723 Ry

     iteration #  6     ecut=    50.00 Ry     beta= 0.40
     Davidson diagonalization with overlap
--------------------------------------------------------------------------
prterun noticed that process rank 0 with PID 3948 on node dell exited on
signal 15 (Terminated).
--------------------------------------------------------------------------
