
     Program PWSCF v.7.5 starts on  6Oct2026 at 10:30: 8 

     This program is part of the open-source Quantum ESPRESSO suite
     for quantum simulation of materials; please cite
         "P. Giannozzi et al., J. Phys.:Condens. Matter 21 395502 (2009);
         "P. Giannozzi et al., J. Phys.:Condens. Matter 29 465901 (2017);
         "P. Giannozzi et al., J. Chem. Phys. 152 154105 (2020);
          URL http://www.quantum-espresso.org", 
     in publications or presentations arising from this work. More details at
     http://www.quantum-espresso.org/quote

     Parallel version (MPI & OpenMP), running on      11 processor cores
     Number of MPI processes:                11
     Threads/MPI process:                     1

     MPI processes distributed on     1 nodes
     44644 MiB available memory on the printing compute node when the environment starts

     Reading input from bands.in

     Current dimensions of program PWSCF are:
     Max number of different atomic species (ntypx) = 10
     Max number of k-points (npk) =  40000
     Max angular momentum in pseudopotentials (lmaxx) =  4
     file In.pbe-dn-kjpaw_psl.1.0.0.UPF: wavefunction(s)  5S 5P 4D renormalized
     file O.pbe-n-kjpaw_psl.1.0.0.UPF: wavefunction(s)  2S 2P renormalized
     file H.pbe-kjpaw_psl.1.0.0.UPF: wavefunction(s)  1S renormalized

     Atomic positions and unit cell read from directory:
     ./tmp/slab.save/

     Message from routine setup:
     using ibrav=0 with symmetry is DISCOURAGED, use correct ibrav instead

     R & G space division:  proc/nbgrp/npool/nimage =      11
     Subspace diagonalization in iterative solution of the eigenvalue problem:
     one sub-group per band group will be used
     ELPA distributed-memory algorithm (size of sub-group:  2*  2 procs)


     Parallelization info
     --------------------
     sticks:   dense  smooth     PW     G-vecs:    dense   smooth      PW
     Min        1574     787    200               489005   172869   22222
     Max        1576     787    201               489008   172871   22231
     Sum       17319    8657   2209              5379071  1901577  244507

     Using Slab Decomposition



     bravais-lattice index     =            0
     lattice parameter (alat)  =      19.7068  a.u.
     unit-cell volume          =   23529.3301 (a.u.)^3
     number of atoms/cell      =           76
     number of atomic types    =            3
     number of electrons       =       448.00
     number of Kohn-Sham states=          240
     kinetic-energy cutoff     =      71.0000  Ry
     charge density cutoff     =     568.0000  Ry
     Exchange-correlation= SLA  PW   PBX  PBC
                           (   1   4   3   4   0   0   0)

     celldm(1)=  19.706818  celldm(2)=   0.000000  celldm(3)=   0.000000
     celldm(4)=   0.000000  celldm(5)=   0.000000  celldm(6)=   0.000000

     crystal axes: (cart. coord. in units of alat)
               a(1) = (   1.000000   0.000000   0.000000 )  
               a(2) = (   0.000000   0.987000   0.000000 )  
               a(3) = (   0.000000   0.000000   3.114891 )  

     reciprocal axes: (cart. coord. in units 2 pi/alat)
               b(1) = (  1.000000  0.000000  0.000000 )  
               b(2) = (  0.000000  1.013171  0.000000 )  
               b(3) = (  0.000000  0.000000  0.321039 )  


     PseudoPot. # 1 for In read from file:
     ./In.pbe-dn-kjpaw_psl.1.0.0.UPF
     MD5 check sum: 235b15e6a7fdfd96486e0ecdcb5b12c6
     Pseudo is Projector augmented-wave + core cor, Zval = 13.0
     Generated using &quot;atomic&quot; code by A. Dal Corso  v.6.3
     Shape of augmentation charge: PSQ
     Using radial grid of 1241 points,  6 beta functions with: 
                l(1) =   0
                l(2) =   0
                l(3) =   1
                l(4) =   1
                l(5) =   2
                l(6) =   2
     Q(r) pseudized with 0 coefficients 


     PseudoPot. # 2 for O  read from file:
     ./O.pbe-n-kjpaw_psl.1.0.0.UPF
     MD5 check sum: e99d9cef9b487d1ca56f5b95ecd0fd7a
     Pseudo is Projector augmented-wave + core cor, Zval =  6.0
     Generated using &quot;atomic&quot; code by A. Dal Corso  v.6.3
     Shape of augmentation charge: PSQ
     Using radial grid of 1095 points,  4 beta functions with: 
                l(1) =   0
                l(2) =   0
                l(3) =   1
                l(4) =   1
     Q(r) pseudized with 0 coefficients 


     PseudoPot. # 3 for H  read from file:
     ./H.pbe-kjpaw_psl.1.0.0.UPF
     MD5 check sum: d81a744832360e4a8af0b0b5b123bc2a
     Pseudo is Projector augmented-wave, Zval =  1.0
     Generated using &quot;atomic&quot; code by A. Dal Corso  v.6.3MaX
     Shape of augmentation charge: PSQ
     Using radial grid of  929 points,  2 beta functions with: 
                l(1) =   0
                l(2) =   0
     Q(r) pseudized with 0 coefficients 


     atomic species   valence    mass     pseudopotential
     In               13.00   114.81800     In( 1.00)
     O                 6.00    15.99900     O ( 1.00)
     H                 1.00     1.00800     H ( 1.00)

      4 Sym. Ops. (no inversion) found ( 3 have fractional translation)


                                    s                        frac. trans.

      isym =  1     identity                                     

 cryst.   s( 1) = (     1          0          0      )
                  (     0          1          0      )
                  (     0          0          1      )

 cart.    s( 1) = (  1.0000000  0.0000000  0.0000000 )
                  (  0.0000000  1.0000000  0.0000000 )
                  (  0.0000000  0.0000000  1.0000000 )


      isym =  2     180 deg rotation - cart. axis [0,0,1]        

 cryst.   s( 2) = (    -1          0          0      )    f =(  0.0000000 )
                  (     0         -1          0      )       ( -0.5000000 )
                  (     0          0          1      )       (  0.0000000 )

 cart.    s( 2) = ( -1.0000000  0.0000000  0.0000000 )    f =(  0.0000000 )
                  (  0.0000000 -1.0000000  0.0000000 )       ( -0.4935001 )
                  (  0.0000000  0.0000000  1.0000000 )       (  0.0000000 )


      isym =  3     inv. 180 deg rotation - cart. axis [0,1,0]   

 cryst.   s( 3) = (     1          0          0      )    f =(  0.5000000 )
                  (     0         -1          0      )       (  0.0000000 )
                  (     0          0          1      )       (  0.0000000 )

 cart.    s( 3) = (  1.0000000  0.0000000  0.0000000 )    f =(  0.5000000 )
                  (  0.0000000 -1.0000000  0.0000000 )       (  0.0000000 )
                  (  0.0000000  0.0000000  1.0000000 )       (  0.0000000 )


      isym =  4     inv. 180 deg rotation - cart. axis [1,0,0]   

 cryst.   s( 4) = (    -1          0          0      )    f =( -0.5000000 )
                  (     0          1          0      )       (  0.5000000 )
                  (     0          0          1      )       (  0.0000000 )

 cart.    s( 4) = ( -1.0000000  0.0000000  0.0000000 )    f =( -0.5000000 )
                  (  0.0000000  1.0000000  0.0000000 )       (  0.4935001 )
                  (  0.0000000  0.0000000  1.0000000 )       (  0.0000000 )


   Cartesian axes

     site n.     atom                  positions (alat units)
         1        In     tau(   1) = (   0.2461859   0.2513815   1.4265344  )
         2        In     tau(   2) = (   0.7538141   0.2421185   1.4265344  )
         3        In     tau(   3) = (   0.2538141   0.7448816   1.4265344  )
         4        In     tau(   4) = (   0.0361935   0.4976317   1.4274493  )
         5        In     tau(   5) = (   0.7490208   0.4541202   1.6717310  )
         6        In     tau(   6) = (   0.2509792   0.0393799   1.6717310  )
         7        In     tau(   7) = (   0.5000000   0.7402501   1.6394497  )
         8        In     tau(   8) = (   0.4638065   0.0041316   1.4274493  )
         9        In     tau(   9) = (   0.0000000   0.2467500   1.6394497  )
        10        In     tau(  10) = (   0.7461859   0.7356186   1.4265344  )
        11        In     tau(  11) = (   0.9638065  -0.0041316   1.4274493  )
        12        In     tau(  12) = (   0.0000000   0.7402501   1.7066354  )
        13        In     tau(  13) = (   0.5361935   0.4893684   1.4274493  )
        14        In     tau(  14) = (   0.2490208   0.5328799   1.6717310  )
        15        In     tau(  15) = (   0.7509792   0.9476202   1.6717310  )
        16        In     tau(  16) = (   0.5000000   0.2467500   1.7066354  )
        17        O      tau(  17) = (   0.3882773   0.1581944   1.5547899  )
        18        O      tau(  18) = (   0.6117227   0.3353057   1.5547899  )
        19        O      tau(  19) = (   0.1317808   0.1758942   1.7847163  )
        20        O      tau(  20) = (   0.8682192   0.3176058   1.7847163  )
        21        O      tau(  21) = (   0.3808955   0.3889068   1.3329857  )
        22        O      tau(  22) = (   0.3855122   0.6030594   1.5222585  )
        23        O      tau(  23) = (   0.6191045   0.1045932   1.3329857  )
        24        O      tau(  24) = (   0.6144878   0.8774408   1.5222585  )
        25        O      tau(  25) = (   0.1543579   0.3817108   1.5650400  )
        26        O      tau(  26) = (   0.3503137   0.3816429   1.7727857  )
        27        O      tau(  27) = (   0.1858026   0.5950510   1.2980809  )
        28        O      tau(  28) = (   0.0986373   0.3388109   1.3047749  )
        29        O      tau(  29) = (   0.9013627   0.1546892   1.3047749  )
        30        O      tau(  30) = (   0.1144878   0.1095593   1.5222585  )
        31        O      tau(  31) = (   0.1191045   0.8824069   1.3329857  )
        32        O      tau(  32) = (   0.8855122   0.3839407   1.5222585  )
        33        O      tau(  33) = (   0.8808955   0.5980933   1.3329857  )
        34        O      tau(  34) = (   0.3141974   0.1015509   1.2980809  )
        35        O      tau(  35) = (   0.3456421   0.8752108   1.5650400  )
        36        O      tau(  36) = (   0.1496863   0.8751430   1.7727857  )
        37        O      tau(  37) = (   0.5986373   0.6481892   1.3047749  )
        38        O      tau(  38) = (   0.4013627   0.8323109   1.3047749  )
        39        O      tau(  39) = (   0.8969227   0.8961195   1.8178937  )
        40        O      tau(  40) = (   0.1030773   0.5843807   1.8178937  )
        41        O      tau(  41) = (   0.8141974   0.8854492   1.2980809  )
        42        O      tau(  42) = (   0.6496863   0.1118571   1.7727857  )
        43        O      tau(  43) = (   0.8456421   0.1117893   1.5650400  )
        44        O      tau(  44) = (   0.6317808   0.8111059   1.7847163  )
        45        O      tau(  45) = (   0.3682192   0.6693943   1.7847163  )
        46        O      tau(  46) = (   0.8882773   0.8288057   1.5547899  )
        47        O      tau(  47) = (   0.1117227   0.6516944   1.5547899  )
        48        O      tau(  48) = (   0.6030773   0.4026194   1.8178937  )
        49        O      tau(  49) = (   0.3969227   0.0908806   1.8178937  )
        50        O      tau(  50) = (   0.8503137   0.6053572   1.7727857  )
        51        O      tau(  51) = (   0.6543579   0.6052893   1.5650400  )
        52        O      tau(  52) = (   0.6858026   0.3919491   1.2980809  )
        53        H      tau(  53) = (   0.1861631   0.2482670   1.8100297  )
        54        H      tau(  54) = (   0.8138369   0.2452330   1.8100297  )
        55        H      tau(  55) = (   0.3230055   0.4586296   1.3059128  )
        56        H      tau(  56) = (   0.6769945   0.0348705   1.3059128  )
        57        H      tau(  57) = (   0.4076439   0.4298659   1.8299338  )
        58        H      tau(  58) = (   0.1406043   0.6370443   1.2280096  )
        59        H      tau(  59) = (   0.1353700   0.3739010   1.2266524  )
        60        H      tau(  60) = (   0.8646300   0.1195990   1.2266524  )
        61        H      tau(  61) = (   0.1769945   0.9521296   1.3059128  )
        62        H      tau(  62) = (   0.8230055   0.5283706   1.3059128  )
        63        H      tau(  63) = (   0.3593957   0.1435442   1.2280096  )
        64        H      tau(  64) = (   0.0923561   0.9233659   1.8299338  )
        65        H      tau(  65) = (   0.6353700   0.6130991   1.2266524  )
        66        H      tau(  66) = (   0.3646300   0.8674011   1.2266524  )
        67        H      tau(  67) = (   0.8501732   0.8675416   1.8934058  )
        68        H      tau(  68) = (   0.1498268   0.6129586   1.8934058  )
        69        H      tau(  69) = (   0.8593957   0.8434559   1.2280096  )
        70        H      tau(  70) = (   0.5923561   0.0636342   1.8299338  )
        71        H      tau(  71) = (   0.6861631   0.7387331   1.8100297  )
        72        H      tau(  72) = (   0.3138369   0.7417671   1.8100297  )
        73        H      tau(  73) = (   0.6498268   0.3740416   1.8934058  )
        74        H      tau(  74) = (   0.3501732   0.1194585   1.8934058  )
        75        H      tau(  75) = (   0.9076439   0.5571342   1.8299338  )
        76        H      tau(  76) = (   0.6406043   0.3499558   1.2280096  )

   Crystallographic axes

     site n.     atom                  positions (cryst. coord.)
         1        In     tau(   1) = (  0.2461859  0.2546925  0.4579725  )
         2        In     tau(   2) = (  0.7538141  0.2453075  0.4579725  )
         3        In     tau(   3) = (  0.2538141  0.7546925  0.4579725  )
         4        In     tau(   4) = (  0.0361935  0.5041860  0.4582662  )
         5        In     tau(   5) = (  0.7490208  0.4601014  0.5366901  )
         6        In     tau(   6) = (  0.2509792  0.0398986  0.5366901  )
         7        In     tau(   7) = (  0.5000000  0.7500000  0.5263265  )
         8        In     tau(   8) = (  0.4638065  0.0041860  0.4582662  )
         9        In     tau(   9) = (  0.0000000  0.2500000  0.5263265  )
        10        In     tau(  10) = (  0.7461859  0.7453075  0.4579725  )
        11        In     tau(  11) = (  0.9638065 -0.0041860  0.4582662  )
        12        In     tau(  12) = (  0.0000000  0.7500000  0.5478957  )
        13        In     tau(  13) = (  0.5361935  0.4958140  0.4582662  )
        14        In     tau(  14) = (  0.2490208  0.5398986  0.5366901  )
        15        In     tau(  15) = (  0.7509792  0.9601014  0.5366901  )
        16        In     tau(  16) = (  0.5000000  0.2500000  0.5478957  )
        17        O      tau(  17) = (  0.3882773  0.1602780  0.4991474  )
        18        O      tau(  18) = (  0.6117227  0.3397220  0.4991474  )
        19        O      tau(  19) = (  0.1317808  0.1782110  0.5729627  )
        20        O      tau(  20) = (  0.8682192  0.3217890  0.5729627  )
        21        O      tau(  21) = (  0.3808955  0.3940291  0.4279398  )
        22        O      tau(  22) = (  0.3855122  0.6110024  0.4887036  )
        23        O      tau(  23) = (  0.6191045  0.1059709  0.4279398  )
        24        O      tau(  24) = (  0.6144878  0.8889976  0.4887036  )
        25        O      tau(  25) = (  0.1543579  0.3867383  0.5024381  )
        26        O      tau(  26) = (  0.3503137  0.3866696  0.5691325  )
        27        O      tau(  27) = (  0.1858026  0.6028885  0.4167340  )
        28        O      tau(  28) = (  0.0986373  0.3432734  0.4188830  )
        29        O      tau(  29) = (  0.9013627  0.1567266  0.4188830  )
        30        O      tau(  30) = (  0.1144878  0.1110024  0.4887036  )
        31        O      tau(  31) = (  0.1191045  0.8940291  0.4279398  )
        32        O      tau(  32) = (  0.8855122  0.3889976  0.4887036  )
        33        O      tau(  33) = (  0.8808955  0.6059709  0.4279398  )
        34        O      tau(  34) = (  0.3141974  0.1028885  0.4167340  )
        35        O      tau(  35) = (  0.3456421  0.8867383  0.5024381  )
        36        O      tau(  36) = (  0.1496863  0.8866696  0.5691325  )
        37        O      tau(  37) = (  0.5986373  0.6567266  0.4188830  )
        38        O      tau(  38) = (  0.4013627  0.8432734  0.4188830  )
        39        O      tau(  39) = (  0.8969227  0.9079224  0.5836139  )
        40        O      tau(  40) = (  0.1030773  0.5920776  0.5836139  )
        41        O      tau(  41) = (  0.8141974  0.8971115  0.4167340  )
        42        O      tau(  42) = (  0.6496863  0.1133304  0.5691325  )
        43        O      tau(  43) = (  0.8456421  0.1132617  0.5024381  )
        44        O      tau(  44) = (  0.6317808  0.8217890  0.5729627  )
        45        O      tau(  45) = (  0.3682192  0.6782110  0.5729627  )
        46        O      tau(  46) = (  0.8882773  0.8397220  0.4991474  )
        47        O      tau(  47) = (  0.1117227  0.6602780  0.4991474  )
        48        O      tau(  48) = (  0.6030773  0.4079224  0.5836139  )
        49        O      tau(  49) = (  0.3969227  0.0920776  0.5836139  )
        50        O      tau(  50) = (  0.8503137  0.6133304  0.5691325  )
        51        O      tau(  51) = (  0.6543579  0.6132617  0.5024381  )
        52        O      tau(  52) = (  0.6858026  0.3971115  0.4167340  )
        53        H      tau(  53) = (  0.1861631  0.2515370  0.5810893  )
        54        H      tau(  54) = (  0.8138369  0.2484630  0.5810893  )
        55        H      tau(  55) = (  0.3230055  0.4646702  0.4192483  )
        56        H      tau(  56) = (  0.6769945  0.0353298  0.4192483  )
        57        H      tau(  57) = (  0.4076439  0.4355277  0.5874792  )
        58        H      tau(  58) = (  0.1406043  0.6454349  0.3942384  )
        59        H      tau(  59) = (  0.1353700  0.3788257  0.3938027  )
        60        H      tau(  60) = (  0.8646300  0.1211743  0.3938027  )
        61        H      tau(  61) = (  0.1769945  0.9646702  0.4192483  )
        62        H      tau(  62) = (  0.8230055  0.5353298  0.4192483  )
        63        H      tau(  63) = (  0.3593957  0.1454349  0.3942384  )
        64        H      tau(  64) = (  0.0923561  0.9355277  0.5874792  )
        65        H      tau(  65) = (  0.6353700  0.6211743  0.3938027  )
        66        H      tau(  66) = (  0.3646300  0.8788257  0.3938027  )
        67        H      tau(  67) = (  0.8501732  0.8789681  0.6078562  )
        68        H      tau(  68) = (  0.1498268  0.6210319  0.6078562  )
        69        H      tau(  69) = (  0.8593957  0.8545651  0.3942384  )
        70        H      tau(  70) = (  0.5923561  0.0644723  0.5874792  )
        71        H      tau(  71) = (  0.6861631  0.7484630  0.5810893  )
        72        H      tau(  72) = (  0.3138369  0.7515370  0.5810893  )
        73        H      tau(  73) = (  0.6498268  0.3789681  0.6078562  )
        74        H      tau(  74) = (  0.3501732  0.1210319  0.6078562  )
        75        H      tau(  75) = (  0.9076439  0.5644723  0.5874792  )
        76        H      tau(  76) = (  0.6406043  0.3545651  0.3942384  )

     number of k points=    21
                       cart. coord. in units 2pi/alat
        k(    1) = (   0.0000000   0.0000000   0.0000000), wk =   0.0952381
        k(    2) = (   0.0246040   0.0000000   0.0000000), wk =   0.0952381
        k(    3) = (   0.0492080   0.0000000   0.0000000), wk =   0.0952381
        k(    4) = (   0.0738119   0.0000000   0.0000000), wk =   0.0952381
        k(    5) = (   0.0984159   0.0000000   0.0000000), wk =   0.0952381
        k(    6) = (   0.1230199   0.0000000   0.0000000), wk =   0.0952381
        k(    7) = (   0.1476239   0.0000000   0.0000000), wk =   0.0952381
        k(    8) = (   0.1722278   0.0000000   0.0000000), wk =   0.0952381
        k(    9) = (   0.1968318   0.0000000   0.0000000), wk =   0.0952381
        k(   10) = (   0.2214358   0.0000000   0.0000000), wk =   0.0952381
        k(   11) = (   0.2460398   0.0000000   0.0000000), wk =   0.0952381
        k(   12) = (   0.0173976   0.0173976   0.0000000), wk =   0.0952381
        k(   13) = (   0.0347953   0.0347953   0.0000000), wk =   0.0952381
        k(   14) = (   0.0521929   0.0521929   0.0000000), wk =   0.0952381
        k(   15) = (   0.0695906   0.0695906   0.0000000), wk =   0.0952381
        k(   16) = (   0.0869882   0.0869882   0.0000000), wk =   0.0952381
        k(   17) = (   0.1043858   0.1043858   0.0000000), wk =   0.0952381
        k(   18) = (   0.1217835   0.1217835   0.0000000), wk =   0.0952381
        k(   19) = (   0.1391811   0.1391811   0.0000000), wk =   0.0952381
        k(   20) = (   0.1565788   0.1565788   0.0000000), wk =   0.0952381
        k(   21) = (   0.1739764   0.1739764   0.0000000), wk =   0.0952381

                       cryst. coord.
        k(    1) = (   0.0000000   0.0000000   0.0000000), wk =   0.0952381
        k(    2) = (   0.0246040   0.0000000   0.0000000), wk =   0.0952381
        k(    3) = (   0.0492080   0.0000000   0.0000000), wk =   0.0952381
        k(    4) = (   0.0738119   0.0000000   0.0000000), wk =   0.0952381
        k(    5) = (   0.0984159   0.0000000   0.0000000), wk =   0.0952381
        k(    6) = (   0.1230199   0.0000000   0.0000000), wk =   0.0952381
        k(    7) = (   0.1476239   0.0000000   0.0000000), wk =   0.0952381
        k(    8) = (   0.1722279   0.0000000   0.0000000), wk =   0.0952381
        k(    9) = (   0.1968318   0.0000000   0.0000000), wk =   0.0952381
        k(   10) = (   0.2214358   0.0000000   0.0000000), wk =   0.0952381
        k(   11) = (   0.2460398   0.0000000   0.0000000), wk =   0.0952381
        k(   12) = (   0.0173976   0.0171715   0.0000000), wk =   0.0952381
        k(   13) = (   0.0347953   0.0343429   0.0000000), wk =   0.0952381
        k(   14) = (   0.0521929   0.0515144   0.0000000), wk =   0.0952381
        k(   15) = (   0.0695906   0.0686859   0.0000000), wk =   0.0952381
        k(   16) = (   0.0869882   0.0858574   0.0000000), wk =   0.0952381
        k(   17) = (   0.1043858   0.1030288   0.0000000), wk =   0.0952381
        k(   18) = (   0.1217835   0.1202003   0.0000000), wk =   0.0952381
        k(   19) = (   0.1391811   0.1373718   0.0000000), wk =   0.0952381
        k(   20) = (   0.1565788   0.1545433   0.0000000), wk =   0.0952381
        k(   21) = (   0.1739764   0.1717147   0.0000000), wk =   0.0952381

     Dense  grid:  5379071 G-vectors     FFT dimensions: ( 150, 150, 480)

     Smooth grid:  1901577 G-vectors     FFT dimensions: ( 108, 108, 360)

     Dynamical RAM for                 wfc:      79.13 MB

     Dynamical RAM for     wfc (w. buffer):      79.13 MB

     Dynamical RAM for           str. fact:      22.38 MB

     Dynamical RAM for           local pot:       0.00 MB

     Dynamical RAM for          nlocal pot:     205.75 MB

     Dynamical RAM for                qrad:       5.74 MB

     Dynamical RAM for          rho,v,vnew:      45.04 MB

     Dynamical RAM for           G-vectors:      29.30 MB

     Dynamical RAM for          h,s,v(r/c):       2.64 MB

     Dynamical RAM for          <psi|beta>:       2.29 MB

     Dynamical RAM for                 psi:     158.27 MB

     Dynamical RAM for                hpsi:     158.27 MB

     Dynamical RAM for                spsi:     158.27 MB

     Dynamical RAM for      wfcinit/wfcrot:     159.59 MB

     Dynamical RAM for           addusdens:    1656.48 MB

     Estimated static dynamical RAM per process >     454.96 MB

     Estimated max dynamical RAM per process >       2.06 GB

     Estimated total dynamical RAM >      22.68 GB

     The potential is recalculated from file :
     ./tmp/slab.save/charge-density


     negative rho (up, down):  1.582E-03 0.000E+00
     Starting wfcs are  312 randomized atomic wfcs
     Checking if some PAW data can be deallocated... 
       PAW data deallocated on    8 nodes for type:  1
       PAW data deallocated on    5 nodes for type:  2
       PAW data deallocated on    7 nodes for type:  3

     Band Structure Calculation
     Davidson diagonalization with overlap

     Computing kpt #:     1  of    21
     c_bands:  2 eigenvalues not converged
     total cpu time spent up to now is      254.7 secs

     Computing kpt #:     2  of    21
     c_bands:  2 eigenvalues not converged
     total cpu time spent up to now is      500.6 secs

     Computing kpt #:     3  of    21
     c_bands:  3 eigenvalues not converged
     total cpu time spent up to now is      747.8 secs

     Computing kpt #:     4  of    21
     c_bands: 13 eigenvalues not converged
     total cpu time spent up to now is      994.8 secs

     Computing kpt #:     5  of    21
     c_bands:  2 eigenvalues not converged
     total cpu time spent up to now is     1251.9 secs

     Computing kpt #:     6  of    21
     c_bands:  2 eigenvalues not converged
     total cpu time spent up to now is     1492.8 secs

     Computing kpt #:     7  of    21
     c_bands:  4 eigenvalues not converged
     total cpu time spent up to now is     1746.2 secs

     Computing kpt #:     8  of    21
     c_bands:  3 eigenvalues not converged
     total cpu time spent up to now is     1990.8 secs

     Computing kpt #:     9  of    21
     c_bands:  5 eigenvalues not converged
     total cpu time spent up to now is     2250.6 secs

     Computing kpt #:    10  of    21
     c_bands:  5 eigenvalues not converged
     total cpu time spent up to now is     2493.8 secs

     Computing kpt #:    11  of    21
     c_bands:  4 eigenvalues not converged
     total cpu time spent up to now is     2743.7 secs

     Computing kpt #:    12  of    21
     c_bands:  3 eigenvalues not converged
     total cpu time spent up to now is     2988.7 secs

     Computing kpt #:    13  of    21
     c_bands:  2 eigenvalues not converged
     total cpu time spent up to now is     3236.4 secs

     Computing kpt #:    14  of    21
     c_bands:  3 eigenvalues not converged
     total cpu time spent up to now is     3487.1 secs

     Computing kpt #:    15  of    21
     c_bands:  3 eigenvalues not converged
     total cpu time spent up to now is     3734.7 secs

     Computing kpt #:    16  of    21
     c_bands:  3 eigenvalues not converged
     total cpu time spent up to now is     3982.7 secs

     Computing kpt #:    17  of    21
     c_bands:  4 eigenvalues not converged
     total cpu time spent up to now is     4230.8 secs

     Computing kpt #:    18  of    21
     c_bands:  4 eigenvalues not converged
     total cpu time spent up to now is     4476.0 secs

     Computing kpt #:    19  of    21
     c_bands: 11 eigenvalues not converged
     total cpu time spent up to now is     4715.3 secs

     Computing kpt #:    20  of    21
     c_bands:  4 eigenvalues not converged
     total cpu time spent up to now is     4955.0 secs

     Computing kpt #:    21  of    21
     c_bands:  4 eigenvalues not converged
     total cpu time spent up to now is     5204.1 secs

     ethr =  2.23E-13,  avg # of iterations =120.0

     total cpu time spent up to now is     5204.1 secs

     End of band structure calculation

          k = 0.0000 0.0000 0.0000 (237713 PWs)   bands (ev):

   -21.6202 -21.5579 -21.5120 -21.4749 -21.4390 -21.4129 -21.3986 -21.3905
   -21.2190 -21.2035 -21.1702 -21.1497 -21.1339 -21.1327 -21.0832 -21.0795
   -21.0595 -21.0486 -20.9888 -20.9872 -20.9810 -20.9735 -20.9121 -20.8714
   -20.1189 -20.0609 -20.0209 -20.0013 -19.9990 -19.8797 -19.7861 -19.7815
   -19.7469 -19.7317 -19.6599 -19.6430 -15.7157 -15.7133 -15.6960 -15.6915
   -15.6768 -15.6734 -15.6712 -15.6668 -15.6632 -15.6544 -15.6499 -15.6457
   -15.6357 -15.6183 -15.6156 -15.6099 -15.6045 -15.5956 -15.5833 -15.5744
   -15.5732 -15.5712 -15.5642 -15.5566 -15.5547 -15.5493 -15.5471 -15.5256
   -15.5197 -15.5020 -15.4943 -15.4903 -15.4856 -15.4843 -15.4779 -15.4676
   -15.4653 -15.4565 -15.4524 -15.4518 -15.4494 -15.4332 -15.4314 -15.4309
   -15.4158 -15.4112 -15.4093 -15.4016 -15.3980 -15.3943 -15.3871 -15.3866
   -15.3788 -15.3754 -15.3718 -15.3608 -15.3511 -15.3494 -15.3393 -15.3351
   -15.3304 -15.3270 -15.3182 -15.3042 -15.2929 -15.2842 -15.2759 -15.2496
   -15.2412 -15.1627 -15.1081 -15.0867 -15.0450 -14.8705 -14.8659 -14.8618
   -14.7065 -14.7031 -14.6762 -14.6737  -9.2464  -9.1040  -9.0653  -8.9895
    -8.9603  -8.8769  -8.8550  -8.8478  -8.8189  -8.7950  -8.7278  -8.6470
    -8.6105  -8.5671  -8.5107  -8.4545  -8.4319  -8.2879  -8.2164  -8.1411
    -8.0874  -7.9862  -7.9108  -7.9105  -7.8820  -7.8755  -7.5858  -7.4799
    -7.4411  -7.2720  -7.2495  -7.2153  -7.0159  -6.9458  -6.7387  -6.7247
    -6.6937  -6.6663  -6.4335  -6.3604  -6.3290  -6.2774  -6.2228  -6.2086
    -6.0274  -5.9381  -5.8910  -5.7615  -5.7592  -5.6118  -5.5976  -5.5918
    -5.5064  -5.4148  -5.3830  -5.2984  -5.2856  -5.2268  -5.2072  -5.1406
    -5.1179  -5.0972  -5.0849  -4.9859  -4.9796  -4.9744  -4.8890  -4.8411
    -4.7268  -4.7133  -4.6850  -4.6162  -4.6051  -4.6001  -4.5702  -4.5210
    -4.4438  -4.4320  -4.3545  -4.3308  -4.3158  -4.2309  -4.2061  -4.1372
    -4.1368  -4.1120  -4.0414  -4.0318  -3.9249  -3.8932  -3.8557  -3.8375
    -3.8138  -3.7827  -3.7697  -3.7658  -3.6798  -3.6594  -3.6591  -3.5995
    -3.5890  -3.5853  -3.5582  -3.5435  -3.5277  -3.5233  -3.3827  -3.3536
    -1.1551   0.6601   1.0091   1.1454   1.1661   1.2708   1.7494   1.9530
     1.9868   2.0124   2.0740   2.1771   2.1873   2.2709   2.3475   2.3912

          k = 0.0246 0.0000 0.0000 (237731 PWs)   bands (ev):

   -21.6200 -21.5578 -21.5122 -21.4751 -21.4390 -21.4128 -21.3986 -21.3905
   -21.2189 -21.2038 -21.1703 -21.1492 -21.1338 -21.1331 -21.0831 -21.0795
   -21.0595 -21.0484 -20.9888 -20.9871 -20.9810 -20.9734 -20.9122 -20.8715
   -20.1188 -20.0610 -20.0208 -20.0028 -19.9973 -19.8798 -19.7861 -19.7815
   -19.7469 -19.7318 -19.6598 -19.6430 -15.7157 -15.7133 -15.6960 -15.6915
   -15.6767 -15.6738 -15.6708 -15.6668 -15.6631 -15.6544 -15.6497 -15.6458
   -15.6355 -15.6183 -15.6155 -15.6098 -15.6047 -15.5957 -15.5834 -15.5742
   -15.5732 -15.5712 -15.5648 -15.5565 -15.5546 -15.5491 -15.5475 -15.5255
   -15.5194 -15.5024 -15.4946 -15.4905 -15.4852 -15.4846 -15.4775 -15.4676
   -15.4655 -15.4566 -15.4524 -15.4518 -15.4494 -15.4334 -15.4309 -15.4308
   -15.4157 -15.4125 -15.4082 -15.4015 -15.3979 -15.3942 -15.3874 -15.3865
   -15.3785 -15.3754 -15.3717 -15.3608 -15.3511 -15.3493 -15.3394 -15.3350
   -15.3305 -15.3270 -15.3182 -15.3042 -15.2929 -15.2842 -15.2760 -15.2497
   -15.2414 -15.1637 -15.1079 -15.0863 -15.0443 -14.8721 -14.8659 -14.8602
   -14.7068 -14.7033 -14.6761 -14.6736  -9.2462  -9.1040  -9.0655  -8.9901
    -8.9602  -8.8791  -8.8550  -8.8458  -8.8182  -8.7950  -8.7276  -8.6470
    -8.6104  -8.5672  -8.5108  -8.4548  -8.4312  -8.2875  -8.2165  -8.1432
    -8.0846  -7.9868  -7.9126  -7.9110  -7.8800  -7.8760  -7.5856  -7.4836
    -7.4407  -7.2678  -7.2505  -7.2169  -7.0150  -6.9448  -6.7482  -6.7248
    -6.7168  -6.6328  -6.4335  -6.3605  -6.3308  -6.2763  -6.2225  -6.2093
    -6.0269  -5.9362  -5.8897  -5.7625  -5.7593  -5.6147  -5.5969  -5.5893
    -5.5061  -5.4160  -5.3831  -5.2988  -5.2863  -5.2278  -5.2076  -5.1466
    -5.1125  -5.0980  -5.0853  -4.9863  -4.9764  -4.9741  -4.8894  -4.8411
    -4.7340  -4.7048  -4.6851  -4.6170  -4.6051  -4.6003  -4.5699  -4.5212
    -4.4442  -4.4319  -4.3534  -4.3305  -4.3168  -4.2304  -4.2066  -4.1446
    -4.1292  -4.1117  -4.0423  -4.0313  -3.9257  -3.8925  -3.8560  -3.8383
    -3.8143  -3.7830  -3.7702  -3.7659  -3.6808  -3.6595  -3.6575  -3.5989
    -3.5889  -3.5855  -3.5600  -3.5417  -3.5324  -3.5190  -3.3827  -3.3537
    -1.1526   0.6613   0.9893   1.1464   1.1685   1.2886   1.7496   1.9510
     1.9746   2.0135   2.0758   2.1721   2.1990   2.2712   2.3484   2.3921

          k = 0.0492 0.0000 0.0000 (237773 PWs)   bands (ev):

   -21.6196 -21.5575 -21.5128 -21.4756 -21.4388 -21.4127 -21.3988 -21.3905
   -21.2187 -21.2046 -21.1706 -21.1478 -21.1344 -21.1334 -21.0831 -21.0793
   -21.0596 -21.0478 -20.9889 -20.9868 -20.9811 -20.9731 -20.9124 -20.8719
   -20.1187 -20.0615 -20.0207 -20.0048 -19.9945 -19.8802 -19.7861 -19.7814
   -19.7471 -19.7320 -19.6596 -19.6430 -15.7157 -15.7135 -15.6960 -15.6914
   -15.6766 -15.6745 -15.6699 -15.6667 -15.6629 -15.6545 -15.6493 -15.6460
   -15.6350 -15.6183 -15.6155 -15.6097 -15.6050 -15.5958 -15.5836 -15.5737
   -15.5731 -15.5712 -15.5664 -15.5563 -15.5545 -15.5486 -15.5485 -15.5252
   -15.5186 -15.5034 -15.4956 -15.4911 -15.4852 -15.4841 -15.4764 -15.4677
   -15.4659 -15.4570 -15.4527 -15.4516 -15.4492 -15.4337 -15.4310 -15.4294
   -15.4153 -15.4144 -15.4067 -15.4014 -15.3975 -15.3938 -15.3883 -15.3863
   -15.3780 -15.3753 -15.3713 -15.3608 -15.3510 -15.3492 -15.3395 -15.3347
   -15.3306 -15.3272 -15.3184 -15.3044 -15.2928 -15.2843 -15.2764 -15.2498
   -15.2418 -15.1665 -15.1072 -15.0851 -15.0421 -14.8754 -14.8660 -14.8569
   -14.7075 -14.7040 -14.6757 -14.6735  -9.2455  -9.1039  -9.0662  -8.9916
    -8.9598  -8.8841  -8.8548  -8.8414  -8.8160  -8.7951  -8.7271  -8.6469
    -8.6099  -8.5676  -8.5108  -8.4554  -8.4290  -8.2862  -8.2170  -8.1485
    -8.0774  -7.9886  -7.9170  -7.9125  -7.8772  -7.8749  -7.5852  -7.4939
    -7.4396  -7.2560  -7.2534  -7.2213  -7.0126  -6.9420  -6.7820  -6.7266
    -6.7251  -6.5863  -6.4334  -6.3606  -6.3358  -6.2731  -6.2216  -6.2114
    -6.0255  -5.9307  -5.8858  -5.7659  -5.7592  -5.6211  -5.5950  -5.5843
    -5.5053  -5.4198  -5.3834  -5.2997  -5.2883  -5.2305  -5.2088  -5.1576
    -5.1029  -5.1010  -5.0864  -4.9850  -4.9733  -4.9692  -4.8904  -4.8411
    -4.7441  -4.6916  -4.6848  -4.6196  -4.6053  -4.6008  -4.5689  -4.5219
    -4.4454  -4.4315  -4.3501  -4.3297  -4.3196  -4.2293  -4.2081  -4.1519
    -4.1214  -4.1110  -4.0449  -4.0303  -3.9280  -3.8905  -3.8570  -3.8403
    -3.8158  -3.7838  -3.7717  -3.7661  -3.6830  -3.6607  -3.6528  -3.5972
    -3.5883  -3.5861  -3.5639  -3.5391  -3.5378  -3.5135  -3.3825  -3.3541
    -1.1451   0.6651   0.9417   1.1491   1.1732   1.3328   1.7501   1.9456
     1.9476   2.0090   2.0808   2.1714   2.2179   2.2723   2.3511   2.3946

          k = 0.0738 0.0000 0.0000 (237757 PWs)   bands (ev):

   -21.6189 -21.5570 -21.5137 -21.4765 -21.4385 -21.4125 -21.3991 -21.3904
   -21.2183 -21.2059 -21.1709 -21.1455 -21.1366 -21.1329 -21.0830 -21.0790
   -21.0598 -21.0470 -20.9889 -20.9863 -20.9810 -20.9726 -20.9129 -20.8726
   -20.1184 -20.0623 -20.0205 -20.0066 -19.9915 -19.8810 -19.7860 -19.7811
   -19.7474 -19.7324 -19.6594 -19.6430 -15.7158 -15.7137 -15.6960 -15.6912
   -15.6764 -15.6754 -15.6690 -15.6666 -15.6626 -15.6545 -15.6485 -15.6462
   -15.6341 -15.6183 -15.6153 -15.6094 -15.6055 -15.5961 -15.5841 -15.5730
   -15.5730 -15.5711 -15.5686 -15.5562 -15.5543 -15.5502 -15.5479 -15.5248
   -15.5176 -15.5048 -15.4971 -15.4920 -15.4860 -15.4825 -15.4751 -15.4678
   -15.4665 -15.4579 -15.4533 -15.4509 -15.4489 -15.4338 -15.4311 -15.4274
   -15.4164 -15.4147 -15.4052 -15.4013 -15.3969 -15.3932 -15.3895 -15.3858
   -15.3777 -15.3747 -15.3708 -15.3609 -15.3509 -15.3490 -15.3397 -15.3343
   -15.3308 -15.3273 -15.3186 -15.3046 -15.2928 -15.2843 -15.2769 -15.2502
   -15.2424 -15.1709 -15.1060 -15.0834 -15.0385 -14.8791 -14.8661 -14.8533
   -14.7088 -14.7052 -14.6751 -14.6733  -9.2444  -9.1037  -9.0674  -8.9942
    -8.9591  -8.8902  -8.8545  -8.8370  -8.8121  -8.7952  -8.7261  -8.6468
    -8.6091  -8.5681  -8.5108  -8.4563  -8.4256  -8.2843  -8.2177  -8.1550
    -8.0675  -7.9916  -7.9225  -7.9150  -7.8792  -7.8681  -7.5849  -7.5085
    -7.4378  -7.2582  -7.2398  -7.2276  -7.0087  -6.9375  -6.8224  -6.7298
    -6.7257  -6.5381  -6.4332  -6.3608  -6.3438  -6.2683  -6.2202  -6.2142
    -6.0232  -5.9224  -5.8795  -5.7714  -5.7587  -5.6285  -5.5924  -5.5793
    -5.5039  -5.4261  -5.3840  -5.3010  -5.2914  -5.2342  -5.2112  -5.1689
    -5.1067  -5.0938  -5.0878  -4.9812  -4.9725  -4.9594  -4.8918  -4.8409
    -4.7534  -4.6882  -4.6733  -4.6240  -4.6058  -4.6016  -4.5672  -4.5230
    -4.4469  -4.4310  -4.3450  -4.3282  -4.3239  -4.2280  -4.2099  -4.1586
    -4.1136  -4.1099  -4.0487  -4.0292  -3.9312  -3.8878  -3.8588  -3.8436
    -3.8177  -3.7853  -3.7739  -3.7665  -3.6853  -3.6629  -3.6467  -3.5944
    -3.5872  -3.5871  -3.5687  -3.5460  -3.5330  -3.5083  -3.3822  -3.3549
    -1.1326   0.6714   0.8813   1.1538   1.1786   1.3898   1.7506   1.9130
     1.9377   1.9966   2.0882   2.1768   2.2374   2.2741   2.3555   2.3988

          k = 0.0984 0.0000 0.0000 (237731 PWs)   bands (ev):

   -21.6179 -21.5563 -21.5149 -21.4777 -21.4381 -21.4122 -21.3994 -21.3904
   -21.2178 -21.2075 -21.1715 -21.1425 -21.1394 -21.1321 -21.0829 -21.0787
   -21.0600 -21.0460 -20.9890 -20.9857 -20.9809 -20.9720 -20.9134 -20.8736
   -20.1181 -20.0634 -20.0203 -20.0082 -19.9883 -19.8820 -19.7860 -19.7808
   -19.7478 -19.7328 -19.6590 -19.6430 -15.7158 -15.7140 -15.6961 -15.6909
   -15.6762 -15.6761 -15.6679 -15.6665 -15.6622 -15.6545 -15.6474 -15.6463
   -15.6330 -15.6183 -15.6151 -15.6091 -15.6061 -15.5966 -15.5847 -15.5731
   -15.5722 -15.5710 -15.5708 -15.5560 -15.5540 -15.5522 -15.5473 -15.5242
   -15.5167 -15.5062 -15.4990 -15.4930 -15.4869 -15.4807 -15.4737 -15.4681
   -15.4674 -15.4590 -15.4542 -15.4497 -15.4485 -15.4338 -15.4312 -15.4253
   -15.4184 -15.4139 -15.4040 -15.4013 -15.3960 -15.3924 -15.3908 -15.3851
   -15.3778 -15.3735 -15.3702 -15.3610 -15.3508 -15.3488 -15.3400 -15.3336
   -15.3311 -15.3276 -15.3189 -15.3048 -15.2929 -15.2843 -15.2777 -15.2506
   -15.2433 -15.1764 -15.1044 -15.0814 -15.0338 -14.8831 -14.8663 -14.8494
   -14.7105 -14.7067 -14.6744 -14.6730  -9.2429  -9.1035  -9.0690  -8.9976
    -8.9581  -8.8962  -8.8541  -8.8336  -8.8065  -8.7953  -8.7247  -8.6465
    -8.6079  -8.5690  -8.5109  -8.4575  -8.4210  -8.2817  -8.2187  -8.1617
    -8.0561  -7.9958  -7.9283  -7.9186  -7.8820  -7.8604  -7.5856  -7.5247
    -7.4353  -7.2645  -7.2410  -7.2154  -7.0035  -6.9315  -6.8622  -6.7326
    -6.7265  -6.4898  -6.4332  -6.3606  -6.3541  -6.2620  -6.2181  -6.2168
    -6.0199  -5.9123  -5.8711  -5.7784  -5.7575  -5.6363  -5.5895  -5.5753
    -5.5020  -5.4351  -5.3848  -5.3021  -5.2951  -5.2382  -5.2155  -5.1787
    -5.1149  -5.0892  -5.0866  -4.9757  -4.9721  -4.9467  -4.8934  -4.8403
    -4.7620  -4.6895  -4.6565  -4.6302  -4.6069  -4.6027  -4.5645  -4.5244
    -4.4485  -4.4305  -4.3385  -4.3294  -4.3262  -4.2279  -4.2110  -4.1645
    -4.1086  -4.1059  -4.0535  -4.0280  -3.9349  -3.8848  -3.8614  -3.8476
    -3.8196  -3.7873  -3.7768  -3.7674  -3.6873  -3.6658  -3.6404  -3.5922
    -3.5875  -3.5854  -3.5738  -3.5526  -3.5278  -3.5035  -3.3819  -3.3559
    -1.1154   0.6802   0.8153   1.1603   1.1852   1.4520   1.7507   1.8738
     1.9287   1.9785   2.0972   2.1858   2.2553   2.2767   2.3616   2.4045

          k = 0.1230 0.0000 0.0000 (237709 PWs)   bands (ev):

   -21.6166 -21.5555 -21.5165 -21.4792 -21.4375 -21.4118 -21.3999 -21.3904
   -21.2172 -21.2092 -21.1722 -21.1427 -21.1389 -21.1311 -21.0828 -21.0782
   -21.0604 -21.0450 -20.9891 -20.9849 -20.9806 -20.9711 -20.9142 -20.8748
   -20.1176 -20.0648 -20.0200 -20.0095 -19.9848 -19.8832 -19.7859 -19.7804
   -19.7483 -19.7334 -19.6586 -19.6430 -15.7159 -15.7144 -15.6961 -15.6906
   -15.6770 -15.6759 -15.6668 -15.6664 -15.6618 -15.6545 -15.6463 -15.6460
   -15.6318 -15.6183 -15.6150 -15.6086 -15.6067 -15.5971 -15.5857 -15.5747
   -15.5721 -15.5718 -15.5698 -15.5560 -15.5544 -15.5536 -15.5469 -15.5237
   -15.5162 -15.5072 -15.5011 -15.4941 -15.4879 -15.4789 -15.4724 -15.4685
   -15.4685 -15.4599 -15.4554 -15.4481 -15.4479 -15.4338 -15.4314 -15.4231
   -15.4202 -15.4129 -15.4031 -15.4011 -15.3949 -15.3921 -15.3916 -15.3842
   -15.3781 -15.3722 -15.3694 -15.3610 -15.3507 -15.3487 -15.3403 -15.3328
   -15.3314 -15.3279 -15.3193 -15.3052 -15.2930 -15.2841 -15.2786 -15.2512
   -15.2445 -15.1827 -15.1024 -15.0794 -15.0280 -14.8871 -14.8664 -14.8456
   -14.7127 -14.7085 -14.6736 -14.6727  -9.2409  -9.1031  -9.0711  -9.0020
    -8.9569  -8.9017  -8.8535  -8.8312  -8.7999  -8.7955  -8.7227  -8.6460
    -8.6066  -8.5700  -8.5110  -8.4588  -8.4153  -8.2788  -8.2200  -8.1676
    -8.0438  -8.0011  -7.9341  -7.9232  -7.8854  -7.8521  -7.5894  -7.5389
    -7.4321  -7.2721  -7.2536  -7.1922  -6.9971  -6.9242  -6.9000  -6.7356
    -6.7276  -6.4440  -6.4334  -6.3665  -6.3582  -6.2543  -6.2186  -6.2154
    -6.0157  -5.9018  -5.8608  -5.7864  -5.7552  -5.6441  -5.5869  -5.5730
    -5.4996  -5.4464  -5.3858  -5.3026  -5.2986  -5.2424  -5.2221  -5.1858
    -5.1247  -5.0909  -5.0822  -4.9725  -4.9697  -4.9313  -4.8946  -4.8390
    -4.7699  -4.6912  -4.6392  -4.6382  -4.6081  -4.6042  -4.5610  -4.5258
    -4.4497  -4.4302  -4.3357  -4.3309  -4.3234  -4.2301  -4.2102  -4.1696
    -4.1073  -4.0985  -4.0592  -4.0269  -3.9388  -3.8822  -3.8652  -3.8518
    -3.8210  -3.7901  -3.7801  -3.7687  -3.6892  -3.6697  -3.6345  -3.5938
    -3.5847  -3.5827  -3.5789  -3.5582  -3.5224  -3.4992  -3.3815  -3.3571
    -1.0935   0.6914   0.7463   1.1685   1.1931   1.5161   1.7499   1.8317
     1.9198   1.9569   2.1071   2.1965   2.2705   2.2799   2.3693   2.4120

          k = 0.1476 0.0000 0.0000 (237685 PWs)   bands (ev):

   -21.6150 -21.5545 -21.5184 -21.4810 -21.4369 -21.4113 -21.4005 -21.3904
   -21.2165 -21.2109 -21.1730 -21.1465 -21.1350 -21.1298 -21.0828 -21.0777
   -21.0608 -21.0441 -20.9891 -20.9843 -20.9798 -20.9701 -20.9151 -20.8764
   -20.1171 -20.0665 -20.0196 -20.0106 -19.9813 -19.8847 -19.7858 -19.7800
   -19.7489 -19.7341 -19.6580 -19.6430 -15.7160 -15.7148 -15.6961 -15.6902
   -15.6777 -15.6757 -15.6662 -15.6657 -15.6614 -15.6545 -15.6461 -15.6443
   -15.6305 -15.6183 -15.6149 -15.6081 -15.6071 -15.5977 -15.5869 -15.5776
   -15.5721 -15.5717 -15.5684 -15.5565 -15.5559 -15.5532 -15.5468 -15.5232
   -15.5165 -15.5075 -15.5032 -15.4952 -15.4891 -15.4770 -15.4716 -15.4699
   -15.4690 -15.4604 -15.4567 -15.4473 -15.4463 -15.4336 -15.4315 -15.4217
   -15.4210 -15.4117 -15.4029 -15.4004 -15.3937 -15.3933 -15.3908 -15.3830
   -15.3783 -15.3711 -15.3681 -15.3611 -15.3504 -15.3487 -15.3406 -15.3318
   -15.3317 -15.3283 -15.3197 -15.3056 -15.2933 -15.2839 -15.2797 -15.2518
   -15.2460 -15.1895 -15.1001 -15.0775 -15.0214 -14.8911 -14.8665 -14.8418
   -14.7153 -14.7106 -14.6727 -14.6723  -9.2385  -9.1027  -9.0738  -9.0071
    -8.9555  -8.9066  -8.8529  -8.8294  -8.7957  -8.7933  -8.7199  -8.6452
    -8.6050  -8.5712  -8.5111  -8.4603  -8.4087  -8.2755  -8.2216  -8.1723
    -8.0311  -8.0076  -7.9397  -7.9287  -7.8894  -7.8432  -7.5994  -7.5474
    -7.4281  -7.2809  -7.2691  -7.1676  -6.9899  -6.9353  -6.9158  -6.7391
    -6.7289  -6.4341  -6.4086  -6.3805  -6.3460  -6.2454  -6.2185  -6.2119
    -6.0106  -5.8923  -5.8490  -5.7949  -5.7511  -5.6519  -5.5851  -5.5726
    -5.4967  -5.4601  -5.3870  -5.3018  -5.3016  -5.2467  -5.2312  -5.1900
    -5.1349  -5.0928  -5.0814  -4.9736  -4.9639  -4.9135  -4.8954  -4.8371
    -4.7777  -4.6931  -4.6480  -4.6246  -4.6066  -4.6059  -4.5568  -4.5272
    -4.4503  -4.4304  -4.3425  -4.3231  -4.3194  -4.2345  -4.2075  -4.1737
    -4.1062  -4.0914  -4.0658  -4.0258  -3.9426  -3.8807  -3.8700  -3.8553
    -3.8218  -3.7935  -3.7837  -3.7703  -3.6911  -3.6744  -3.6296  -3.5981
    -3.5849  -3.5819  -3.5782  -3.5609  -3.5167  -3.4952  -3.3810  -3.3585
    -1.0671   0.6757   0.7050   1.1786   1.2024   1.5800   1.7475   1.7884
     1.9124   1.9330   2.1176   2.2077   2.2830   2.2837   2.3784   2.4212

          k = 0.1722 0.0000 0.0000 (237699 PWs)   bands (ev):

   -21.6132 -21.5532 -21.5206 -21.4831 -21.4362 -21.4107 -21.4012 -21.3904
   -21.2160 -21.2122 -21.1740 -21.1507 -21.1311 -21.1281 -21.0829 -21.0770
   -21.0613 -21.0433 -20.9892 -20.9840 -20.9783 -20.9689 -20.9161 -20.8781
   -20.1164 -20.0683 -20.0192 -20.0114 -19.9776 -19.8865 -19.7857 -19.7795
   -19.7495 -19.7349 -19.6574 -19.6430 -15.7161 -15.7152 -15.6961 -15.6897
   -15.6784 -15.6756 -15.6660 -15.6644 -15.6609 -15.6544 -15.6456 -15.6424
   -15.6292 -15.6183 -15.6149 -15.6075 -15.6075 -15.5984 -15.5883 -15.5807
   -15.5719 -15.5718 -15.5667 -15.5585 -15.5558 -15.5526 -15.5470 -15.5230
   -15.5177 -15.5071 -15.5052 -15.4963 -15.4904 -15.4752 -15.4718 -15.4714
   -15.4689 -15.4604 -15.4580 -15.4469 -15.4445 -15.4334 -15.4317 -15.4229
   -15.4191 -15.4105 -15.4032 -15.3994 -15.3942 -15.3927 -15.3898 -15.3817
   -15.3784 -15.3703 -15.3665 -15.3611 -15.3501 -15.3488 -15.3409 -15.3323
   -15.3306 -15.3288 -15.3200 -15.3061 -15.2937 -15.2834 -15.2808 -15.2526
   -15.2477 -15.1966 -15.0974 -15.0755 -15.0144 -14.8951 -14.8664 -14.8380
   -14.7183 -14.7129 -14.6718 -14.6718  -9.2357  -9.1021  -9.0769  -9.0128
    -8.9539  -8.9109  -8.8521  -8.8280  -8.7959  -8.7873  -8.7160  -8.6441
    -8.6032  -8.5727  -8.5112  -8.4618  -8.4011  -8.2723  -8.2236  -8.1755
    -8.0183  -8.0150  -7.9449  -7.9353  -7.8939  -7.8337  -7.6155  -7.5495
    -7.4234  -7.2905  -7.2868  -7.1430  -6.9819  -6.9672  -6.9067  -6.7431
    -6.7305  -6.4355  -6.3957  -6.3953  -6.3130  -6.2352  -6.2158  -6.2076
    -6.0047  -5.8854  -5.8360  -5.8036  -5.7445  -5.6595  -5.5845  -5.5744
    -5.4935  -5.4755  -5.3883  -5.3035  -5.2997  -5.2517  -5.2415  -5.1919
    -5.1442  -5.0947  -5.0853  -4.9751  -4.9584  -4.8957  -4.8940  -4.8346
    -4.7856  -4.6952  -4.6594  -4.6203  -4.6079  -4.5949  -4.5522  -4.5286
    -4.4501  -4.4313  -4.3493  -4.3176  -4.3118  -4.2405  -4.2040  -4.1765
    -4.1054  -4.0847  -4.0730  -4.0249  -3.9462  -3.8814  -3.8758  -3.8569
    -3.8218  -3.7976  -3.7874  -3.7721  -3.6933  -3.6797  -3.6259  -3.6044
    -3.5904  -3.5817  -3.5729  -3.5588  -3.5109  -3.4917  -3.3806  -3.3602
    -1.0365   0.6041   0.7210   1.1904   1.2133   1.6399   1.7425   1.7472
     1.9076   1.9081   2.1283   2.2188   2.2880   2.2930   2.3890   2.4318

          k = 0.1968 0.0000 0.0000 (237727 PWs)   bands (ev):

   -21.6112 -21.5518 -21.5232 -21.4854 -21.4353 -21.4101 -21.4020 -21.3905
   -21.2159 -21.2127 -21.1750 -21.1550 -21.1280 -21.1251 -21.0831 -21.0763
   -21.0618 -21.0430 -20.9893 -20.9841 -20.9761 -20.9675 -20.9173 -20.8802
   -20.1157 -20.0703 -20.0187 -20.0121 -19.9738 -19.8885 -19.7855 -19.7791
   -19.7502 -19.7359 -19.6567 -19.6431 -15.7162 -15.7157 -15.6961 -15.6892
   -15.6789 -15.6756 -15.6657 -15.6631 -15.6605 -15.6543 -15.6450 -15.6403
   -15.6279 -15.6184 -15.6152 -15.6075 -15.6067 -15.5991 -15.5900 -15.5839
   -15.5720 -15.5717 -15.5652 -15.5601 -15.5557 -15.5520 -15.5476 -15.5231
   -15.5193 -15.5068 -15.5064 -15.4973 -15.4919 -15.4735 -15.4731 -15.4729
   -15.4683 -15.4598 -15.4594 -15.4467 -15.4426 -15.4331 -15.4318 -15.4238
   -15.4175 -15.4092 -15.4037 -15.3983 -15.3947 -15.3919 -15.3887 -15.3802
   -15.3785 -15.3697 -15.3647 -15.3610 -15.3497 -15.3491 -15.3412 -15.3329
   -15.3293 -15.3293 -15.3202 -15.3066 -15.2943 -15.2828 -15.2820 -15.2535
   -15.2496 -15.2039 -15.0945 -15.0736 -15.0071 -14.8992 -14.8662 -14.8343
   -14.7216 -14.7155 -14.6713 -14.6709  -9.2325  -9.1015  -9.0807  -9.0188
    -8.9521  -8.9144  -8.8512  -8.8268  -8.7960  -8.7825  -8.7110  -8.6426
    -8.6013  -8.5744  -8.5113  -8.4634  -8.3929  -8.2693  -8.2259  -8.1768
    -8.0235  -8.0056  -7.9494  -7.9427  -7.8989  -7.8236  -7.6349  -7.5479
    -7.4181  -7.3066  -7.3007  -7.1206  -6.9939  -6.9733  -6.8968  -6.7477
    -6.7323  -6.4388  -6.4111  -6.3953  -6.2699  -6.2239  -6.2088  -6.2023
    -5.9981  -5.8821  -5.8221  -5.8122  -5.7350  -5.6669  -5.5852  -5.5784
    -5.4923  -5.4900  -5.3896  -5.3043  -5.2962  -5.2579  -5.2520  -5.1924
    -5.1517  -5.0963  -5.0941  -4.9766  -4.9532  -4.8956  -4.8739  -4.8318
    -4.7939  -4.6976  -4.6722  -4.6215  -4.6100  -4.5776  -4.5473  -4.5300
    -4.4490  -4.4333  -4.3558  -4.3129  -4.3023  -4.2475  -4.2000  -4.1780
    -4.1051  -4.0806  -4.0784  -4.0240  -3.9493  -3.8845  -3.8824  -3.8561
    -3.8212  -3.8020  -3.7910  -3.7741  -3.6958  -3.6855  -3.6234  -3.6126
    -3.5960  -3.5834  -3.5667  -3.5529  -3.5048  -3.4885  -3.3802  -3.3620
    -1.0019   0.5320   0.7393   1.2039   1.2255   1.6688   1.7340   1.7343
     1.8837   1.9064   2.1392   2.2296   2.2927   2.3009   2.4009   2.4441

          k = 0.2214 0.0000 0.0000 (237743 PWs)   bands (ev):

   -21.6088 -21.5503 -21.5259 -21.4879 -21.4343 -21.4094 -21.4029 -21.3906
   -21.2166 -21.2122 -21.1762 -21.1595 -21.1259 -21.1208 -21.0835 -21.0756
   -21.0624 -21.0430 -20.9894 -20.9843 -20.9733 -20.9660 -20.9186 -20.8825
   -20.1148 -20.0724 -20.0183 -20.0126 -19.9700 -19.8907 -19.7853 -19.7786
   -19.7508 -19.7368 -19.6560 -19.6432 -15.7163 -15.7161 -15.6960 -15.6887
   -15.6795 -15.6758 -15.6654 -15.6617 -15.6600 -15.6540 -15.6441 -15.6380
   -15.6266 -15.6186 -15.6155 -15.6074 -15.6060 -15.5999 -15.5918 -15.5870
   -15.5722 -15.5715 -15.5642 -15.5608 -15.5556 -15.5513 -15.5484 -15.5238
   -15.5211 -15.5081 -15.5057 -15.4981 -15.4935 -15.4749 -15.4742 -15.4719
   -15.4676 -15.4606 -15.4589 -15.4468 -15.4407 -15.4327 -15.4318 -15.4242
   -15.4162 -15.4080 -15.4043 -15.3970 -15.3946 -15.3915 -15.3875 -15.3786
   -15.3784 -15.3691 -15.3628 -15.3609 -15.3496 -15.3492 -15.3416 -15.3334
   -15.3299 -15.3283 -15.3201 -15.3071 -15.2950 -15.2832 -15.2821 -15.2545
   -15.2517 -15.2112 -15.0915 -15.0718 -14.9997 -14.9032 -14.8657 -14.8307
   -14.7253 -14.7182 -14.6708 -14.6701  -9.2288  -9.1007  -9.0849  -9.0251
    -8.9502  -8.9174  -8.8502  -8.8259  -8.7961  -8.7790  -8.7047  -8.6407
    -8.5994  -8.5763  -8.5113  -8.4651  -8.3839  -8.2664  -8.2286  -8.1761
    -8.0329  -7.9935  -7.9529  -7.9510  -7.9041  -7.8129  -7.6555  -7.5445
    -7.4120  -7.3279  -7.3114  -7.1048  -7.0113  -6.9643  -6.8865  -6.7528
    -6.7345  -6.4469  -6.4233  -6.3994  -6.2328  -6.2113  -6.1960  -6.1903
    -5.9911  -5.8827  -5.8205  -5.8076  -5.7229  -5.6742  -5.5871  -5.5843
    -5.5097  -5.4863  -5.3910  -5.3050  -5.2921  -5.2651  -5.2611  -5.1918
    -5.1567  -5.1078  -5.0974  -4.9781  -4.9482  -4.8952  -4.8543  -4.8290
    -4.8022  -4.7001  -4.6859  -4.6232  -4.6123  -4.5604  -4.5416  -4.5312
    -4.4469  -4.4368  -4.3614  -4.3077  -4.2921  -4.2552  -4.1961  -4.1783
    -4.1059  -4.0880  -4.0727  -4.0234  -3.9518  -3.8899  -3.8891  -3.8535
    -3.8202  -3.8064  -3.7945  -3.7764  -3.6988  -3.6915  -3.6222  -3.6221
    -3.6015  -3.5854  -3.5599  -3.5454  -3.4987  -3.4858  -3.3798  -3.3640
    -0.9634   0.4597   0.7598   1.2190   1.2391   1.6358   1.7228   1.7741
     1.8657   1.9090   2.1502   2.2399   2.2978   2.3071   2.4141   2.4581

          k = 0.2460 0.0000 0.0000 (237739 PWs)   bands (ev):

   -21.6063 -21.5485 -21.5290 -21.4906 -21.4333 -21.4086 -21.4039 -21.3908
   -21.2174 -21.2111 -21.1776 -21.1641 -21.1240 -21.1162 -21.0840 -21.0748
   -21.0629 -21.0434 -20.9895 -20.9846 -20.9700 -20.9644 -20.9201 -20.8850
   -20.1138 -20.0746 -20.0178 -20.0129 -19.9661 -19.8931 -19.7850 -19.7782
   -19.7515 -19.7379 -19.6552 -19.6433 -15.7166 -15.7164 -15.6959 -15.6882
   -15.6799 -15.6761 -15.6650 -15.6602 -15.6596 -15.6536 -15.6431 -15.6356
   -15.6255 -15.6190 -15.6158 -15.6071 -15.6053 -15.6007 -15.5936 -15.5900
   -15.5725 -15.5713 -15.5645 -15.5600 -15.5556 -15.5504 -15.5495 -15.5249
   -15.5230 -15.5092 -15.5051 -15.4988 -15.4951 -15.4769 -15.4755 -15.4707
   -15.4671 -15.4615 -15.4576 -15.4474 -15.4390 -15.4321 -15.4316 -15.4243
   -15.4155 -15.4071 -15.4050 -15.3958 -15.3939 -15.3912 -15.3862 -15.3783
   -15.3769 -15.3685 -15.3609 -15.3608 -15.3502 -15.3485 -15.3419 -15.3341
   -15.3305 -15.3277 -15.3193 -15.3076 -15.2958 -15.2844 -15.2812 -15.2557
   -15.2540 -15.2185 -15.0882 -15.0700 -14.9925 -14.9072 -14.8648 -14.8274
   -14.7292 -14.7210 -14.6702 -14.6693  -9.2248  -9.0998  -9.0898  -9.0314
    -8.9482  -8.9198  -8.8491  -8.8252  -8.7961  -8.7770  -8.6973  -8.6384
    -8.5975  -8.5784  -8.5112  -8.4670  -8.3745  -8.2637  -8.2316  -8.1733
    -8.0432  -7.9832  -7.9601  -7.9542  -7.9097  -7.8014  -7.6762  -7.5401
    -7.4054  -7.3505  -7.3222  -7.1035  -7.0119  -6.9549  -6.8757  -6.7584
    -6.7370  -6.4623  -6.4299  -6.4051  -6.2136  -6.1977  -6.1887  -6.1512
    -5.9839  -5.8869  -5.8287  -5.7930  -5.7091  -5.6813  -5.5914  -5.5901
    -5.5272  -5.4823  -5.3924  -5.3074  -5.2902  -5.2707  -5.2672  -5.1902
    -5.1593  -5.1254  -5.0972  -4.9802  -4.9434  -4.8946  -4.8395  -4.8268
    -4.8071  -4.7027  -4.7001  -4.6243  -4.6147  -4.5472  -4.5323  -4.5323
    -4.4441  -4.4420  -4.3661  -4.3020  -4.2815  -4.2637  -4.1924  -4.1773
    -4.1090  -4.0935  -4.0675  -4.0229  -3.9535  -3.8981  -3.8943  -3.8501
    -3.8194  -3.8100  -3.7978  -3.7791  -3.7023  -3.6975  -3.6328  -3.6222
    -3.6063  -3.5874  -3.5528  -3.5372  -3.4924  -3.4834  -3.3795  -3.3660
    -0.9215   0.3872   0.7824   1.2358   1.2540   1.5910   1.7081   1.7920
     1.8797   1.9154   2.1611   2.2497   2.3029   2.3119   2.4284   2.4808

          k = 0.0174 0.0174 0.0000 (237716 PWs)   bands (ev):

   -21.6200 -21.5578 -21.5122 -21.4749 -21.4391 -21.4128 -21.3987 -21.3905
   -21.2188 -21.2036 -21.1702 -21.1497 -21.1339 -21.1326 -21.0832 -21.0795
   -21.0595 -21.0485 -20.9889 -20.9872 -20.9811 -20.9734 -20.9121 -20.8715
   -20.1188 -20.0609 -20.0214 -20.0022 -19.9976 -19.8798 -19.7861 -19.7815
   -19.7469 -19.7318 -19.6598 -19.6430 -15.7157 -15.7133 -15.6961 -15.6915
   -15.6767 -15.6736 -15.6709 -15.6668 -15.6633 -15.6543 -15.6498 -15.6456
   -15.6357 -15.6183 -15.6155 -15.6099 -15.6046 -15.5956 -15.5834 -15.5745
   -15.5730 -15.5713 -15.5644 -15.5566 -15.5546 -15.5492 -15.5472 -15.5257
   -15.5195 -15.5023 -15.4944 -15.4905 -15.4855 -15.4845 -15.4779 -15.4677
   -15.4655 -15.4567 -15.4525 -15.4515 -15.4490 -15.4334 -15.4313 -15.4305
   -15.4158 -15.4120 -15.4087 -15.4015 -15.3979 -15.3943 -15.3875 -15.3862
   -15.3786 -15.3753 -15.3717 -15.3608 -15.3513 -15.3492 -15.3394 -15.3351
   -15.3305 -15.3270 -15.3182 -15.3042 -15.2929 -15.2842 -15.2759 -15.2498
   -15.2413 -15.1630 -15.1099 -15.0846 -15.0446 -14.8718 -14.8655 -14.8609
   -14.7067 -14.7033 -14.6761 -14.6736  -9.2462  -9.1042  -9.0653  -8.9900
    -8.9601  -8.8780  -8.8558  -8.8460  -8.8185  -8.7948  -8.7276  -8.6471
    -8.6102  -8.5673  -8.5110  -8.4546  -8.4311  -8.2875  -8.2164  -8.1421
    -8.0862  -7.9865  -7.9159  -7.9067  -7.8814  -7.8750  -7.5870  -7.4838
    -7.4377  -7.2702  -7.2509  -7.2152  -7.0156  -6.9451  -6.7584  -6.7151
    -6.7035  -6.6457  -6.4329  -6.3605  -6.3299  -6.2774  -6.2280  -6.2033
    -6.0268  -5.9374  -5.8902  -5.7613  -5.7586  -5.6133  -5.5990  -5.5884
    -5.5068  -5.4154  -5.3831  -5.3098  -5.2770  -5.2277  -5.2078  -5.1438
    -5.1150  -5.0969  -5.0847  -4.9866  -4.9809  -4.9707  -4.8891  -4.8406
    -4.7310  -4.7079  -4.6851  -4.6182  -4.6043  -4.5998  -4.5697  -4.5210
    -4.4439  -4.4317  -4.3542  -4.3328  -4.3140  -4.2309  -4.2072  -4.1423
    -4.1313  -4.1116  -4.0421  -4.0318  -3.9254  -3.8928  -3.8559  -3.8382
    -3.8141  -3.7839  -3.7690  -3.7654  -3.6803  -3.6595  -3.6582  -3.6012
    -3.5879  -3.5853  -3.5595  -3.5425  -3.5298  -3.5205  -3.3828  -3.3538
    -1.1526   0.6613   0.9941   1.1313   1.1763   1.2909   1.7497   1.9475
     1.9829   2.0086   2.0794   2.1698   2.1943   2.2750   2.3483   2.4025

          k = 0.0348 0.0348 0.0000 (237718 PWs)   bands (ev):

   -21.6196 -21.5575 -21.5128 -21.4751 -21.4394 -21.4126 -21.3990 -21.3905
   -21.2183 -21.2040 -21.1702 -21.1498 -21.1338 -21.1323 -21.0834 -21.0793
   -21.0595 -21.0483 -20.9890 -20.9869 -20.9811 -20.9733 -20.9121 -20.8717
   -20.1186 -20.0610 -20.0227 -20.0031 -19.9948 -19.8800 -19.7862 -19.7815
   -19.7470 -19.7320 -19.6597 -19.6430 -15.7158 -15.7133 -15.6962 -15.6913
   -15.6766 -15.6741 -15.6704 -15.6667 -15.6636 -15.6540 -15.6494 -15.6453
   -15.6355 -15.6183 -15.6153 -15.6097 -15.6049 -15.5956 -15.5834 -15.5747
   -15.5726 -15.5717 -15.5651 -15.5567 -15.5546 -15.5489 -15.5475 -15.5258
   -15.5192 -15.5034 -15.4947 -15.4910 -15.4853 -15.4849 -15.4777 -15.4681
   -15.4660 -15.4572 -15.4527 -15.4509 -15.4482 -15.4338 -15.4308 -15.4296
   -15.4157 -15.4132 -15.4077 -15.4012 -15.3978 -15.3944 -15.3881 -15.3857
   -15.3782 -15.3750 -15.3713 -15.3608 -15.3517 -15.3488 -15.3395 -15.3350
   -15.3306 -15.3272 -15.3183 -15.3043 -15.2928 -15.2843 -15.2758 -15.2503
   -15.2416 -15.1638 -15.1139 -15.0795 -15.0435 -14.8745 -14.8651 -14.8588
   -14.7073 -14.7041 -14.6759 -14.6734  -9.2457  -9.1049  -9.0654  -8.9914
    -8.9595  -8.8810  -8.8569  -8.8425  -8.8175  -8.7942  -8.7272  -8.6475
    -8.6091  -8.5680  -8.5117  -8.4549  -8.4287  -8.2865  -8.2164  -8.1448
    -8.0830  -7.9877  -7.9220  -7.9044  -7.8801  -7.8731  -7.5905  -7.4932
    -7.4300  -7.2654  -7.2544  -7.2149  -7.0147  -6.9430  -6.7858  -6.7383
    -6.6823  -6.6143  -6.4311  -6.3609  -6.3324  -6.2774  -6.2363  -6.1947
    -6.0250  -5.9354  -5.8877  -5.7607  -5.7572  -5.6170  -5.5999  -5.5826
    -5.5081  -5.4174  -5.3836  -5.3272  -5.2678  -5.2307  -5.2095  -5.1500
    -5.1098  -5.0969  -5.0838  -4.9903  -4.9767  -4.9662  -4.8891  -4.8393
    -4.7376  -4.6979  -4.6856  -4.6231  -4.6038  -4.5983  -4.5685  -4.5208
    -4.4441  -4.4307  -4.3534  -4.3372  -4.3101  -4.2310  -4.2103  -4.1474
    -4.1251  -4.1105  -4.0443  -4.0319  -3.9267  -3.8918  -3.8564  -3.8400
    -3.8151  -3.7867  -3.7678  -3.7639  -3.6817  -3.6608  -3.6548  -3.6048
    -3.5859  -3.5852  -3.5625  -3.5416  -3.5308  -3.5163  -3.3829  -3.3546
    -1.1452   0.6650   0.9600   1.0924   1.2109   1.3327   1.7501   1.9334
     1.9648   2.0092   2.0882   2.1560   2.2085   2.2856   2.3507   2.3945

          k = 0.0522 0.0522 0.0000 (237730 PWs)   bands (ev):

   -21.6189 -21.5569 -21.5138 -21.4753 -21.4400 -21.4123 -21.3995 -21.3905
   -21.2176 -21.2047 -21.1701 -21.1502 -21.1337 -21.1317 -21.0836 -21.0790
   -21.0596 -21.0481 -20.9891 -20.9866 -20.9812 -20.9732 -20.9121 -20.8722
   -20.1183 -20.0612 -20.0246 -20.0039 -19.9915 -19.8805 -19.7863 -19.7815
   -19.7471 -19.7323 -19.6594 -19.6430 -15.7158 -15.7133 -15.6965 -15.6911
   -15.6764 -15.6747 -15.6697 -15.6665 -15.6639 -15.6537 -15.6488 -15.6448
   -15.6351 -15.6182 -15.6150 -15.6095 -15.6052 -15.5956 -15.5835 -15.5748
   -15.5724 -15.5719 -15.5661 -15.5568 -15.5545 -15.5487 -15.5477 -15.5260
   -15.5188 -15.5050 -15.4952 -15.4918 -15.4858 -15.4848 -15.4778 -15.4688
   -15.4665 -15.4576 -15.4527 -15.4499 -15.4471 -15.4341 -15.4299 -15.4284
   -15.4157 -15.4146 -15.4068 -15.4008 -15.3977 -15.3946 -15.3886 -15.3852
   -15.3777 -15.3743 -15.3707 -15.3608 -15.3521 -15.3483 -15.3396 -15.3349
   -15.3308 -15.3273 -15.3184 -15.3044 -15.2927 -15.2845 -15.2757 -15.2512
   -15.2420 -15.1652 -15.1184 -15.0734 -15.0415 -14.8776 -14.8648 -14.8562
   -14.7082 -14.7052 -14.6757 -14.6729  -9.2448  -9.1060  -9.0655  -8.9936
    -8.9585  -8.8849  -8.8579  -8.8386  -8.8157  -8.7930  -8.7264  -8.6482
    -8.6074  -8.5691  -8.5129  -8.4552  -8.4247  -8.2848  -8.2163  -8.1487
    -8.0782  -7.9895  -7.9286  -7.9036  -7.8790  -7.8694  -7.5959  -7.5049
    -7.4210  -7.2634  -7.2540  -7.2151  -7.0136  -6.9394  -6.8150  -6.7610
    -6.6601  -6.5817  -6.4282  -6.3627  -6.3355  -6.2777  -6.2436  -6.1861
    -6.0221  -5.9320  -5.8840  -5.7595  -5.7551  -5.6211  -5.5995  -5.5769
    -5.5101  -5.4208  -5.3845  -5.3450  -5.2628  -5.2365  -5.2116  -5.1552
    -5.1053  -5.0987  -5.0807  -4.9928  -4.9694  -4.9628  -4.8891  -4.8370
    -4.7438  -4.6884  -4.6842  -4.6294  -4.6044  -4.5955  -4.5678  -4.5197
    -4.4446  -4.4290  -4.3524  -4.3417  -4.3060  -4.2311  -4.2148  -4.1525
    -4.1186  -4.1089  -4.0478  -4.0322  -3.9287  -3.8902  -3.8574  -3.8424
    -3.8165  -3.7903  -3.7671  -3.7618  -3.6835  -3.6629  -3.6499  -3.6088
    -3.5860  -3.5835  -3.5662  -3.5427  -3.5280  -3.5121  -3.3832  -3.3559
    -1.1328   0.6712   0.9190   1.0470   1.2549   1.3809   1.7503   1.9132
     1.9384   2.0146   2.0931   2.1405   2.2277   2.3002   2.3547   2.3987

          k = 0.0696 0.0696 0.0000 (237685 PWs)   bands (ev):

   -21.6179 -21.5562 -21.5151 -21.4756 -21.4407 -21.4119 -21.4002 -21.3905
   -21.2165 -21.2055 -21.1699 -21.1509 -21.1336 -21.1307 -21.0839 -21.0787
   -21.0596 -21.0477 -20.9893 -20.9861 -20.9813 -20.9729 -20.9122 -20.8729
   -20.1179 -20.0615 -20.0269 -20.0045 -19.9877 -19.8811 -19.7865 -19.7814
   -19.7473 -19.7327 -19.6590 -19.6431 -15.7160 -15.7132 -15.6969 -15.6908
   -15.6764 -15.6752 -15.6689 -15.6664 -15.6642 -15.6533 -15.6479 -15.6441
   -15.6347 -15.6182 -15.6146 -15.6093 -15.6057 -15.5957 -15.5837 -15.5748
   -15.5731 -15.5714 -15.5673 -15.5569 -15.5543 -15.5490 -15.5476 -15.5262
   -15.5183 -15.5068 -15.4959 -15.4930 -15.4864 -15.4847 -15.4781 -15.4701
   -15.4670 -15.4578 -15.4526 -15.4488 -15.4460 -15.4344 -15.4288 -15.4270
   -15.4160 -15.4153 -15.4061 -15.4004 -15.3974 -15.3949 -15.3889 -15.3848
   -15.3772 -15.3732 -15.3699 -15.3608 -15.3525 -15.3478 -15.3398 -15.3347
   -15.3311 -15.3276 -15.3185 -15.3045 -15.2926 -15.2847 -15.2755 -15.2524
   -15.2427 -15.1672 -15.1229 -15.0670 -15.0386 -14.8807 -14.8645 -14.8535
   -14.7095 -14.7068 -14.6756 -14.6723  -9.2436  -9.1074  -9.0656  -8.9965
    -8.9573  -8.8891  -8.8588  -8.8353  -8.8133  -8.7912  -8.7253  -8.6490
    -8.6050  -8.5706  -8.5145  -8.4557  -8.4195  -8.2825  -8.2162  -8.1533
    -8.0723  -7.9919  -7.9354  -7.9039  -7.8784  -7.8644  -7.6027  -7.5176
    -7.4121  -7.2695  -7.2447  -7.2162  -7.0126  -6.9342  -6.8448  -6.7812
    -6.6386  -6.5490  -6.4242  -6.3674  -6.3374  -6.2782  -6.2489  -6.1780
    -6.0179  -5.9272  -5.8796  -5.7586  -5.7516  -5.6245  -5.5984  -5.5720
    -5.5131  -5.4256  -5.3865  -5.3612  -5.2622  -5.2448  -5.2149  -5.1580
    -5.1045  -5.1008  -5.0756  -4.9927  -4.9647  -4.9570  -4.8886  -4.8336
    -4.7494  -4.6884  -4.6730  -4.6366  -4.6059  -4.5919  -4.5685  -4.5172
    -4.4453  -4.4268  -4.3531  -4.3440  -4.3026  -4.2309  -4.2201  -4.1577
    -4.1128  -4.1062  -4.0523  -4.0328  -3.9311  -3.8887  -3.8589  -3.8449
    -3.8180  -3.7942  -3.7671  -3.7596  -3.6856  -3.6659  -3.6445  -3.6123
    -3.5875  -3.5825  -3.5688  -3.5444  -3.5232  -3.5080  -3.3836  -3.3576
    -1.1157   0.6798   0.8759   1.0001   1.3025   1.4311   1.7489   1.8886
     1.9107   2.0214   2.0905   2.1283   2.2487   2.3178   2.3603   2.4045

          k = 0.0870 0.0870 0.0000 (237658 PWs)   bands (ev):

   -21.6167 -21.5552 -21.5167 -21.4760 -21.4416 -21.4114 -21.4011 -21.3905
   -21.2151 -21.2064 -21.1697 -21.1520 -21.1335 -21.1292 -21.0844 -21.0782
   -21.0597 -21.0474 -20.9894 -20.9856 -20.9814 -20.9726 -20.9122 -20.8737
   -20.1174 -20.0618 -20.0294 -20.0050 -19.9837 -19.8819 -19.7867 -19.7813
   -19.7475 -19.7333 -19.6586 -19.6431 -15.7162 -15.7131 -15.6974 -15.6904
   -15.6769 -15.6752 -15.6681 -15.6661 -15.6643 -15.6531 -15.6467 -15.6433
   -15.6341 -15.6180 -15.6141 -15.6090 -15.6063 -15.5958 -15.5840 -15.5751
   -15.5740 -15.5711 -15.5682 -15.5570 -15.5541 -15.5493 -15.5473 -15.5264
   -15.5178 -15.5088 -15.4967 -15.4945 -15.4871 -15.4849 -15.4786 -15.4718
   -15.4675 -15.4578 -15.4522 -15.4476 -15.4448 -15.4346 -15.4278 -15.4254
   -15.4171 -15.4149 -15.4055 -15.4001 -15.3970 -15.3953 -15.3890 -15.3844
   -15.3767 -15.3719 -15.3689 -15.3608 -15.3529 -15.3475 -15.3399 -15.3344
   -15.3314 -15.3279 -15.3186 -15.3047 -15.2926 -15.2850 -15.2753 -15.2539
   -15.2435 -15.1696 -15.1270 -15.0610 -15.0346 -14.8838 -14.8643 -14.8509
   -14.7110 -14.7086 -14.6756 -14.6714  -9.2420  -9.1093  -9.0659  -8.9999
    -8.9559  -8.8932  -8.8597  -8.8329  -8.8107  -8.7885  -8.7236  -8.6500
    -8.6020  -8.5722  -8.5164  -8.4563  -8.4130  -8.2798  -8.2161  -8.1582
    -8.0658  -7.9948  -7.9423  -7.9050  -7.8781  -7.8586  -7.6105  -7.5306
    -7.4043  -7.2769  -7.2341  -7.2175  -7.0127  -6.9273  -6.8735  -6.7992
    -6.6180  -6.5175  -6.4193  -6.3757  -6.3366  -6.2788  -6.2520  -6.1702
    -6.0123  -5.9214  -5.8751  -5.7590  -5.7462  -5.6265  -5.5969  -5.5688
    -5.5169  -5.4320  -5.3910  -5.3732  -5.2662  -5.2537  -5.2196  -5.1584
    -5.1114  -5.0979  -5.0696  -4.9907  -4.9644  -4.9479  -4.8869  -4.8291
    -4.7547  -4.6898  -4.6603  -4.6442  -4.6079  -4.5877  -4.5710  -4.5129
    -4.4458  -4.4245  -4.3573  -4.3419  -4.3002  -4.2302  -4.2257  -4.1631
    -4.1096  -4.1011  -4.0578  -4.0338  -3.9338  -3.8874  -3.8607  -3.8472
    -3.8195  -3.7985  -3.7679  -3.7578  -3.6881  -3.6696  -3.6395  -3.6144
    -3.5917  -3.5828  -3.5682  -3.5458  -3.5180  -3.5039  -3.3841  -3.3596
    -1.0940   0.6908   0.8324   0.9532   1.3515   1.4818   1.7437   1.8608
     1.8857   2.0285   2.0781   2.1242   2.2680   2.3388   2.3673   2.4119

          k = 0.1044 0.1044 0.0000 (237673 PWs)   bands (ev):

   -21.6152 -21.5541 -21.5186 -21.4765 -21.4427 -21.4109 -21.4022 -21.3905
   -21.2135 -21.2074 -21.1694 -21.1536 -21.1333 -21.1271 -21.0850 -21.0777
   -21.0598 -21.0471 -20.9896 -20.9851 -20.9814 -20.9722 -20.9123 -20.8747
   -20.1167 -20.0622 -20.0318 -20.0056 -19.9794 -19.8827 -19.7871 -19.7812
   -19.7478 -19.7339 -19.6581 -19.6431 -15.7164 -15.7130 -15.6979 -15.6899
   -15.6777 -15.6751 -15.6676 -15.6657 -15.6641 -15.6528 -15.6454 -15.6424
   -15.6334 -15.6179 -15.6135 -15.6087 -15.6068 -15.5961 -15.5845 -15.5761
   -15.5743 -15.5712 -15.5683 -15.5572 -15.5538 -15.5495 -15.5471 -15.5265
   -15.5175 -15.5108 -15.4978 -15.4961 -15.4879 -15.4856 -15.4792 -15.4737
   -15.4680 -15.4575 -15.4516 -15.4463 -15.4437 -15.4347 -15.4268 -15.4238
   -15.4180 -15.4142 -15.4049 -15.3999 -15.3964 -15.3955 -15.3890 -15.3839
   -15.3764 -15.3705 -15.3677 -15.3607 -15.3531 -15.3473 -15.3401 -15.3341
   -15.3318 -15.3282 -15.3187 -15.3050 -15.2925 -15.2854 -15.2750 -15.2558
   -15.2445 -15.1724 -15.1306 -15.0560 -15.0292 -14.8865 -14.8639 -14.8483
   -14.7130 -14.7108 -14.6757 -14.6705  -9.2401  -9.1116  -9.0661  -9.0038
    -8.9544  -8.8969  -8.8605  -8.8313  -8.8082  -8.7850  -8.7215  -8.6511
    -8.5986  -8.5741  -8.5186  -8.4569  -8.4056  -8.2768  -8.2158  -8.1631
    -8.0590  -7.9981  -7.9493  -7.9065  -7.8782  -7.8525  -7.6186  -7.5435
    -7.3982  -7.2842  -7.2288  -7.2139  -7.0151  -6.9200  -6.8981  -6.8150
    -6.5988  -6.4890  -6.4134  -6.3852  -6.3336  -6.2788  -6.2534  -6.1625
    -6.0054  -5.9146  -5.8709  -5.7609  -5.7386  -5.6269  -5.5954  -5.5681
    -5.5212  -5.4398  -5.3983  -5.3795  -5.2756  -5.2608  -5.2254  -5.1579
    -5.1200  -5.0948  -5.0635  -4.9884  -4.9642  -4.9405  -4.8826  -4.8237
    -4.7601  -4.6916  -4.6547  -4.6451  -4.6099  -4.5832  -4.5747  -4.5074
    -4.4458  -4.4225  -4.3627  -4.3376  -4.2990  -4.2317  -4.2287  -4.1685
    -4.1084  -4.0945  -4.0639  -4.0349  -3.9366  -3.8869  -3.8622  -3.8493
    -3.8210  -3.8028  -3.7697  -3.7562  -3.6912  -3.6737  -3.6359  -3.6149
    -3.5983  -3.5830  -3.5647  -3.5466  -3.5129  -3.4996  -3.3848  -3.3619
    -1.0678   0.7041   0.7892   0.9069   1.4009   1.5318   1.7312   1.8316
     1.8672   2.0360   2.0602   2.1259   2.2831   2.3628   2.3762   2.4230

          k = 0.1218 0.1218 0.0000 (237666 PWs)   bands (ev):

   -21.6135 -21.5527 -21.5206 -21.4770 -21.4440 -21.4104 -21.4036 -21.3905
   -21.2118 -21.2082 -21.1691 -21.1556 -21.1331 -21.1246 -21.0857 -21.0771
   -21.0600 -21.0469 -20.9897 -20.9846 -20.9811 -20.9717 -20.9124 -20.8759
   -20.1159 -20.0626 -20.0343 -20.0063 -19.9748 -19.8836 -19.7875 -19.7811
   -19.7480 -19.7346 -19.6575 -19.6432 -15.7166 -15.7128 -15.6984 -15.6894
   -15.6786 -15.6750 -15.6673 -15.6649 -15.6638 -15.6526 -15.6439 -15.6414
   -15.6326 -15.6177 -15.6130 -15.6084 -15.6072 -15.5965 -15.5853 -15.5778
   -15.5746 -15.5714 -15.5678 -15.5576 -15.5534 -15.5494 -15.5471 -15.5266
   -15.5175 -15.5126 -15.4993 -15.4976 -15.4888 -15.4865 -15.4797 -15.4759
   -15.4684 -15.4572 -15.4508 -15.4450 -15.4426 -15.4346 -15.4259 -15.4225
   -15.4186 -15.4131 -15.4044 -15.4000 -15.3959 -15.3954 -15.3888 -15.3834
   -15.3760 -15.3693 -15.3662 -15.3604 -15.3533 -15.3472 -15.3403 -15.3338
   -15.3322 -15.3285 -15.3188 -15.3052 -15.2925 -15.2859 -15.2747 -15.2578
   -15.2457 -15.1755 -15.1338 -15.0522 -15.0225 -14.8889 -14.8636 -14.8458
   -14.7152 -14.7131 -14.6758 -14.6696  -9.2379  -9.1141  -9.0664  -9.0081
    -8.9528  -8.9001  -8.8613  -8.8303  -8.8062  -8.7808  -8.7187  -8.6521
    -8.5949  -8.5759  -8.5210  -8.4577  -8.3972  -8.2736  -8.2154  -8.1678
    -8.0523  -8.0013  -7.9563  -7.9085  -7.8784  -7.8463  -7.6269  -7.5561
    -7.3946  -7.2910  -7.2322  -7.2028  -7.0220  -6.9263  -6.9022  -6.8288
    -6.5812  -6.4683  -6.4056  -6.3912  -6.3289  -6.2778  -6.2535  -6.1547
    -5.9969  -5.9071  -5.8676  -5.7644  -5.7293  -5.6255  -5.5947  -5.5700
    -5.5256  -5.4482  -5.4055  -5.3830  -5.2885  -5.2665  -5.2315  -5.1577
    -5.1288  -5.0918  -5.0578  -4.9879  -4.9622  -4.9368  -4.8747  -4.8176
    -4.7659  -4.6939  -4.6627  -4.6339  -4.6114  -4.5786  -4.5783  -4.5014
    -4.4449  -4.4212  -4.3683  -4.3321  -4.2989  -4.2379  -4.2263  -4.1739
    -4.1082  -4.0881  -4.0704  -4.0363  -3.9396  -3.8874  -3.8634  -3.8513
    -3.8226  -3.8068  -3.7724  -3.7546  -3.6949  -3.6781  -3.6343  -3.6155
    -3.6040  -3.5831  -3.5595  -3.5472  -3.5084  -3.4949  -3.3858  -3.3641
    -1.0373   0.7191   0.7474   0.8616   1.4495   1.5796   1.7097   1.8022
     1.8582   2.0387   2.0461   2.1303   2.2935   2.3823   2.3934   2.4585

          k = 0.1392 0.1392 0.0000 (237714 PWs)   bands (ev):

   -21.6115 -21.5512 -21.5229 -21.4776 -21.4454 -21.4099 -21.4051 -21.3906
   -21.2104 -21.2084 -21.1687 -21.1579 -21.1329 -21.1217 -21.0866 -21.0765
   -21.0602 -21.0468 -20.9899 -20.9844 -20.9805 -20.9711 -20.9125 -20.8773
   -20.1150 -20.0631 -20.0367 -20.0071 -19.9702 -19.8846 -19.7881 -19.7811
   -19.7483 -19.7353 -19.6568 -19.6432 -15.7168 -15.7125 -15.6989 -15.6889
   -15.6795 -15.6750 -15.6672 -15.6638 -15.6634 -15.6525 -15.6425 -15.6404
   -15.6316 -15.6175 -15.6127 -15.6082 -15.6073 -15.5971 -15.5864 -15.5794
   -15.5751 -15.5711 -15.5670 -15.5580 -15.5530 -15.5491 -15.5473 -15.5267
   -15.5180 -15.5136 -15.5012 -15.4989 -15.4900 -15.4875 -15.4801 -15.4780
   -15.4688 -15.4568 -15.4500 -15.4437 -15.4416 -15.4345 -15.4252 -15.4220
   -15.4185 -15.4118 -15.4037 -15.4001 -15.3959 -15.3945 -15.3887 -15.3828
   -15.3756 -15.3685 -15.3646 -15.3600 -15.3533 -15.3472 -15.3404 -15.3336
   -15.3327 -15.3287 -15.3188 -15.3055 -15.2925 -15.2864 -15.2743 -15.2601
   -15.2472 -15.1789 -15.1365 -15.0498 -15.0146 -14.8908 -14.8632 -14.8434
   -14.7177 -14.7156 -14.6760 -14.6687  -9.2354  -9.1170  -9.0668  -9.0126
    -8.9512  -8.9029  -8.8621  -8.8299  -8.8047  -8.7765  -8.7152  -8.6529
    -8.5910  -8.5779  -8.5233  -8.4586  -8.3880  -8.2705  -8.2148  -8.1720
    -8.0462  -8.0042  -7.9632  -7.9107  -7.8788  -7.8400  -7.6349  -7.5680
    -7.3940  -7.2966  -7.2387  -7.1902  -7.0351  -6.9401  -6.8902  -6.8403
    -6.5657  -6.4630  -6.3964  -6.3851  -6.3230  -6.2751  -6.2528  -6.1465
    -5.9867  -5.8992  -5.8653  -5.7695  -5.7185  -5.6228  -5.5964  -5.5731
    -5.5297  -5.4562  -5.4108  -5.3861  -5.3025  -5.2721  -5.2372  -5.1588
    -5.1367  -5.0892  -5.0531  -4.9895  -4.9581  -4.9369  -4.8638  -4.8112
    -4.7724  -4.6969  -4.6718  -4.6258  -4.6099  -4.5808  -4.5738  -4.4953
    -4.4430  -4.4210  -4.3733  -4.3260  -4.2994  -4.2447  -4.2230  -4.1791
    -4.1087  -4.0838  -4.0755  -4.0377  -3.9427  -3.8886  -3.8650  -3.8532
    -3.8247  -3.8096  -3.7759  -3.7533  -3.6991  -3.6826  -3.6348  -3.6206
    -3.6040  -3.5830  -3.5533  -3.5475  -3.5045  -3.4897  -3.3870  -3.3663
    -1.0027   0.7044   0.7384   0.8176   1.4953   1.6199   1.6848   1.7746
     1.8581   2.0216   2.0530   2.1365   2.3000   2.3940   2.4206   2.4444

          k = 0.1566 0.1566 0.0000 (237731 PWs)   bands (ev):

   -21.6093 -21.5494 -21.5253 -21.4782 -21.4470 -21.4094 -21.4068 -21.3907
   -21.2106 -21.2067 -21.1683 -21.1603 -21.1326 -21.1186 -21.0877 -21.0758
   -21.0604 -21.0469 -20.9900 -20.9844 -20.9794 -20.9705 -20.9127 -20.8789
   -20.1140 -20.0635 -20.0390 -20.0080 -19.9654 -19.8855 -19.7887 -19.7811
   -19.7486 -19.7362 -19.6561 -19.6433 -15.7170 -15.7123 -15.6994 -15.6885
   -15.6804 -15.6752 -15.6671 -15.6629 -15.6625 -15.6523 -15.6412 -15.6393
   -15.6304 -15.6173 -15.6130 -15.6079 -15.6071 -15.5978 -15.5879 -15.5809
   -15.5758 -15.5705 -15.5662 -15.5584 -15.5524 -15.5488 -15.5475 -15.5268
   -15.5194 -15.5140 -15.5036 -15.4999 -15.4915 -15.4884 -15.4809 -15.4796
   -15.4691 -15.4564 -15.4492 -15.4424 -15.4405 -15.4343 -15.4246 -15.4223
   -15.4178 -15.4103 -15.4029 -15.4001 -15.3959 -15.3934 -15.3886 -15.3821
   -15.3751 -15.3680 -15.3629 -15.3592 -15.3532 -15.3473 -15.3406 -15.3336
   -15.3331 -15.3287 -15.3189 -15.3057 -15.2925 -15.2870 -15.2738 -15.2626
   -15.2488 -15.1824 -15.1389 -15.0486 -15.0059 -14.8919 -14.8627 -14.8411
   -14.7205 -14.7182 -14.6762 -14.6680  -9.2326  -9.1202  -9.0672  -9.0173
    -8.9494  -8.9052  -8.8628  -8.8299  -8.8034  -8.7725  -8.7109  -8.6535
    -8.5871  -8.5798  -8.5255  -8.4596  -8.3782  -8.2677  -8.2141  -8.1756
    -8.0414  -8.0059  -7.9702  -7.9132  -7.8793  -7.8337  -7.6426  -7.5792
    -7.3967  -7.3012  -7.2467  -7.1781  -7.0541  -6.9484  -6.8761  -6.8487
    -6.5529  -6.4714  -6.3901  -6.3635  -6.3165  -6.2702  -6.2513  -6.1378
    -5.9749  -5.8911  -5.8643  -5.7759  -5.7069  -5.6193  -5.6028  -5.5742
    -5.5338  -5.4631  -5.4140  -5.3893  -5.3165  -5.2778  -5.2423  -5.1621
    -5.1427  -5.0872  -5.0496  -4.9919  -4.9534  -4.9390  -4.8519  -4.8053
    -4.7787  -4.7012  -4.6806  -4.6242  -4.6042  -4.5798  -4.5691  -4.4896
    -4.4407  -4.4218  -4.3772  -4.3194  -4.3000  -4.2520  -4.2191  -4.1843
    -4.1099  -4.0873  -4.0731  -4.0392  -3.9460  -3.8902  -3.8686  -3.8541
    -3.8279  -3.8103  -3.7799  -3.7522  -3.7034  -3.6874  -3.6388  -3.6253
    -3.6013  -3.5829  -3.5486  -3.5455  -3.5009  -3.4841  -3.3884  -3.3682
    -0.9643   0.6647   0.7563   0.7764   1.5315   1.6269   1.6859   1.7533
     1.8644   2.0057   2.0614   2.1440   2.3030   2.4060   2.4481   2.4584

          k = 0.1740 0.1740 0.0000 (237716 PWs)   bands (ev):

   -21.6069 -21.5475 -21.5278 -21.4789 -21.4487 -21.4094 -21.4085 -21.3909
   -21.2112 -21.2042 -21.1681 -21.1626 -21.1324 -21.1154 -21.0889 -21.0752
   -21.0607 -21.0473 -20.9902 -20.9846 -20.9780 -20.9697 -20.9129 -20.8806
   -20.1128 -20.0640 -20.0411 -20.0092 -19.9605 -19.8864 -19.7895 -19.7812
   -19.7489 -19.7370 -19.6554 -19.6434 -15.7172 -15.7120 -15.6998 -15.6881
   -15.6812 -15.6756 -15.6670 -15.6625 -15.6611 -15.6523 -15.6403 -15.6382
   -15.6289 -15.6170 -15.6136 -15.6076 -15.6068 -15.5987 -15.5894 -15.5821
   -15.5765 -15.5697 -15.5655 -15.5587 -15.5518 -15.5487 -15.5475 -15.5270
   -15.5210 -15.5139 -15.5061 -15.5008 -15.4931 -15.4892 -15.4825 -15.4803
   -15.4693 -15.4560 -15.4485 -15.4412 -15.4395 -15.4340 -15.4241 -15.4228
   -15.4171 -15.4090 -15.4019 -15.3996 -15.3959 -15.3924 -15.3884 -15.3813
   -15.3746 -15.3678 -15.3615 -15.3580 -15.3530 -15.3475 -15.3407 -15.3340
   -15.3333 -15.3285 -15.3188 -15.3060 -15.2927 -15.2876 -15.2734 -15.2651
   -15.2506 -15.1860 -15.1410 -15.0487 -14.9967 -14.8924 -14.8623 -14.8389
   -14.7236 -14.7210 -14.6765 -14.6674  -9.2296  -9.1236  -9.0676  -9.0221
    -8.9476  -8.9070  -8.8634  -8.8302  -8.8024  -8.7692  -8.7057  -8.6536
    -8.5835  -8.5816  -8.5273  -8.4607  -8.3679  -8.2653  -8.2135  -8.1783
    -8.0391  -8.0056  -7.9770  -7.9159  -7.8796  -7.8274  -7.6497  -7.5894
    -7.4023  -7.3053  -7.2559  -7.1676  -7.0758  -6.9523  -6.8672  -6.8476
    -6.5439  -6.4845  -6.3834  -6.3375  -6.3097  -6.2630  -6.2487  -6.1284
    -5.9617  -5.8832  -5.8645  -5.7836  -5.6950  -5.6191  -5.6098  -5.5729
    -5.5378  -5.4688  -5.4157  -5.3928  -5.3297  -5.2836  -5.2466  -5.1672
    -5.1466  -5.0862  -5.0477  -4.9945  -4.9499  -4.9411  -4.8410  -4.8037
    -4.7808  -4.7071  -4.6886  -4.6252  -4.5995  -4.5735  -4.5646  -4.4847
    -4.4398  -4.4220  -4.3796  -4.3131  -4.3003  -4.2599  -4.2147  -4.1895
    -4.1117  -4.0939  -4.0681  -4.0406  -3.9495  -3.8919  -3.8749  -3.8543
    -3.8322  -3.8087  -3.7839  -3.7517  -3.7073  -3.6929  -3.6468  -3.6261
    -3.5983  -3.5828  -3.5488  -3.5388  -3.4971  -3.4784  -3.3901  -3.3698
    -0.9223   0.6260   0.7316   0.7816   1.5355   1.6195   1.7035   1.7526
     1.8749   1.9941   2.0701   2.1528   2.3031   2.4190   2.4723   2.4765

     Writing all to output data dir ./tmp/slab.save/ :
     XML data file, pseudopotentials, collected wavefunctions

     init_run     :      6.16s CPU      6.73s WALL (       1 calls)
     electrons    :   5009.40s CPU   5197.18s WALL (       1 calls)

     Called by init_run:
     wfcinit      :      0.00s CPU      0.00s WALL (       1 calls)
     wfcinit:atom :      0.58s CPU      0.99s WALL (      21 calls)
     wfcinit:wfcr :     78.23s CPU     81.96s WALL (      21 calls)
     potinit      :      2.03s CPU      2.17s WALL (       1 calls)
     hinit0       :      0.84s CPU      0.87s WALL (       1 calls)

     Called by electrons:
     c_bands      :   5009.40s CPU   5197.15s WALL (       1 calls)
     v_of_rho     :      0.43s CPU      0.50s WALL (       1 calls)
     v_h          :      0.04s CPU      0.05s WALL (       1 calls)
     v_xc         :      0.40s CPU      0.45s WALL (       1 calls)
     newd         :      1.68s CPU      2.02s WALL (       1 calls)
     PAW_pot      :      0.93s CPU      0.94s WALL (       1 calls)

     Called by c_bands:
     init_us_2    :      1.71s CPU      1.77s WALL (      21 calls)
     cegterg      :   4919.69s CPU   5097.98s WALL (     126 calls)

     Called by sum_band:

     Called by *egterg:
     cdiaghg      :     93.09s CPU     98.16s WALL (    2541 calls)
     cegterg:over :    637.68s CPU    641.92s WALL (    2520 calls)
     cegterg:upda :    375.67s CPU    384.34s WALL (    2520 calls)
     cegterg:last :    839.89s CPU    847.16s WALL (    1121 calls)
     cdiaghg:chol :      7.59s CPU      7.64s WALL (    2541 calls)
     cdiaghg:inve :      1.87s CPU      1.89s WALL (    2541 calls)
     cdiaghg:para :     21.96s CPU     25.09s WALL (    5082 calls)
     h_psi        :   2547.64s CPU   2695.36s WALL (    2667 calls)
     s_psi        :    373.81s CPU    376.10s WALL (    2667 calls)
     g_psi        :     23.17s CPU     23.33s WALL (    2520 calls)

     Called by h_psi:
     h_psi:calbec :    433.53s CPU    438.09s WALL (    2667 calls)
     vloc_psi     :   1717.56s CPU   1854.71s WALL (    2667 calls)
                                        0.00s GPU  (    2667 calls)
     add_vuspsi   :    373.57s CPU    375.88s WALL (    2667 calls)

     General routines
     calbec       :    433.52s CPU    438.08s WALL (    2667 calls)
     fft          :      0.96s CPU      1.02s WALL (      13 calls)
     ffts         :      0.57s CPU      0.57s WALL (       1 calls)
     fftw         :   1503.20s CPU   1635.58s WALL (  576772 calls)
     interpolate  :      0.59s CPU      0.61s WALL (       1 calls)
     davcio       :      0.16s CPU      5.85s WALL (      42 calls)

     Parallel routines

     PAW routines
     PAW_pot      :      0.93s CPU      0.94s WALL (       1 calls)

     PWSCF        :      1h23m CPU      1h27m WALL


   This run was terminated on:  11:57:12   6Oct2026            

=------------------------------------------------------------------------------=
   JOB DONE.
=------------------------------------------------------------------------------=
Note: The following floating-point exceptions are signalling: IEEE_UNDERFLOW_FLAG IEEE_DENORMAL
Note: The following floating-point exceptions are signalling: IEEE_UNDERFLOW_FLAG IEEE_DENORMAL
Note: The following floating-point exceptions are signalling: IEEE_UNDERFLOW_FLAG IEEE_DENORMAL
