
     Program PWSCF v.7.3.1 starts on  4Oct2026 at 15:52:31 

     This program is part of the open-source Quantum ESPRESSO suite
     for quantum simulation of materials; please cite
         "P. Giannozzi et al., J. Phys.:Condens. Matter 21 395502 (2009);
         "P. Giannozzi et al., J. Phys.:Condens. Matter 29 465901 (2017);
         "P. Giannozzi et al., J. Chem. Phys. 152 154105 (2020);
          URL http://www.quantum-espresso.org", 
     in publications or presentations arising from this work. More details at
     http://www.quantum-espresso.org/quote

     Parallel version (MPI & OpenMP), running on       1 processor cores
     Number of MPI processes:                 1
     Threads/MPI process:                     1

     MPI processes distributed on     1 nodes
     294759 MiB available memory on the printing compute node when the environment starts
 
     Reading input from relax.in

     Current dimensions of program PWSCF are:
     Max number of different atomic species (ntypx) = 10
     Max number of k-points (npk) =  40000
     Max angular momentum in pseudopotentials (lmaxx) =  4
     file In.pbe-dn-kjpaw_psl.1.0.0.UPF: wavefunction(s)  5S 5P 4D renormalized
     file O.pbe-n-kjpaw_psl.1.0.0.UPF: wavefunction(s)  2S 2P renormalized
     file W.pbe-spn-kjpaw_psl.1.0.0.UPF: wavefunction(s)  6S 5P 5D renormalized
     file H.pbe-kjpaw_psl.1.0.0.UPF: wavefunction(s)  1S renormalized
     Message from routine setup:
     using ibrav=0 with symmetry is DISCOURAGED, use correct ibrav instead
 
     Subspace diagonalization in iterative solution of the eigenvalue problem:
     a serial algorithm will be used

 
     G-vector sticks info
     --------------------
     sticks:   dense  smooth     PW     G-vecs:    dense   smooth      PW
     Sum       17157    8585   2225              7413139  2620949  345857
 
     Using Slab Decomposition
 


     bravais-lattice index     =            0
     lattice parameter (alat)  =      19.4980  a.u.
     unit-cell volume          =   32429.1815 (a.u.)^3
     number of atoms/cell      =          176
     number of atomic types    =            4
     number of electrons       =      1329.00
     number of Kohn-Sham states=          677
     kinetic-energy cutoff     =      71.0000  Ry
     charge density cutoff     =     568.0000  Ry
     scf convergence threshold =      1.0E-09
     mixing beta               =       0.2000
     number of iterations used =            8  local-TF  mixing
     energy convergence thresh.=      1.0E-04
     force convergence thresh. =      1.0E-03
     Exchange-correlation= SLA  PW   PBX  PBC
                           (   1   4   3   4   0   0   0)
     nstep                     =          300


     GPU acceleration is ACTIVE.  1 visible GPUs per MPI rank
     GPU-aware MPI enabled


     celldm(1)=  19.498036  celldm(2)=   0.000000  celldm(3)=   0.000000
     celldm(4)=   0.000000  celldm(5)=   0.000000  celldm(6)=   0.000000

     crystal axes: (cart. coord. in units of alat)
               a(1) = (   1.000000   0.000000   0.000000 )  
               a(2) = (   0.000000   0.999087   0.000000 )  
               a(3) = (   0.000000   0.000000   4.378852 )  

     reciprocal axes: (cart. coord. in units 2 pi/alat)
               b(1) = (  1.000000  0.000000  0.000000 )  
               b(2) = (  0.000000  1.000914  0.000000 )  
               b(3) = (  0.000000  0.000000  0.228370 )  


     PseudoPot. # 1 for In read from file:
     ./In.pbe-dn-kjpaw_psl.1.0.0.UPF
     MD5 check sum: 235b15e6a7fdfd96486e0ecdcb5b12c6
     Pseudo is Projector augmented-wave + core cor, Zval = 13.0
     Generated using &quot;atomic&quot; code by A. Dal Corso  v.6.3
     Shape of augmentation charge: PSQ
     Using radial grid of 1241 points,  6 beta functions with: 
                l(1) =   0
                l(2) =   0
                l(3) =   1
                l(4) =   1
                l(5) =   2
                l(6) =   2
     Q(r) pseudized with 0 coefficients 


     PseudoPot. # 2 for O  read from file:
     ./O.pbe-n-kjpaw_psl.1.0.0.UPF
     MD5 check sum: e99d9cef9b487d1ca56f5b95ecd0fd7a
     Pseudo is Projector augmented-wave + core cor, Zval =  6.0
     Generated using &quot;atomic&quot; code by A. Dal Corso  v.6.3
     Shape of augmentation charge: PSQ
     Using radial grid of 1095 points,  4 beta functions with: 
                l(1) =   0
                l(2) =   0
                l(3) =   1
                l(4) =   1
     Q(r) pseudized with 0 coefficients 


     PseudoPot. # 3 for W  read from file:
     ./W.pbe-spn-kjpaw_psl.1.0.0.UPF
     MD5 check sum: 03c3df5b60893f488392c7401945500a
     Pseudo is Projector augmented-wave + core cor, Zval = 14.0
     Generated using &quot;atomic&quot; code by A. Dal Corso  v.6.2.2
     Shape of augmentation charge: PSQ
     Using radial grid of 1273 points,  6 beta functions with: 
                l(1) =   0
                l(2) =   0
                l(3) =   1
                l(4) =   1
                l(5) =   2
                l(6) =   2
     Q(r) pseudized with 0 coefficients 


     PseudoPot. # 4 for H  read from file:
     ./H.pbe-kjpaw_psl.1.0.0.UPF
     MD5 check sum: d81a744832360e4a8af0b0b5b123bc2a
     Pseudo is Projector augmented-wave, Zval =  1.0
     Generated using &quot;atomic&quot; code by A. Dal Corso  v.6.3MaX
     Shape of augmentation charge: PSQ
     Using radial grid of  929 points,  2 beta functions with: 
                l(1) =   0
                l(2) =   0
     Q(r) pseudized with 0 coefficients 


     atomic species   valence    mass     pseudopotential
     In               13.00   114.81800     In( 1.00)
     O                 6.00    15.99900     O ( 1.00)
     W                14.00   183.84000     W ( 1.00)
     H                 1.00     1.00800     H ( 1.00)

      2 Sym. Ops. (no inversion) found ( 1 have fractional translation)



   Cartesian axes

     site n.     atom                  positions (alat units)
         1        In     tau(   1) = (   0.2475443   0.2523154   1.4389793  )
         2        In     tau(   2) = (   0.7524557   0.2472279   1.4389793  )
         3        In     tau(   3) = (   0.2502748   0.2498150   1.9394110  )
         4        In     tau(   4) = (   0.2524557   0.7518587   1.4389793  )
         5        In     tau(   5) = (   0.4664954   0.4994667   1.9392039  )
         6        In     tau(   6) = (   0.0359158   0.5019578   1.4401297  )
         7        In     tau(   7) = (   0.7512482   0.4650386   1.6891257  )
         8        In     tau(   8) = (   0.2487518   0.0345047   1.6891257  )
         9        In     tau(   9) = (   0.5000000   0.7493149   1.6564928  )
        10        In     tau(  10) = (   0.0335046  -0.0000766   1.9392039  )
        11        In     tau(  11) = (   0.4640842   0.0024146   1.4401297  )
        12        In     tau(  12) = (   0.0000000   0.2497716   1.6564928  )
        13        O      tau(  13) = (   0.3890697   0.1563764   1.5691308  )
        14        O      tau(  14) = (   0.6109303   0.3431669   1.5691308  )
        15        O      tau(  15) = (   0.1103649   0.1547804   1.8080425  )
        16        O      tau(  16) = (   0.8896351   0.3447628   1.8080425  )
        17        O      tau(  17) = (   0.3810388   0.3935568   1.3438360  )
        18        O      tau(  18) = (   0.3837086   0.6098315   1.5364709  )
        19        O      tau(  19) = (   0.6189612   0.1059864   1.3438360  )
        20        O      tau(  20) = (   0.6162914   0.8887983   1.5364709  )
        21        O      tau(  21) = (   0.1548955   0.3830323   1.5805003  )
        22        O      tau(  22) = (   0.3460904   0.3819793   1.7995751  )
        23        O      tau(  23) = (   0.1837587   0.6023891   1.3068008  )
        24        O      tau(  24) = (   0.3455844   0.6172116   2.0791801  )
        25        O      tau(  25) = (   0.0990545   0.3423072   1.3161241  )
        26        O      tau(  26) = (   0.9009455   0.1572361   1.3161241  )
        27        O      tau(  27) = (   0.3898594   0.3452283   2.0715524  )
        28        O      tau(  28) = (   0.6101406   0.1543150   2.0715524  )
        29        O      tau(  29) = (   0.1162914   0.1102882   1.5364709  )
        30        O      tau(  30) = (   0.1189612   0.8931001   1.3438360  )
        31        O      tau(  31) = (   0.8837086   0.3892551   1.5364709  )
        32        O      tau(  32) = (   0.8810388   0.6055297   1.3438360  )
        33        O      tau(  33) = (   0.3162413   0.1028458   1.3068008  )
        34        O      tau(  34) = (   0.1544156   0.1176683   2.0791801  )
        35        O      tau(  35) = (   0.3451045   0.8825755   1.5805003  )
        36        O      tau(  36) = (   0.1539096   0.8815226   1.7995751  )
        37        In     tau(  37) = (   0.7502748   0.7492716   1.9394110  )
        38        In     tau(  38) = (   0.2497252   0.7493582   1.9394110  )
        39        In     tau(  39) = (   0.7475443   0.7467711   1.4389793  )
        40        In     tau(  40) = (   0.7497252   0.2497283   1.9394110  )
        41        In     tau(  41) = (   0.9640842  -0.0024146   1.4401297  )
        42        In     tau(  42) = (   0.5335046   0.0000766   1.9392039  )
        43        In     tau(  43) = (   0.0000000   0.2497716   2.1557213  )
        44        In     tau(  44) = (   0.0000000   0.7493149   1.7222710  )
        45        In     tau(  45) = (   0.5359158   0.4971287   1.4401297  )
        46        In     tau(  46) = (   0.9664954   0.4996198   1.9392039  )
        47        In     tau(  47) = (   0.2512482   0.5340479   1.6891257  )
        48        In     tau(  48) = (   0.7487518   0.9645819   1.6891257  )
        49        In     tau(  49) = (   0.5000000   0.2497716   1.7222710  )
        50        In     tau(  50) = (   0.5000000   0.7493149   2.1557213  )
        51        O      tau(  51) = (   0.8898594   0.6538583   2.0715524  )
        52        O      tau(  52) = (   0.1101406   0.8447716   2.0715524  )
        53        O      tau(  53) = (   0.5990545   0.6567794   1.3161241  )
        54        O      tau(  54) = (   0.4009455   0.8418504   1.3161241  )
        55        O      tau(  55) = (   0.8822894   0.8888322   1.8422341  )
        56        O      tau(  56) = (   0.8821677   0.1098284   2.0351332  )
        57        O      tau(  57) = (   0.1177106   0.6097976   1.8422341  )
        58        O      tau(  58) = (   0.1178323   0.3897149   2.0351332  )
        59        O      tau(  59) = (   0.6544156   0.8814183   2.0791801  )
        60        O      tau(  60) = (   0.8162413   0.8962407   1.3068008  )
        61        O      tau(  61) = (   0.6539096   0.1175639   1.7995751  )
        62        O      tau(  62) = (   0.8451045   0.1165110   1.5805003  )
        63        O      tau(  63) = (   0.6103649   0.8443061   1.8080425  )
        64        O      tau(  64) = (   0.3896351   0.6543237   1.8080425  )
        65        O      tau(  65) = (   0.8890697   0.8427101   1.5691308  )
        66        O      tau(  66) = (   0.1109303   0.6559197   1.5691308  )
        67        O      tau(  67) = (   0.6178323   0.6093716   2.0351332  )
        68        O      tau(  68) = (   0.6177106   0.3892890   1.8422341  )
        69        O      tau(  69) = (   0.3821677   0.8892582   2.0351332  )
        70        O      tau(  70) = (   0.3822894   0.1102543   1.8422341  )
        71        O      tau(  71) = (   0.8460904   0.6171072   1.7995751  )
        72        O      tau(  72) = (   0.6548955   0.6160543   1.5805003  )
        73        O      tau(  73) = (   0.8455844   0.3818750   2.0791801  )
        74        O      tau(  74) = (   0.6837587   0.3966974   1.3068008  )
        75        In     tau(  75) = (   0.2497252   0.2498150   2.4394411  )
        76        In     tau(  76) = (   0.7502748   0.2497283   2.4394411  )
        77        In     tau(  77) = (   0.2524557   0.2523154   2.9398727  )
        78        In     tau(  78) = (   0.2502748   0.7493582   2.4394411  )
        79        In     tau(  79) = (   0.4640842   0.5019578   2.9387223  )
        80        In     tau(  80) = (   0.0335046   0.4994667   2.4396481  )
        81        In     tau(  81) = (   0.7487518   0.4650386   2.6897264  )
        82        In     tau(  82) = (   0.2512482   0.0345047   2.6897264  )
        83        In     tau(  83) = (   0.5000000   0.7493149   2.6565810  )
        84        In     tau(  84) = (   0.5000000   0.2497716   2.2231307  )
        85        In     tau(  85) = (   0.0359158   0.0024146   2.9387223  )
        86        In     tau(  86) = (   0.4664954  -0.0000766   2.4396481  )
        87        W      tau(  87) = (   0.7500000   0.0334062   2.1894260  )
        88        In     tau(  88) = (   0.2500000   0.4661371   2.1894260  )
        89        In     tau(  89) = (   0.0000000   0.7493149   2.2231307  )
        90        In     tau(  90) = (   0.0000000   0.2497716   2.6565810  )
        91        O      tau(  91) = (   0.3896351   0.1547804   2.5708096  )
        92        O      tau(  92) = (   0.6103649   0.3447628   2.5708096  )
        93        O      tau(  93) = (   0.1109303   0.1563764   2.8097212  )
        94        O      tau(  94) = (   0.8890697   0.3431669   2.8097212  )
        95        O      tau(  95) = (   0.3821677   0.3897149   2.3437188  )
        96        O      tau(  96) = (   0.3822894   0.6097976   2.5366180  )
        97        O      tau(  97) = (   0.6178323   0.1098284   2.3437188  )
        98        O      tau(  98) = (   0.6177106   0.8888322   2.5366180  )
        99        O      tau(  99) = (   0.1539096   0.3819793   2.5792770  )
       100        O      tau( 100) = (   0.3451045   0.3830323   2.7983517  )
       101        O      tau( 101) = (   0.1544156   0.6172116   2.2996719  )
       102        O      tau( 102) = (   0.3162413   0.6023891   3.0720512  )
       103        O      tau( 103) = (   0.1101406   0.3452283   2.3072996  )
       104        O      tau( 104) = (   0.8898594   0.1543150   2.3072996  )
       105        O      tau( 105) = (   0.4009455   0.3423072   3.0627280  )
       106        O      tau( 106) = (   0.5990545   0.1572361   3.0627280  )
       107        O      tau( 107) = (   0.1177106   0.1102543   2.5366180  )
       108        O      tau( 108) = (   0.1178323   0.8892582   2.3437188  )
       109        O      tau( 109) = (   0.8822894   0.3892890   2.5366180  )
       110        O      tau( 110) = (   0.8821677   0.6093716   2.3437188  )
       111        O      tau( 111) = (   0.3455844   0.1176683   2.2996719  )
       112        O      tau( 112) = (   0.1837587   0.1028458   3.0720512  )
       113        O      tau( 113) = (   0.3460904   0.8815226   2.5792770  )
       114        O      tau( 114) = (   0.1548955   0.8825755   2.7983517  )
       115        In     tau( 115) = (   0.7524557   0.7467711   2.9398727  )
       116        In     tau( 116) = (   0.2475443   0.7518587   2.9398727  )
       117        In     tau( 117) = (   0.7497252   0.7492716   2.4394411  )
       118        In     tau( 118) = (   0.7475443   0.2472279   2.9398727  )
       119        In     tau( 119) = (   0.9664954   0.0000766   2.4396481  )
       120        In     tau( 120) = (   0.5359158  -0.0024146   2.9387223  )
       121        In     tau( 121) = (   0.2500000   0.9656804   2.1894260  )
       122        In     tau( 122) = (   0.7500000   0.5329494   2.1894260  )
       123        In     tau( 123) = (   0.0000000   0.7493149   2.7223593  )
       124        In     tau( 124) = (   0.5335046   0.4996198   2.4396481  )
       125        In     tau( 125) = (   0.9640842   0.4971287   2.9387223  )
       126        In     tau( 126) = (   0.2487518   0.5340479   2.6897264  )
       127        In     tau( 127) = (   0.7512482   0.9645819   2.6897264  )
       128        In     tau( 128) = (   0.5000000   0.2497716   2.7223593  )
       129        O      tau( 129) = (   0.9009455   0.6567794   3.0627280  )
       130        O      tau( 130) = (   0.0990545   0.8418504   3.0627280  )
       131        O      tau( 131) = (   0.6101406   0.6538583   2.3072996  )
       132        O      tau( 132) = (   0.3898594   0.8447716   2.3072996  )
       133        O      tau( 133) = (   0.8837086   0.8887983   2.8423812  )
       134        O      tau( 134) = (   0.8810388   0.1059864   3.0350160  )
       135        O      tau( 135) = (   0.1162914   0.6098315   2.8423812  )
       136        O      tau( 136) = (   0.1189612   0.3935568   3.0350160  )
       137        O      tau( 137) = (   0.6837587   0.8962407   3.0720512  )
       138        O      tau( 138) = (   0.8455844   0.8814183   2.2996719  )
       139        O      tau( 139) = (   0.6548955   0.1165110   2.7983517  )
       140        O      tau( 140) = (   0.8460904   0.1175639   2.5792770  )
       141        O      tau( 141) = (   0.6109303   0.8427101   2.8097212  )
       142        O      tau( 142) = (   0.3890697   0.6559197   2.8097212  )
       143        O      tau( 143) = (   0.8896351   0.8443061   2.5708096  )
       144        O      tau( 144) = (   0.1103649   0.6543237   2.5708096  )
       145        O      tau( 145) = (   0.6189612   0.6055297   3.0350160  )
       146        O      tau( 146) = (   0.6162914   0.3892551   2.8423812  )
       147        O      tau( 147) = (   0.3810388   0.8931001   3.0350160  )
       148        O      tau( 148) = (   0.3837086   0.1102882   2.8423812  )
       149        O      tau( 149) = (   0.8451045   0.6160543   2.7983517  )
       150        O      tau( 150) = (   0.6539096   0.6171072   2.5792770  )
       151        O      tau( 151) = (   0.8162413   0.3966974   3.0720512  )
       152        O      tau( 152) = (   0.6544156   0.3818750   2.2996719  )
       153        H      tau( 153) = (   0.3222976   0.4631522   1.3149352  )
       154        H      tau( 154) = (   0.6777024   0.0363910   1.3149352  )
       155        H      tau( 155) = (   0.1357120   0.6463843   1.2384941  )
       156        H      tau( 156) = (   0.1377726   0.3795544   1.2387193  )
       157        H      tau( 157) = (   0.8622274   0.1199888   1.2387193  )
       158        H      tau( 158) = (   0.1777024   0.9626955   1.3149352  )
       159        H      tau( 159) = (   0.8222976   0.5359343   1.3149352  )
       160        H      tau( 160) = (   0.3642880   0.1468410   1.2384941  )
       161        H      tau( 161) = (   0.6377726   0.6195321   1.2387193  )
       162        H      tau( 162) = (   0.3622274   0.8790977   1.2387193  )
       163        H      tau( 163) = (   0.8642880   0.8522455   1.2384941  )
       164        H      tau( 164) = (   0.6357120   0.3527022   1.2384941  )
       165        H      tau( 165) = (   0.3642880   0.6463843   3.1403579  )
       166        H      tau( 166) = (   0.3622274   0.3795544   3.1401328  )
       167        H      tau( 167) = (   0.6377726   0.1199888   3.1401328  )
       168        H      tau( 168) = (   0.1357120   0.1468410   3.1403579  )
       169        H      tau( 169) = (   0.8622274   0.6195321   3.1401328  )
       170        H      tau( 170) = (   0.1377726   0.8790977   3.1401328  )
       171        H      tau( 171) = (   0.8222976   0.0363910   3.0639169  )
       172        H      tau( 172) = (   0.1777024   0.4631522   3.0639169  )
       173        H      tau( 173) = (   0.6357120   0.8522455   3.1403579  )
       174        H      tau( 174) = (   0.6777024   0.5359343   3.0639169  )
       175        H      tau( 175) = (   0.3222976   0.9626955   3.0639169  )
       176        H      tau( 176) = (   0.8642880   0.3527022   3.1403579  )

     number of k points=     4  Marzari-Vanderbilt smearing, width (Ry)=  0.0100
                       cart. coord. in units 2pi/alat
        k(    1) = (   0.0000000   0.0000000   0.0000000), wk =   0.2222222
        k(    2) = (   0.0000000   0.3336381   0.0000000), wk =   0.4444444
        k(    3) = (   0.3333333   0.0000000   0.0000000), wk =   0.4444444
        k(    4) = (   0.3333333   0.3336381   0.0000000), wk =   0.8888889

     Dense  grid:  7413139 G-vectors     FFT dimensions: ( 150, 150, 648)

     Smooth grid:  2620949 G-vectors     FFT dimensions: ( 108, 108, 480)

     Estimated max dynamical RAM per process >      82.25 GB

     Initial potential from superposition of free atoms

     starting charge    1328.7946, renormalised to    1329.0000

     negative rho (up, down):  1.772E-03 0.000E+00
     Starting wfcs are  916 randomized atomic wfcs
     Checking if some PAW data can be deallocated... 

     total cpu time spent up to now is       39.8 secs

     Self-consistent Calculation

     iteration #  1     ecut=    71.00 Ry     beta= 0.20
     Davidson diagonalization with overlap
     ethr =  1.00E-02,  avg # of iterations =  2.0

     negative rho (up, down):  2.414E-04 0.000E+00

     total cpu time spent up to now is       70.2 secs

     total energy              =  -27388.13934457 Ry
     estimated scf accuracy    <      49.95564922 Ry

     iteration #  2     ecut=    71.00 Ry     beta= 0.20
     Davidson diagonalization with overlap
     ethr =  3.76E-03,  avg # of iterations =  1.0

     negative rho (up, down):  4.844E-03 0.000E+00

     total cpu time spent up to now is       99.4 secs

     total energy              =  -27372.91898232 Ry
     estimated scf accuracy    <      32.85413859 Ry

     iteration #  3     ecut=    71.00 Ry     beta= 0.20
     Davidson diagonalization with overlap
     ethr =  2.47E-03,  avg # of iterations =  5.0

     negative rho (up, down):  2.056E-03 0.000E+00

     total cpu time spent up to now is      134.9 secs

     total energy              =  -27384.06948004 Ry
     estimated scf accuracy    <       3.84333172 Ry

     iteration #  4     ecut=    71.00 Ry     beta= 0.20
     Davidson diagonalization with overlap
     c_bands:  3 eigenvalues not converged
     c_bands:  2 eigenvalues not converged
     ethr =  2.89E-04,  avg # of iterations = 13.5

     negative rho (up, down):  1.061E-03 0.000E+00

     total cpu time spent up to now is      174.4 secs

     total energy              =  -27386.00707103 Ry
     estimated scf accuracy    <       7.12206076 Ry

     iteration #  5     ecut=    71.00 Ry     beta= 0.20
     Davidson diagonalization with overlap
     ethr =  2.89E-04,  avg # of iterations =  2.0

     negative rho (up, down):  5.801E-04 0.000E+00

     total cpu time spent up to now is      204.6 secs

     total energy              =  -27384.07706811 Ry
     estimated scf accuracy    <       5.29661659 Ry

     iteration #  6     ecut=    71.00 Ry     beta= 0.20
     Davidson diagonalization with overlap
     ethr =  2.89E-04,  avg # of iterations =  7.8

     negative rho (up, down):  5.150E-04 0.000E+00

     total cpu time spent up to now is      239.3 secs

     total energy              =  -27385.44509277 Ry
     estimated scf accuracy    <       1.12838473 Ry

     iteration #  7     ecut=    71.00 Ry     beta= 0.20
     Davidson diagonalization with overlap
     c_bands:  2 eigenvalues not converged
     c_bands:  1 eigenvalues not converged
     ethr =  8.49E-05,  avg # of iterations = 14.5

     negative rho (up, down):  2.633E-03 0.000E+00

     total cpu time spent up to now is      283.1 secs

     total energy              =  -27384.20506466 Ry
     estimated scf accuracy    <       8.40485422 Ry

     iteration #  8     ecut=    71.00 Ry     beta= 0.20
     Davidson diagonalization with overlap
     ethr =  8.49E-05,  avg # of iterations =  9.3

     negative rho (up, down):  1.775E-03 0.000E+00

     total cpu time spent up to now is      324.3 secs

     total energy              =  -27385.03955707 Ry
     estimated scf accuracy    <       0.42144774 Ry

     iteration #  9     ecut=    71.00 Ry     beta= 0.20
     Davidson diagonalization with overlap
     ethr =  3.17E-05,  avg # of iterations =  2.8

     negative rho (up, down):  4.039E-04 0.000E+00

     total cpu time spent up to now is      354.9 secs

     total energy              =  -27384.92412625 Ry
     estimated scf accuracy    <       0.43753767 Ry

     iteration # 10     ecut=    71.00 Ry     beta= 0.20
     Davidson diagonalization with overlap
     c_bands:  2 eigenvalues not converged
     ethr =  3.17E-05,  avg # of iterations = 19.3

     negative rho (up, down):  2.590E-04 0.000E+00

     total cpu time spent up to now is      389.3 secs

     total energy              =  -27384.99661795 Ry
     estimated scf accuracy    <       0.12721432 Ry

     iteration # 11     ecut=    71.00 Ry     beta= 0.20
     Davidson diagonalization with overlap
     c_bands:  1 eigenvalues not converged
     c_bands:  1 eigenvalues not converged
     ethr =  9.57E-06,  avg # of iterations = 18.3

     negative rho (up, down):  8.887E-05 0.000E+00

     total cpu time spent up to now is      429.4 secs

     total energy              =  -27384.97917796 Ry
     estimated scf accuracy    <       0.15089905 Ry

     iteration # 12     ecut=    71.00 Ry     beta= 0.20
     Davidson diagonalization with overlap
     c_bands:  1 eigenvalues not converged
     ethr =  9.57E-06,  avg # of iterations = 14.3

     negative rho (up, down):  1.297E-04 0.000E+00

     total cpu time spent up to now is      470.7 secs

     total energy              =  -27385.00444259 Ry
     estimated scf accuracy    <       0.09587251 Ry

     iteration # 13     ecut=    71.00 Ry     beta= 0.20
     Davidson diagonalization with overlap
     ethr =  7.21E-06,  avg # of iterations =  2.0

     negative rho (up, down):  1.464E-03 0.000E+00

     total cpu time spent up to now is      504.2 secs

     total energy              =  -27384.99223426 Ry
     estimated scf accuracy    <       0.08302611 Ry

     iteration # 14     ecut=    71.00 Ry     beta= 0.20
     Davidson diagonalization with overlap
     ethr =  6.25E-06,  avg # of iterations =  4.3

     negative rho (up, down):  7.158E-03 0.000E+00

     total cpu time spent up to now is      538.8 secs

     total energy              =  -27384.99714771 Ry
     estimated scf accuracy    <       0.04677157 Ry

     iteration # 15     ecut=    71.00 Ry     beta= 0.20
     Davidson diagonalization with overlap
     ethr =  3.52E-06,  avg # of iterations =  3.0

     negative rho (up, down):  2.614E-04 0.000E+00

     total cpu time spent up to now is      572.5 secs

     total energy              =  -27384.99723983 Ry
     estimated scf accuracy    <       0.04478255 Ry

     iteration # 16     ecut=    71.00 Ry     beta= 0.20
     Davidson diagonalization with overlap
     ethr =  3.37E-06,  avg # of iterations =  2.0

     negative rho (up, down):  2.793E-03 0.000E+00

     total cpu time spent up to now is      606.0 secs

     total energy              =  -27384.99814868 Ry
     estimated scf accuracy    <       0.04610457 Ry

     iteration # 17     ecut=    71.00 Ry     beta= 0.20
     Davidson diagonalization with overlap
     ethr =  3.37E-06,  avg # of iterations =  2.0

     negative rho (up, down):  1.837E-02 0.000E+00

     total cpu time spent up to now is      639.2 secs

     total energy              =  -27384.99755873 Ry
     estimated scf accuracy    <       0.03987183 Ry

     iteration # 18     ecut=    71.00 Ry     beta= 0.20
     Davidson diagonalization with overlap
     ethr =  3.00E-06,  avg # of iterations =  4.5

     negative rho (up, down):  1.630E-03 0.000E+00

     total cpu time spent up to now is      673.1 secs

     total energy              =  -27384.99678294 Ry
     estimated scf accuracy    <       0.03636346 Ry

     iteration # 19     ecut=    71.00 Ry     beta= 0.20
     Davidson diagonalization with overlap
     ethr =  2.74E-06,  avg # of iterations =  2.0

     negative rho (up, down):  3.705E-02 0.000E+00

     total cpu time spent up to now is      706.9 secs

     total energy              =  -27384.99107137 Ry
     estimated scf accuracy    <       0.03382123 Ry

     iteration # 20     ecut=    71.00 Ry     beta= 0.20
     Davidson diagonalization with overlap
     c_bands:  1 eigenvalues not converged
     ethr =  2.54E-06,  avg # of iterations = 13.8

     negative rho (up, down):  3.842E-02 0.000E+00

     total cpu time spent up to now is      744.4 secs

     total energy              =  -27384.99371419 Ry
     estimated scf accuracy    <       0.02638488 Ry

     iteration # 21     ecut=    71.00 Ry     beta= 0.20
     Davidson diagonalization with overlap
     ethr =  1.99E-06,  avg # of iterations =  4.3

     negative rho (up, down):  2.219E-02 0.000E+00

     total cpu time spent up to now is      778.1 secs

     total energy              =  -27384.99350699 Ry
     estimated scf accuracy    <       0.02282722 Ry

     iteration # 22     ecut=    71.00 Ry     beta= 0.20
     Davidson diagonalization with overlap
     ethr =  1.72E-06,  avg # of iterations =  2.0

     negative rho (up, down):  2.701E-02 0.000E+00

     total cpu time spent up to now is      811.3 secs

     total energy              =  -27384.99325553 Ry
     estimated scf accuracy    <       0.02079282 Ry

     iteration # 23     ecut=    71.00 Ry     beta= 0.20
     Davidson diagonalization with overlap
     ethr =  1.56E-06,  avg # of iterations =  2.0

     negative rho (up, down):  2.831E-02 0.000E+00

     total cpu time spent up to now is      844.4 secs

     total energy              =  -27384.99076855 Ry
     estimated scf accuracy    <       0.01980921 Ry

     iteration # 24     ecut=    71.00 Ry     beta= 0.20
     Davidson diagonalization with overlap
     ethr =  1.49E-06,  avg # of iterations =  8.3

     negative rho (up, down):  1.373E-02 0.000E+00

     total cpu time spent up to now is      879.7 secs

     total energy              =  -27384.98973881 Ry
     estimated scf accuracy    <       0.01786810 Ry

     iteration # 25     ecut=    71.00 Ry     beta= 0.20
     Davidson diagonalization with overlap
     ethr =  1.34E-06,  avg # of iterations =  2.0

     negative rho (up, down):  4.264E-02 0.000E+00

     total cpu time spent up to now is      912.8 secs

     total energy              =  -27384.98717044 Ry
     estimated scf accuracy    <       0.01321593 Ry

     iteration # 26     ecut=    71.00 Ry     beta= 0.20
     Davidson diagonalization with overlap
     ethr =  9.94E-07,  avg # of iterations =  7.8

     negative rho (up, down):  3.043E-02 0.000E+00

     total cpu time spent up to now is      947.4 secs

     total energy              =  -27384.98759691 Ry
     estimated scf accuracy    <       0.00714412 Ry

     iteration # 27     ecut=    71.00 Ry     beta= 0.20
     Davidson diagonalization with overlap
     ethr =  5.38E-07,  avg # of iterations =  9.8

     negative rho (up, down):  2.374E-02 0.000E+00

     total cpu time spent up to now is      984.7 secs

     total energy              =  -27384.98725930 Ry
     estimated scf accuracy    <       0.00582897 Ry

     iteration # 28     ecut=    71.00 Ry     beta= 0.20
     Davidson diagonalization with overlap
     ethr =  4.39E-07,  avg # of iterations =  2.0

     negative rho (up, down):  1.912E-02 0.000E+00

     total cpu time spent up to now is     1018.6 secs

     total energy              =  -27384.98695160 Ry
     estimated scf accuracy    <       0.00304105 Ry

     iteration # 29     ecut=    71.00 Ry     beta= 0.20
     Davidson diagonalization with overlap
     ethr =  2.29E-07,  avg # of iterations =  5.0

     negative rho (up, down):  5.039E-03 0.000E+00

     total cpu time spent up to now is     1057.3 secs

     total energy              =  -27384.98674411 Ry
     estimated scf accuracy    <       0.00310827 Ry

     iteration # 30     ecut=    71.00 Ry     beta= 0.20
     Davidson diagonalization with overlap
     ethr =  2.29E-07,  avg # of iterations =  5.0

     negative rho (up, down):  9.157E-03 0.000E+00

     total cpu time spent up to now is     1098.0 secs

     total energy              =  -27384.98614818 Ry
     estimated scf accuracy    <       0.00622825 Ry

     iteration # 31     ecut=    71.00 Ry     beta= 0.20
     Davidson diagonalization with overlap
     ethr =  2.29E-07,  avg # of iterations =  4.8

     negative rho (up, down):  1.006E-02 0.000E+00

     total cpu time spent up to now is     1137.0 secs

     total energy              =  -27384.98734734 Ry
     estimated scf accuracy    <       0.00042778 Ry

     iteration # 32     ecut=    71.00 Ry     beta= 0.20
     Davidson diagonalization with overlap
     ethr =  3.22E-08,  avg # of iterations =  7.0

     negative rho (up, down):  9.667E-03 0.000E+00

     total cpu time spent up to now is     1175.2 secs

     total energy              =  -27384.98742213 Ry
     estimated scf accuracy    <       0.00046706 Ry

     iteration # 33     ecut=    71.00 Ry     beta= 0.20
     Davidson diagonalization with overlap
     ethr =  3.22E-08,  avg # of iterations =  2.0

     negative rho (up, down):  6.115E-03 0.000E+00

     total cpu time spent up to now is     1209.3 secs

     total energy              =  -27384.98740778 Ry
     estimated scf accuracy    <       0.00017933 Ry

     iteration # 34     ecut=    71.00 Ry     beta= 0.20
     Davidson diagonalization with overlap
     ethr =  1.35E-08,  avg # of iterations =  5.0

     negative rho (up, down):  6.769E-03 0.000E+00

     total cpu time spent up to now is     1251.0 secs

     total energy              =  -27384.98729243 Ry
     estimated scf accuracy    <       0.00045495 Ry

     iteration # 35     ecut=    71.00 Ry     beta= 0.20
     Davidson diagonalization with overlap
     ethr =  1.35E-08,  avg # of iterations =  6.5

     negative rho (up, down):  5.234E-03 0.000E+00

     total cpu time spent up to now is     1295.1 secs

     total energy              =  -27384.98741981 Ry
     estimated scf accuracy    <       0.00022357 Ry

     iteration # 36     ecut=    71.00 Ry     beta= 0.20
     Davidson diagonalization with overlap
     ethr =  1.35E-08,  avg # of iterations =  5.0

     negative rho (up, down):  4.506E-03 0.000E+00

     total cpu time spent up to now is     1335.3 secs

     total energy              =  -27384.98750280 Ry
     estimated scf accuracy    <       0.00012188 Ry

     iteration # 37     ecut=    71.00 Ry     beta= 0.20
     Davidson diagonalization with overlap
     ethr =  9.17E-09,  avg # of iterations =  2.0

     negative rho (up, down):  4.306E-03 0.000E+00

     total cpu time spent up to now is     1368.4 secs

     total energy              =  -27384.98747927 Ry
     estimated scf accuracy    <       0.00010120 Ry

     iteration # 38     ecut=    71.00 Ry     beta= 0.20
     Davidson diagonalization with overlap
     ethr =  7.61E-09,  avg # of iterations =  2.0

     negative rho (up, down):  5.032E-03 0.000E+00

     total cpu time spent up to now is     1402.5 secs

     total energy              =  -27384.98747930 Ry
     estimated scf accuracy    <       0.00004904 Ry

     iteration # 39     ecut=    71.00 Ry     beta= 0.20
     Davidson diagonalization with overlap
     ethr =  3.69E-09,  avg # of iterations =  6.0

     negative rho (up, down):  4.869E-03 0.000E+00

     total cpu time spent up to now is     1438.6 secs

     total energy              =  -27384.98748369 Ry
     estimated scf accuracy    <       0.00001288 Ry

     iteration # 40     ecut=    71.00 Ry     beta= 0.20
     Davidson diagonalization with overlap
     ethr =  9.69E-10,  avg # of iterations =  6.0

     negative rho (up, down):  3.889E-03 0.000E+00

     total cpu time spent up to now is     1480.3 secs

     total energy              =  -27384.98748214 Ry
     estimated scf accuracy    <       0.00001641 Ry

     iteration # 41     ecut=    71.00 Ry     beta= 0.20
     Davidson diagonalization with overlap
     ethr =  9.69E-10,  avg # of iterations =  2.0

     negative rho (up, down):  3.565E-03 0.000E+00

     total cpu time spent up to now is     1513.5 secs

     total energy              =  -27384.98747705 Ry
     estimated scf accuracy    <       0.00000888 Ry

     iteration # 42     ecut=    71.00 Ry     beta= 0.20
     Davidson diagonalization with overlap
     ethr =  6.68E-10,  avg # of iterations =  2.0

     negative rho (up, down):  3.549E-03 0.000E+00

     total cpu time spent up to now is     1548.3 secs

     total energy              =  -27384.98747740 Ry
     estimated scf accuracy    <       0.00000562 Ry

     iteration # 43     ecut=    71.00 Ry     beta= 0.20
     Davidson diagonalization with overlap
     ethr =  4.23E-10,  avg # of iterations =  3.8

     negative rho (up, down):  3.371E-03 0.000E+00

     total cpu time spent up to now is     1582.8 secs

     total energy              =  -27384.98747640 Ry
     estimated scf accuracy    <       0.00000447 Ry

     iteration # 44     ecut=    71.00 Ry     beta= 0.20
     Davidson diagonalization with overlap
     ethr =  3.36E-10,  avg # of iterations =  2.0

     negative rho (up, down):  3.255E-03 0.000E+00

     total cpu time spent up to now is     1615.9 secs

     total energy              =  -27384.98747520 Ry
     estimated scf accuracy    <       0.00000296 Ry

     iteration # 45     ecut=    71.00 Ry     beta= 0.20
     Davidson diagonalization with overlap
     ethr =  2.23E-10,  avg # of iterations =  6.8

     negative rho (up, down):  3.148E-03 0.000E+00

     total cpu time spent up to now is     1651.8 secs

     total energy              =  -27384.98747532 Ry
     estimated scf accuracy    <       0.00000143 Ry

     iteration # 46     ecut=    71.00 Ry     beta= 0.20
     Davidson diagonalization with overlap
     ethr =  1.08E-10,  avg # of iterations =  6.5

     negative rho (up, down):  3.119E-03 0.000E+00

     total cpu time spent up to now is     1688.2 secs

     total energy              =  -27384.98747551 Ry
     estimated scf accuracy    <       0.00000079 Ry

     iteration # 47     ecut=    71.00 Ry     beta= 0.20
     Davidson diagonalization with overlap
     ethr =  5.96E-11,  avg # of iterations =  5.3

     negative rho (up, down):  3.145E-03 0.000E+00

     total cpu time spent up to now is     1727.6 secs

     total energy              =  -27384.98747562 Ry
     estimated scf accuracy    <       0.00000079 Ry

     iteration # 48     ecut=    71.00 Ry     beta= 0.20
     Davidson diagonalization with overlap
     ethr =  5.92E-11,  avg # of iterations =  5.0

     negative rho (up, down):  3.084E-03 0.000E+00

     total cpu time spent up to now is     1761.8 secs

     total energy              =  -27384.98747565 Ry
     estimated scf accuracy    <       0.00000045 Ry

     iteration # 49     ecut=    71.00 Ry     beta= 0.20
     Davidson diagonalization with overlap
     ethr =  3.36E-11,  avg # of iterations =  4.5

     negative rho (up, down):  3.077E-03 0.000E+00

     total cpu time spent up to now is     1800.8 secs

     total energy              =  -27384.98747573 Ry
     estimated scf accuracy    <       0.00000045 Ry

     iteration # 50     ecut=    71.00 Ry     beta= 0.20
     Davidson diagonalization with overlap
     ethr =  3.36E-11,  avg # of iterations =  1.3

     negative rho (up, down):  3.095E-03 0.000E+00

     total cpu time spent up to now is     1833.2 secs

     total energy              =  -27384.98747567 Ry
     estimated scf accuracy    <       0.00000032 Ry

     iteration # 51     ecut=    71.00 Ry     beta= 0.20
     Davidson diagonalization with overlap
     ethr =  2.39E-11,  avg # of iterations =  2.0

     negative rho (up, down):  3.118E-03 0.000E+00

     total cpu time spent up to now is     1867.1 secs

     total energy              =  -27384.98747568 Ry
     estimated scf accuracy    <       0.00000020 Ry

     iteration # 52     ecut=    71.00 Ry     beta= 0.20
     Davidson diagonalization with overlap
     ethr =  1.52E-11,  avg # of iterations =  5.0

     negative rho (up, down):  3.100E-03 0.000E+00

     total cpu time spent up to now is     1901.8 secs

     total energy              =  -27384.98747560 Ry
     estimated scf accuracy    <       0.00000017 Ry

     iteration # 53     ecut=    71.00 Ry     beta= 0.20
     Davidson diagonalization with overlap
     ethr =  1.26E-11,  avg # of iterations =  7.0

     negative rho (up, down):  3.059E-03 0.000E+00

     total cpu time spent up to now is     1940.2 secs

     total energy              =  -27384.98747562 Ry
     estimated scf accuracy    <       0.00000019 Ry

     iteration # 54     ecut=    71.00 Ry     beta= 0.20
     Davidson diagonalization with overlap
     ethr =  1.26E-11,  avg # of iterations =  2.0

     negative rho (up, down):  3.041E-03 0.000E+00

     total cpu time spent up to now is     1974.4 secs

     total energy              =  -27384.98747561 Ry
     estimated scf accuracy    <       0.00000007 Ry

     iteration # 55     ecut=    71.00 Ry     beta= 0.20
     Davidson diagonalization with overlap
     ethr =  5.41E-12,  avg # of iterations =  5.5

     negative rho (up, down):  3.066E-03 0.000E+00

     total cpu time spent up to now is     2017.7 secs

     total energy              =  -27384.98747561 Ry
     estimated scf accuracy    <       0.00000026 Ry

     iteration # 56     ecut=    71.00 Ry     beta= 0.20
     Davidson diagonalization with overlap
     ethr =  5.41E-12,  avg # of iterations =  3.0

     negative rho (up, down):  3.066E-03 0.000E+00

     total cpu time spent up to now is     2053.2 secs

     total energy              =  -27384.98747561 Ry
     estimated scf accuracy    <       0.00000010 Ry

     iteration # 57     ecut=    71.00 Ry     beta= 0.20
     Davidson diagonalization with overlap
     ethr =  5.41E-12,  avg # of iterations =  1.8

     negative rho (up, down):  3.066E-03 0.000E+00

     total cpu time spent up to now is     2086.1 secs

     total energy              =  -27384.98747561 Ry
     estimated scf accuracy    <       0.00000008 Ry

     iteration # 58     ecut=    71.00 Ry     beta= 0.20
     Davidson diagonalization with overlap
     ethr =  5.41E-12,  avg # of iterations =  2.0

     negative rho (up, down):  3.061E-03 0.000E+00

     total cpu time spent up to now is     2120.6 secs

     total energy              =  -27384.98747564 Ry
     estimated scf accuracy    <       0.00000006 Ry

     iteration # 59     ecut=    71.00 Ry     beta= 0.20
     Davidson diagonalization with overlap
     ethr =  4.36E-12,  avg # of iterations =  1.8

     negative rho (up, down):  3.013E-03 0.000E+00

     total cpu time spent up to now is     2153.5 secs

     total energy              =  -27384.98747560 Ry
     estimated scf accuracy    <       0.00000005 Ry

     iteration # 60     ecut=    71.00 Ry     beta= 0.20
     Davidson diagonalization with overlap
     ethr =  3.77E-12,  avg # of iterations =  2.0

     negative rho (up, down):  2.989E-03 0.000E+00

     total cpu time spent up to now is     2187.8 secs

     total energy              =  -27384.98747560 Ry
     estimated scf accuracy    <       0.00000002 Ry

     iteration # 61     ecut=    71.00 Ry     beta= 0.20
     Davidson diagonalization with overlap
     ethr =  1.74E-12,  avg # of iterations =  6.0

     negative rho (up, down):  2.972E-03 0.000E+00

     total cpu time spent up to now is     2223.2 secs

     total energy              =  -27384.98747562 Ry
     estimated scf accuracy    <       0.00000002 Ry

     iteration # 62     ecut=    71.00 Ry     beta= 0.20
     Davidson diagonalization with overlap
     ethr =  1.29E-12,  avg # of iterations =  5.5

     negative rho (up, down):  2.949E-03 0.000E+00

     total cpu time spent up to now is     2259.0 secs

     total energy              =  -27384.98747561 Ry
     estimated scf accuracy    <          8.0E-09 Ry

     iteration # 63     ecut=    71.00 Ry     beta= 0.20
     Davidson diagonalization with overlap
     ethr =  6.03E-13,  avg # of iterations =  7.3

     negative rho (up, down):  2.946E-03 0.000E+00

     total cpu time spent up to now is     2299.2 secs

     total energy              =  -27384.98747561 Ry
     estimated scf accuracy    <          8.8E-09 Ry

     iteration # 64     ecut=    71.00 Ry     beta= 0.20
     Davidson diagonalization with overlap
     ethr =  6.03E-13,  avg # of iterations =  2.0

     negative rho (up, down):  2.935E-03 0.000E+00

     total cpu time spent up to now is     2332.3 secs

     total energy              =  -27384.98747560 Ry
     estimated scf accuracy    <          5.9E-09 Ry

     iteration # 65     ecut=    71.00 Ry     beta= 0.20
     Davidson diagonalization with overlap
     ethr =  4.42E-13,  avg # of iterations =  4.8

     negative rho (up, down):  2.932E-03 0.000E+00

     total cpu time spent up to now is     2371.1 secs

     total energy              =  -27384.98747562 Ry
     estimated scf accuracy    <          7.1E-09 Ry

     iteration # 66     ecut=    71.00 Ry     beta= 0.20
     Davidson diagonalization with overlap
     ethr =  4.42E-13,  avg # of iterations =  5.0

     negative rho (up, down):  2.929E-03 0.000E+00

     total cpu time spent up to now is     2411.3 secs

     total energy              =  -27384.98747563 Ry
     estimated scf accuracy    <          7.9E-09 Ry

     iteration # 67     ecut=    71.00 Ry     beta= 0.20
     Davidson diagonalization with overlap
     ethr =  4.42E-13,  avg # of iterations =  1.0

     negative rho (up, down):  2.922E-03 0.000E+00

     total cpu time spent up to now is     2443.5 secs

     total energy              =  -27384.98747561 Ry
     estimated scf accuracy    <          4.6E-09 Ry

     iteration # 68     ecut=    71.00 Ry     beta= 0.20
     Davidson diagonalization with overlap
     ethr =  3.49E-13,  avg # of iterations =  2.5

     negative rho (up, down):  2.922E-03 0.000E+00

     total cpu time spent up to now is     2478.4 secs

     total energy              =  -27384.98747562 Ry
     estimated scf accuracy    <          1.7E-09 Ry

     iteration # 69     ecut=    71.00 Ry     beta= 0.20
     Davidson diagonalization with overlap
     ethr =  1.31E-13,  avg # of iterations =  3.0

     negative rho (up, down):  2.926E-03 0.000E+00

     total cpu time spent up to now is     2513.4 secs

     total energy              =  -27384.98747562 Ry
     estimated scf accuracy    <          1.7E-09 Ry

     iteration # 70     ecut=    71.00 Ry     beta= 0.20
     Davidson diagonalization with overlap
     ethr =  1.25E-13,  avg # of iterations =  4.8

     negative rho (up, down):  2.921E-03 0.000E+00

     total cpu time spent up to now is     2547.8 secs

     End of self-consistent calculation

          k = 0.0000 0.0000 0.0000 (327585 PWs)   bands (ev):

   -74.2191 -38.4611 -38.3480 -38.0571 -18.1803 -18.1803 -18.0648 -18.0648
   -18.0363 -18.0363 -17.9880 -17.9880 -17.8823 -17.8371 -17.8371 -17.7723
   -17.7723 -17.7449 -17.7449 -17.6871 -17.6870 -17.6864 -17.6863 -17.6614
   -17.6614 -17.5982 -17.5982 -17.5900 -17.5900 -17.5701 -17.5688 -17.5212
   -17.3665 -17.3430 -17.2542 -17.1875 -17.1109 -17.0517 -17.0341 -17.0077
   -16.9763 -16.9743 -16.9600 -16.9561 -16.9121 -16.9055 -16.9052 -16.8977
   -16.8903 -16.8437 -16.8237 -16.8178 -16.8028 -16.7961 -16.7698 -16.7660
   -16.7545 -16.7526 -16.7371 -16.7336 -16.7164 -16.6558 -16.6554 -16.6500
   -16.6421 -16.6265 -16.6246 -16.6129 -16.6060 -16.5965 -16.5878 -16.5757
   -16.5649 -16.5644 -16.5486 -16.5467 -16.5439 -16.5382 -16.5258 -16.5107
   -16.4864 -16.4703 -16.4667 -16.4636 -16.4402 -16.4367 -16.4318 -16.4310
   -16.3985 -16.3907 -16.3792 -16.3779 -16.3674 -16.3673 -16.3581 -16.3307
   -16.2999 -16.2995 -16.2360 -16.2301 -12.6322 -12.6318 -12.6169 -12.6150
   -12.6060 -12.5887 -12.5833 -12.5764 -12.5753 -12.5698 -12.5597 -12.5564
   -12.5523 -12.5504 -12.5464 -12.5430 -12.5354 -12.5296 -12.5294 -12.5289
   -12.5163 -12.5061 -12.5061 -12.4952 -12.4913 -12.4881 -12.4862 -12.4765
   -12.4749 -12.4745 -12.4638 -12.4555 -12.4517 -12.4514 -12.4462 -12.4455
   -12.4346 -12.4311 -12.4232 -12.4231 -12.4173 -12.4128 -12.4120 -12.4094
   -12.4027 -12.3980 -12.3955 -12.3941 -12.3803 -12.3738 -12.3697 -12.3675
   -12.3648 -12.3579 -12.3532 -12.3474 -12.3438 -12.3370 -12.3344 -12.3304
   -12.3299 -12.3184 -12.3182 -12.3155 -12.3113 -12.3059 -12.3042 -12.3021
   -12.3001 -12.2965 -12.2956 -12.2942 -12.2936 -12.2909 -12.2892 -12.2886
   -12.2877 -12.2848 -12.2797 -12.2782 -12.2762 -12.2744 -12.2723 -12.2722
   -12.2681 -12.2676 -12.2629 -12.2599 -12.2599 -12.2590 -12.2533 -12.2531
   -12.2487 -12.2465 -12.2450 -12.2411 -12.2398 -12.2394 -12.2355 -12.2328
   -12.2315 -12.2269 -12.2248 -12.2230 -12.2186 -12.2176 -12.2137 -12.2131
   -12.2114 -12.2097 -12.2089 -12.2006 -12.1982 -12.1967 -12.1953 -12.1947
   -12.1934 -12.1932 -12.1908 -12.1902 -12.1858 -12.1848 -12.1819 -12.1816
   -12.1762 -12.1757 -12.1742 -12.1716 -12.1713 -12.1653 -12.1626 -12.1611
   -12.1604 -12.1590 -12.1562 -12.1519 -12.1518 -12.1464 -12.1441 -12.1374
   -12.1367 -12.1344 -12.1342 -12.1299 -12.1281 -12.1265 -12.1248 -12.1212
   -12.1194 -12.1185 -12.1162 -12.1147 -12.1136 -12.1075 -12.1070 -12.1049
   -12.1039 -12.1019 -12.0992 -12.0986 -12.0975 -12.0959 -12.0926 -12.0913
   -12.0892 -12.0862 -12.0810 -12.0748 -12.0743 -12.0736 -12.0718 -12.0697
   -12.0696 -12.0681 -12.0609 -12.0593 -12.0565 -12.0548 -12.0540 -12.0498
   -12.0493 -12.0491 -12.0425 -12.0417 -12.0384 -12.0375 -12.0327 -12.0298
   -12.0290 -12.0238 -12.0217 -12.0212 -12.0202 -12.0161 -12.0147 -12.0132
   -12.0129 -12.0087 -12.0087 -12.0058 -12.0042 -11.9974 -11.9966 -11.9919
   -11.9892 -11.9891 -11.9868 -11.9850 -11.9806 -11.9776 -11.9720 -11.9638
   -11.9636 -11.9628 -11.9550 -11.9532 -11.9511 -11.9488 -11.9487 -11.9467
   -11.9372 -11.9361 -11.9349 -11.9334 -11.9236 -11.9192 -11.9090 -11.9071
   -11.8999 -11.8997 -11.8954 -11.8875 -11.8729 -11.8681 -11.8568 -11.8485
   -11.8257 -11.8121 -11.7575 -11.7402 -11.7279 -11.7190 -11.6978 -11.6863
   -11.6552 -11.6468 -11.6291 -11.6158 -11.5862 -11.5803 -11.5727 -11.5446
   -11.5294 -11.4877 -11.4868 -11.4745 -11.4571 -11.4357 -11.4215 -11.4133
   -11.3991 -11.3971 -11.3626 -11.3520 -11.3312 -11.3048 -11.3042 -11.2951
   -11.2930 -11.1947 -11.1703 -11.1517 -11.1393 -11.1277 -11.1114  -5.7670
    -5.7666  -5.6037  -5.5976  -5.5915  -5.5861  -5.5854  -5.5756  -5.4817
    -5.4435  -5.4407  -5.4171  -5.3909  -5.3698  -5.3102  -5.3065  -5.3044
    -5.2939  -5.2848  -5.2136  -5.1896  -5.1592  -5.1291  -5.0727  -5.0017
    -4.9274  -4.9005  -4.8903  -4.8781  -4.8608  -4.7817  -4.7427  -4.7051
    -4.7002  -4.6817  -4.6417  -4.6379  -4.6371  -4.5832  -4.5720  -4.5668
    -4.5382  -4.5242  -4.4984  -4.4976  -4.4340  -4.4043  -4.3817  -4.3649
    -4.3454  -4.2958  -4.2839  -4.2294  -4.1880  -4.1703  -4.1365  -4.0932
    -4.0778  -4.0590  -4.0237  -4.0226  -3.9630  -3.9124  -3.8874  -3.8475
    -3.8234  -3.7829  -3.7571  -3.7220  -3.6821  -3.6613  -3.6460  -3.6404
    -3.6183  -3.6163  -3.5929  -3.5615  -3.5455  -3.5333  -3.4981  -3.4849
    -3.4465  -3.4310  -3.3948  -3.3772  -3.3484  -3.3429  -3.3032  -3.2868
    -3.2643  -3.2126  -3.1708  -3.1631  -3.0879  -3.0780  -3.0471  -3.0426
    -3.0255  -3.0159  -3.0056  -2.9862  -2.9301  -2.9049  -2.8809  -2.8594
    -2.8181  -2.7987  -2.7893  -2.7726  -2.7169  -2.7147  -2.6768  -2.6662
    -2.6313  -2.6087  -2.6028  -2.5604  -2.5469  -2.5284  -2.5099  -2.5093
    -2.4793  -2.4765  -2.4125  -2.3949  -2.3826  -2.3762  -2.3509  -2.3318
    -2.2732  -2.2643  -2.2584  -2.2237  -2.1908  -2.1422  -2.1402  -2.1299
    -2.0943  -2.0627  -2.0489  -2.0467  -2.0346  -2.0202  -1.9995  -1.9757
    -1.9542  -1.9500  -1.9338  -1.9158  -1.9124  -1.8869  -1.8621  -1.8349
    -1.8267  -1.8177  -1.8168  -1.7996  -1.7732  -1.7677  -1.7543  -1.7494
    -1.7283  -1.7231  -1.7223  -1.7178  -1.7143  -1.6794  -1.6780  -1.6549
    -1.6380  -1.6370  -1.6054  -1.5865  -1.5804  -1.5780  -1.5667  -1.5581
    -1.5279  -1.5269  -1.5160  -1.4904  -1.4652  -1.4507  -1.4376  -1.4317
    -1.4029  -1.3857  -1.3762  -1.3499  -1.3366  -1.3347  -1.3024  -1.2933
    -1.2835  -1.2608  -1.2401  -1.2317  -1.1961  -1.1871  -1.1612  -1.1515
    -1.1375  -1.1034  -1.0513  -1.0294  -1.0147  -1.0073  -1.0033  -0.9942
    -0.9756  -0.9689  -0.9407  -0.9098  -0.9000  -0.8898  -0.8716  -0.8463
    -0.8356  -0.8328  -0.8139  -0.8074  -0.7905  -0.7874  -0.7740  -0.7286
    -0.7113  -0.6994  -0.6589  -0.6451  -0.6283  -0.6074  -0.6030  -0.5920
    -0.5691  -0.5534  -0.5515  -0.5241  -0.5157  -0.5143  -0.4991  -0.4770
    -0.4721  -0.4586  -0.4421  -0.4395  -0.4392  -0.4294  -0.4209  -0.4184
    -0.4052  -0.3913  -0.3881  -0.3750  -0.3736  -0.3553  -0.3544  -0.3388
    -0.3380  -0.3261  -0.3257  -0.3202  -0.3040  -0.2997  -0.2929  -0.2747
    -0.2619  -0.2530  -0.2504  -0.2385  -0.2330  -0.2031  -0.1973  -0.1756
    -0.1747  -0.1712  -0.1659  -0.1614  -0.1555  -0.1534  -0.1187  -0.1111
    -0.0983  -0.0697  -0.0625   0.0130   0.0174   0.0231   0.0273   1.1646
     1.8073   1.8610   1.9174   2.0963   2.7525   3.5313   3.6128   3.8201
     3.8499   3.9182   4.0848   4.1608   4.2811

          k = 0.0000 0.3336 0.0000 (327620 PWs)   bands (ev):

   -74.2191 -38.4611 -38.3480 -38.0571 -18.1524 -18.1524 -18.0840 -18.0840
   -18.0490 -18.0490 -18.0112 -18.0112 -17.8723 -17.8014 -17.8014 -17.7600
   -17.7600 -17.7489 -17.7489 -17.7048 -17.7047 -17.6767 -17.6767 -17.6643
   -17.6642 -17.6001 -17.6001 -17.5954 -17.5953 -17.5870 -17.5653 -17.5204
   -17.3686 -17.3382 -17.2347 -17.1660 -17.1585 -17.0829 -17.0672 -17.0370
   -16.9869 -16.9831 -16.9556 -16.9345 -16.9226 -16.9124 -16.8907 -16.8690
   -16.8667 -16.8258 -16.8220 -16.8058 -16.7954 -16.7858 -16.7770 -16.7613
   -16.7407 -16.7368 -16.7179 -16.7166 -16.7027 -16.6664 -16.6597 -16.6422
   -16.6352 -16.6295 -16.6251 -16.6147 -16.5966 -16.5934 -16.5891 -16.5813
   -16.5700 -16.5641 -16.5545 -16.5541 -16.5407 -16.5395 -16.5166 -16.5157
   -16.4907 -16.4825 -16.4720 -16.4637 -16.4597 -16.4534 -16.4422 -16.4402
   -16.3907 -16.3867 -16.3836 -16.3815 -16.3731 -16.3675 -16.3614 -16.3395
   -16.2778 -16.2772 -16.2461 -16.2424 -12.6315 -12.6245 -12.6136 -12.6092
   -12.5984 -12.5913 -12.5865 -12.5760 -12.5735 -12.5713 -12.5590 -12.5587
   -12.5514 -12.5498 -12.5440 -12.5427 -12.5311 -12.5281 -12.5268 -12.5228
   -12.5138 -12.5062 -12.5018 -12.4960 -12.4932 -12.4928 -12.4847 -12.4771
   -12.4746 -12.4672 -12.4656 -12.4611 -12.4609 -12.4524 -12.4444 -12.4369
   -12.4345 -12.4341 -12.4280 -12.4251 -12.4232 -12.4191 -12.4103 -12.4094
   -12.4070 -12.4058 -12.3948 -12.3924 -12.3823 -12.3764 -12.3758 -12.3709
   -12.3655 -12.3593 -12.3543 -12.3507 -12.3507 -12.3389 -12.3384 -12.3330
   -12.3275 -12.3222 -12.3178 -12.3145 -12.3139 -12.3088 -12.3059 -12.3054
   -12.3017 -12.3016 -12.2978 -12.2917 -12.2908 -12.2888 -12.2859 -12.2853
   -12.2820 -12.2803 -12.2792 -12.2737 -12.2730 -12.2714 -12.2701 -12.2684
   -12.2642 -12.2601 -12.2581 -12.2572 -12.2555 -12.2543 -12.2520 -12.2485
   -12.2464 -12.2440 -12.2425 -12.2404 -12.2353 -12.2327 -12.2302 -12.2277
   -12.2250 -12.2247 -12.2221 -12.2183 -12.2168 -12.2148 -12.2114 -12.2106
   -12.2093 -12.2071 -12.2053 -12.2034 -12.2004 -12.2001 -12.1962 -12.1944
   -12.1911 -12.1905 -12.1884 -12.1875 -12.1861 -12.1826 -12.1818 -12.1813
   -12.1799 -12.1736 -12.1732 -12.1695 -12.1691 -12.1685 -12.1675 -12.1654
   -12.1642 -12.1600 -12.1586 -12.1554 -12.1544 -12.1539 -12.1478 -12.1456
   -12.1432 -12.1416 -12.1402 -12.1356 -12.1344 -12.1310 -12.1309 -12.1259
   -12.1236 -12.1213 -12.1177 -12.1171 -12.1148 -12.1135 -12.1130 -12.1112
   -12.1094 -12.1049 -12.1036 -12.1013 -12.0973 -12.0959 -12.0935 -12.0920
   -12.0903 -12.0874 -12.0851 -12.0814 -12.0778 -12.0778 -12.0751 -12.0724
   -12.0703 -12.0700 -12.0674 -12.0660 -12.0631 -12.0575 -12.0532 -12.0503
   -12.0489 -12.0440 -12.0421 -12.0405 -12.0375 -12.0342 -12.0316 -12.0274
   -12.0263 -12.0256 -12.0207 -12.0196 -12.0163 -12.0151 -12.0082 -12.0080
   -12.0061 -12.0054 -11.9985 -11.9977 -11.9962 -11.9958 -11.9928 -11.9925
   -11.9890 -11.9851 -11.9802 -11.9789 -11.9750 -11.9745 -11.9717 -11.9711
   -11.9683 -11.9669 -11.9632 -11.9592 -11.9582 -11.9557 -11.9527 -11.9516
   -11.9460 -11.9427 -11.9394 -11.9344 -11.9285 -11.9273 -11.9178 -11.9171
   -11.9040 -11.8870 -11.8818 -11.8678 -11.8658 -11.8515 -11.8340 -11.8238
   -11.8171 -11.7953 -11.7832 -11.7590 -11.7587 -11.7316 -11.7214 -11.6860
   -11.6654 -11.6403 -11.6292 -11.5747 -11.5747 -11.5525 -11.5325 -11.5115
   -11.5064 -11.4918 -11.4834 -11.4668 -11.4562 -11.4506 -11.4387 -11.4232
   -11.4005 -11.3990 -11.3872 -11.3718 -11.3419 -11.3279 -11.2963 -11.2403
   -11.2352 -11.1985 -11.1810 -11.1795 -11.1635 -11.1500 -11.1352  -5.7422
    -5.7415  -5.6750  -5.6713  -5.5930  -5.5927  -5.5837  -5.5806  -5.4669
    -5.4401  -5.4296  -5.4154  -5.4020  -5.3438  -5.2662  -5.2386  -5.2339
    -5.2336  -5.2312  -5.1549  -5.1545  -5.0842  -5.0581  -5.0232  -4.9986
    -4.9859  -4.9301  -4.9091  -4.8607  -4.8228  -4.8112  -4.8002  -4.7866
    -4.7803  -4.7194  -4.7051  -4.6770  -4.6510  -4.6383  -4.6213  -4.6077
    -4.5558  -4.5306  -4.5072  -4.4983  -4.4740  -4.4121  -4.4107  -4.3989
    -4.3653  -4.3518  -4.3337  -4.2801  -4.2547  -4.2222  -4.2216  -4.2112
    -4.1957  -4.0362  -4.0335  -3.9826  -3.9233  -3.9114  -3.8520  -3.8285
    -3.7835  -3.7570  -3.7490  -3.7227  -3.6922  -3.6853  -3.6519  -3.6505
    -3.6070  -3.5835  -3.5638  -3.5339  -3.5280  -3.5210  -3.4314  -3.4164
    -3.3771  -3.3764  -3.3210  -3.3180  -3.2642  -3.2630  -3.2349  -3.2110
    -3.1561  -3.1475  -3.1381  -3.1052  -3.0865  -3.0558  -3.0510  -3.0243
    -3.0002  -2.9576  -2.9391  -2.9252  -2.9065  -2.8704  -2.8616  -2.8575
    -2.8205  -2.8109  -2.7623  -2.7596  -2.7109  -2.6877  -2.6837  -2.6427
    -2.6258  -2.6017  -2.5929  -2.5559  -2.5384  -2.5158  -2.5076  -2.4801
    -2.4709  -2.4529  -2.4110  -2.3887  -2.3705  -2.3338  -2.3211  -2.3085
    -2.2978  -2.2895  -2.2789  -2.2495  -2.2246  -2.2245  -2.2116  -2.1908
    -2.1827  -2.1504  -2.1416  -2.1272  -2.1223  -2.0732  -2.0552  -2.0479
    -2.0305  -2.0235  -2.0001  -1.9974  -1.9733  -1.9502  -1.9258  -1.8974
    -1.8940  -1.8598  -1.8573  -1.8366  -1.8333  -1.7916  -1.7883  -1.7489
    -1.7465  -1.7255  -1.7148  -1.7034  -1.6737  -1.6724  -1.6436  -1.6355
    -1.6201  -1.6090  -1.5796  -1.5779  -1.5544  -1.5479  -1.5353  -1.5076
    -1.4618  -1.4423  -1.4320  -1.4219  -1.4152  -1.4095  -1.3895  -1.3866
    -1.3600  -1.3584  -1.3424  -1.3112  -1.3100  -1.2852  -1.2789  -1.2724
    -1.2488  -1.2268  -1.2226  -1.1845  -1.1788  -1.1582  -1.1339  -1.1283
    -1.0988  -1.0965  -1.0652  -1.0487  -1.0353  -1.0248  -0.9899  -0.9777
    -0.9581  -0.9440  -0.9315  -0.9289  -0.8980  -0.8804  -0.8754  -0.8731
    -0.8394  -0.8322  -0.8261  -0.8217  -0.7930  -0.7891  -0.7631  -0.7578
    -0.7377  -0.7274  -0.7109  -0.7044  -0.6796  -0.6735  -0.6482  -0.6444
    -0.6207  -0.6134  -0.5917  -0.5709  -0.5591  -0.5548  -0.5409  -0.5200
    -0.5193  -0.4851  -0.4845  -0.4739  -0.4701  -0.4576  -0.4486  -0.4147
    -0.4048  -0.3951  -0.3868  -0.3845  -0.3735  -0.3693  -0.3571  -0.3554
    -0.3382  -0.3366  -0.3281  -0.3115  -0.3101  -0.2938  -0.2829  -0.2733
    -0.2680  -0.2545  -0.2412  -0.2392  -0.2324  -0.2288  -0.2195  -0.2117
    -0.2031  -0.1801  -0.1767  -0.1221  -0.1111  -0.0997  -0.0857  -0.0819
    -0.0694  -0.0597  -0.0457  -0.0194  -0.0130  -0.0068  -0.0028   1.6958
     1.8145   1.8970   2.0587   2.3972   2.7917   3.0777   3.2945   3.7303
     3.7752   3.9059   4.0002   4.1720   4.2443

          k = 0.3333 0.0000 0.0000 (327628 PWs)   bands (ev):

   -74.2191 -38.4611 -38.3480 -38.0571 -18.1567 -18.1566 -18.1006 -18.1005
   -18.0252 -18.0252 -18.0002 -18.0002 -17.8721 -17.8200 -17.8200 -17.7889
   -17.7889 -17.7227 -17.7227 -17.6853 -17.6853 -17.6785 -17.6785 -17.6740
   -17.6740 -17.6000 -17.6000 -17.5954 -17.5954 -17.5757 -17.5699 -17.5353
   -17.3747 -17.2968 -17.2507 -17.1986 -17.1568 -17.0736 -17.0450 -17.0245
   -16.9787 -16.9651 -16.9617 -16.9357 -16.9284 -16.9184 -16.9005 -16.8883
   -16.8733 -16.8548 -16.8263 -16.8114 -16.8057 -16.7940 -16.7772 -16.7599
   -16.7499 -16.7307 -16.7130 -16.6968 -16.6946 -16.6650 -16.6459 -16.6381
   -16.6352 -16.6226 -16.6198 -16.6135 -16.6072 -16.6001 -16.5845 -16.5775
   -16.5733 -16.5676 -16.5556 -16.5409 -16.5378 -16.5274 -16.5210 -16.5001
   -16.4884 -16.4845 -16.4759 -16.4588 -16.4410 -16.4395 -16.4373 -16.4266
   -16.4182 -16.4163 -16.3985 -16.3933 -16.3743 -16.3704 -16.3616 -16.3412
   -16.2751 -16.2739 -16.2434 -16.2391 -12.6303 -12.6278 -12.6134 -12.6109
   -12.5983 -12.5969 -12.5796 -12.5774 -12.5735 -12.5683 -12.5641 -12.5565
   -12.5512 -12.5469 -12.5415 -12.5392 -12.5367 -12.5270 -12.5244 -12.5182
   -12.5128 -12.5118 -12.5054 -12.5007 -12.4907 -12.4847 -12.4804 -12.4759
   -12.4743 -12.4675 -12.4652 -12.4617 -12.4589 -12.4540 -12.4474 -12.4441
   -12.4388 -12.4327 -12.4292 -12.4260 -12.4240 -12.4202 -12.4163 -12.4103
   -12.4081 -12.4000 -12.3946 -12.3889 -12.3874 -12.3832 -12.3784 -12.3751
   -12.3690 -12.3547 -12.3521 -12.3487 -12.3458 -12.3392 -12.3365 -12.3317
   -12.3303 -12.3246 -12.3211 -12.3170 -12.3125 -12.3073 -12.3036 -12.3015
   -12.2977 -12.2967 -12.2948 -12.2923 -12.2897 -12.2888 -12.2848 -12.2820
   -12.2813 -12.2794 -12.2731 -12.2718 -12.2705 -12.2688 -12.2657 -12.2653
   -12.2637 -12.2607 -12.2601 -12.2571 -12.2555 -12.2541 -12.2527 -12.2499
   -12.2481 -12.2468 -12.2445 -12.2415 -12.2380 -12.2362 -12.2355 -12.2328
   -12.2303 -12.2273 -12.2257 -12.2227 -12.2209 -12.2187 -12.2155 -12.2143
   -12.2119 -12.2092 -12.2066 -12.2036 -12.2014 -12.2002 -12.1994 -12.1960
   -12.1957 -12.1917 -12.1893 -12.1871 -12.1867 -12.1847 -12.1819 -12.1813
   -12.1794 -12.1765 -12.1742 -12.1717 -12.1706 -12.1677 -12.1656 -12.1633
   -12.1619 -12.1587 -12.1565 -12.1557 -12.1499 -12.1470 -12.1451 -12.1427
   -12.1415 -12.1392 -12.1356 -12.1323 -12.1318 -12.1295 -12.1266 -12.1262
   -12.1225 -12.1206 -12.1152 -12.1138 -12.1114 -12.1103 -12.1087 -12.1075
   -12.1059 -12.1027 -12.0994 -12.0987 -12.0962 -12.0933 -12.0916 -12.0910
   -12.0878 -12.0857 -12.0839 -12.0821 -12.0810 -12.0780 -12.0761 -12.0709
   -12.0690 -12.0667 -12.0657 -12.0626 -12.0593 -12.0566 -12.0535 -12.0502
   -12.0491 -12.0478 -12.0440 -12.0415 -12.0387 -12.0355 -12.0336 -12.0314
   -12.0279 -12.0249 -12.0215 -12.0200 -12.0179 -12.0139 -12.0089 -12.0080
   -12.0003 -11.9995 -11.9961 -11.9942 -11.9939 -11.9916 -11.9887 -11.9863
   -11.9846 -11.9821 -11.9808 -11.9785 -11.9767 -11.9752 -11.9740 -11.9721
   -11.9685 -11.9668 -11.9650 -11.9624 -11.9575 -11.9555 -11.9520 -11.9484
   -11.9463 -11.9452 -11.9388 -11.9354 -11.9289 -11.9232 -11.9188 -11.9088
   -11.9053 -11.8947 -11.8819 -11.8672 -11.8558 -11.8518 -11.8416 -11.8304
   -11.8280 -11.8198 -11.8028 -11.7873 -11.7822 -11.7201 -11.7112 -11.6836
   -11.6697 -11.6484 -11.6055 -11.5981 -11.5799 -11.5575 -11.5479 -11.5265
   -11.5202 -11.4968 -11.4894 -11.4660 -11.4623 -11.4433 -11.4134 -11.4106
   -11.3792 -11.3732 -11.3514 -11.3370 -11.3265 -11.3178 -11.2894 -11.2600
   -11.2557 -11.2098 -11.1978 -11.1768 -11.1666 -11.1588 -11.1441  -5.7352
    -5.7337  -5.6549  -5.6509  -5.5986  -5.5944  -5.5831  -5.5771  -5.4800
    -5.4539  -5.4403  -5.4179  -5.4060  -5.3480  -5.3066  -5.2442  -5.2408
    -5.2346  -5.2266  -5.1825  -5.1100  -5.0538  -5.0335  -5.0120  -4.9692
    -4.9481  -4.9385  -4.9049  -4.8841  -4.8618  -4.8369  -4.8255  -4.7771
    -4.7249  -4.7087  -4.6790  -4.6689  -4.6580  -4.6491  -4.6304  -4.5999
    -4.5749  -4.5512  -4.5391  -4.5264  -4.4965  -4.4908  -4.4799  -4.3914
    -4.3560  -4.2995  -4.2587  -4.2441  -4.2142  -4.1692  -4.1534  -4.1257
    -4.0952  -4.0551  -4.0352  -4.0000  -3.9852  -3.9578  -3.9419  -3.9305
    -3.8670  -3.8376  -3.8201  -3.7987  -3.7309  -3.7040  -3.6458  -3.6197
    -3.5645  -3.5510  -3.5418  -3.5105  -3.4968  -3.4856  -3.4427  -3.4094
    -3.3847  -3.3676  -3.3358  -3.3022  -3.2676  -3.2556  -3.2316  -3.1976
    -3.1797  -3.1420  -3.1298  -3.1028  -3.0693  -3.0492  -3.0325  -3.0055
    -2.9724  -2.9665  -2.9270  -2.8957  -2.8873  -2.8587  -2.8500  -2.8349
    -2.8238  -2.7938  -2.7390  -2.7312  -2.7103  -2.7089  -2.6695  -2.6423
    -2.6342  -2.6143  -2.5985  -2.5756  -2.5511  -2.5392  -2.5189  -2.5006
    -2.4937  -2.4734  -2.4583  -2.4174  -2.3916  -2.3705  -2.3499  -2.3379
    -2.3129  -2.3039  -2.2850  -2.2704  -2.2374  -2.2156  -2.2042  -2.1734
    -2.1628  -2.1133  -2.0851  -2.0653  -2.0578  -2.0337  -2.0331  -2.0064
    -1.9992  -1.9663  -1.9491  -1.9419  -1.9236  -1.9062  -1.8891  -1.8879
    -1.8751  -1.8455  -1.8285  -1.8205  -1.8046  -1.7861  -1.7764  -1.7645
    -1.7513  -1.7208  -1.7068  -1.6846  -1.6746  -1.6647  -1.6571  -1.6384
    -1.6293  -1.6197  -1.5965  -1.5828  -1.5702  -1.5596  -1.5463  -1.5236
    -1.5173  -1.4962  -1.4878  -1.4746  -1.4539  -1.4467  -1.4316  -1.4098
    -1.3876  -1.3611  -1.3563  -1.3379  -1.3242  -1.3097  -1.3008  -1.2768
    -1.2587  -1.2330  -1.2201  -1.1909  -1.1778  -1.1697  -1.1436  -1.1194
    -1.1004  -1.0890  -1.0764  -1.0651  -1.0472  -1.0374  -1.0149  -0.9984
    -0.9890  -0.9650  -0.9465  -0.9253  -0.9012  -0.8927  -0.8863  -0.8660
    -0.8591  -0.8350  -0.8069  -0.7972  -0.7955  -0.7571  -0.7417  -0.7362
    -0.7171  -0.7088  -0.6842  -0.6695  -0.6676  -0.6494  -0.6298  -0.6244
    -0.5950  -0.5851  -0.5805  -0.5633  -0.5513  -0.5433  -0.5337  -0.5237
    -0.5057  -0.4995  -0.4904  -0.4728  -0.4610  -0.4515  -0.4455  -0.4262
    -0.4166  -0.4080  -0.3991  -0.3983  -0.3884  -0.3782  -0.3715  -0.3614
    -0.3520  -0.3398  -0.3356  -0.3284  -0.3163  -0.3042  -0.2956  -0.2863
    -0.2746  -0.2630  -0.2517  -0.2413  -0.2321  -0.2209  -0.2078  -0.2032
    -0.1946  -0.1716  -0.1471  -0.1439  -0.1337  -0.1188  -0.0951  -0.0750
    -0.0729  -0.0524  -0.0447   0.0039   0.0053   0.0154   0.0190   1.7090
     1.8386   1.8622   2.0628   2.3934   2.8019   3.0781   3.2708   3.6676
     3.8253   3.8745   4.0292   4.2115   4.2568

          k = 0.3333 0.3336 0.0000 (327656 PWs)   bands (ev):

   -74.2191 -38.4611 -38.3480 -38.0571 -18.1310 -18.1310 -18.0805 -18.0805
   -18.0681 -18.0680 -18.0317 -18.0317 -17.8644 -17.7844 -17.7844 -17.7589
   -17.7588 -17.7375 -17.7374 -17.7076 -17.7075 -17.6788 -17.6778 -17.6735
   -17.6726 -17.6006 -17.6001 -17.5974 -17.5969 -17.5837 -17.5717 -17.5298
   -17.3780 -17.3072 -17.2321 -17.1701 -17.1436 -17.1264 -17.0678 -17.0489
   -17.0327 -17.0051 -16.9632 -16.9409 -16.9076 -16.8899 -16.8860 -16.8660
   -16.8531 -16.8391 -16.8167 -16.8013 -16.7856 -16.7788 -16.7603 -16.7442
   -16.7355 -16.7182 -16.7081 -16.6994 -16.6870 -16.6708 -16.6599 -16.6551
   -16.6340 -16.6228 -16.6189 -16.6174 -16.6047 -16.5966 -16.5891 -16.5856
   -16.5719 -16.5665 -16.5582 -16.5446 -16.5422 -16.5228 -16.5168 -16.5049
   -16.5006 -16.4892 -16.4743 -16.4717 -16.4570 -16.4500 -16.4451 -16.4347
   -16.4148 -16.4118 -16.4057 -16.3988 -16.3615 -16.3552 -16.3516 -16.3398
   -16.2704 -16.2694 -16.2515 -16.2492 -12.6315 -12.6243 -12.6169 -12.6105
   -12.5982 -12.5926 -12.5824 -12.5786 -12.5728 -12.5694 -12.5636 -12.5575
   -12.5537 -12.5511 -12.5425 -12.5402 -12.5369 -12.5321 -12.5201 -12.5174
   -12.5134 -12.5092 -12.5053 -12.4981 -12.4922 -12.4870 -12.4818 -12.4783
   -12.4715 -12.4699 -12.4666 -12.4609 -12.4583 -12.4524 -12.4476 -12.4435
   -12.4406 -12.4368 -12.4325 -12.4271 -12.4239 -12.4176 -12.4173 -12.4102
   -12.4061 -12.4032 -12.3949 -12.3888 -12.3832 -12.3798 -12.3768 -12.3704
   -12.3623 -12.3612 -12.3550 -12.3516 -12.3430 -12.3396 -12.3368 -12.3294
   -12.3275 -12.3258 -12.3224 -12.3189 -12.3145 -12.3129 -12.3108 -12.3054
   -12.3021 -12.2994 -12.2965 -12.2933 -12.2925 -12.2895 -12.2866 -12.2847
   -12.2814 -12.2790 -12.2788 -12.2759 -12.2724 -12.2717 -12.2702 -12.2673
   -12.2658 -12.2624 -12.2593 -12.2572 -12.2537 -12.2528 -12.2505 -12.2480
   -12.2460 -12.2428 -12.2415 -12.2371 -12.2355 -12.2338 -12.2329 -12.2296
   -12.2266 -12.2248 -12.2237 -12.2209 -12.2196 -12.2156 -12.2136 -12.2126
   -12.2095 -12.2077 -12.2056 -12.2048 -12.2022 -12.1993 -12.1981 -12.1957
   -12.1948 -12.1914 -12.1893 -12.1886 -12.1868 -12.1836 -12.1829 -12.1826
   -12.1803 -12.1771 -12.1758 -12.1730 -12.1710 -12.1692 -12.1679 -12.1650
   -12.1621 -12.1580 -12.1558 -12.1534 -12.1516 -12.1479 -12.1464 -12.1428
   -12.1413 -12.1391 -12.1366 -12.1327 -12.1299 -12.1281 -12.1255 -12.1250
   -12.1210 -12.1174 -12.1168 -12.1149 -12.1112 -12.1085 -12.1061 -12.1040
   -12.1020 -12.1003 -12.0978 -12.0973 -12.0948 -12.0920 -12.0908 -12.0876
   -12.0847 -12.0836 -12.0818 -12.0799 -12.0787 -12.0745 -12.0732 -12.0701
   -12.0673 -12.0652 -12.0642 -12.0614 -12.0588 -12.0573 -12.0531 -12.0522
   -12.0502 -12.0458 -12.0418 -12.0380 -12.0360 -12.0309 -12.0262 -12.0237
   -12.0221 -12.0195 -12.0186 -12.0157 -12.0126 -12.0093 -12.0082 -12.0059
   -12.0036 -12.0026 -11.9990 -11.9950 -11.9940 -11.9926 -11.9914 -11.9901
   -11.9868 -11.9823 -11.9790 -11.9765 -11.9750 -11.9713 -11.9697 -11.9678
   -11.9652 -11.9635 -11.9628 -11.9611 -11.9584 -11.9555 -11.9536 -11.9496
   -11.9471 -11.9427 -11.9376 -11.9358 -11.9317 -11.9268 -11.9139 -11.9093
   -11.9026 -11.8890 -11.8762 -11.8642 -11.8616 -11.8520 -11.8414 -11.8334
   -11.8245 -11.8155 -11.7987 -11.7860 -11.7738 -11.7660 -11.7557 -11.7398
   -11.6979 -11.6777 -11.6597 -11.6337 -11.5902 -11.5510 -11.5246 -11.5050
   -11.4875 -11.4829 -11.4745 -11.4563 -11.4285 -11.4258 -11.4053 -11.3708
   -11.3663 -11.3557 -11.3371 -11.3201 -11.3099 -11.2949 -11.2794 -11.2664
   -11.2592 -11.2277 -11.2215 -11.2044 -11.1913 -11.1850 -11.1684  -5.7187
    -5.7181  -5.6781  -5.6750  -5.6175  -5.6169  -5.6041  -5.6022  -5.4509
    -5.4262  -5.4188  -5.4137  -5.3899  -5.3097  -5.2544  -5.2057  -5.2045
    -5.2002  -5.1966  -5.1275  -5.0761  -5.0287  -5.0032  -4.9659  -4.9562
    -4.9363  -4.9189  -4.9081  -4.8868  -4.8530  -4.8352  -4.8291  -4.7687
    -4.7463  -4.7316  -4.6990  -4.6859  -4.6705  -4.6446  -4.6386  -4.6228
    -4.6131  -4.6024  -4.5666  -4.5529  -4.5412  -4.5182  -4.5037  -4.4862
    -4.4529  -4.4075  -4.3749  -4.3531  -4.3469  -4.2335  -4.2256  -4.1865
    -4.1358  -4.0982  -4.0735  -4.0382  -4.0007  -3.9967  -3.9748  -3.9330
    -3.8634  -3.8374  -3.7851  -3.7129  -3.6847  -3.6489  -3.5987  -3.5710
    -3.5524  -3.5189  -3.4954  -3.4504  -3.4205  -3.3906  -3.3670  -3.3469
    -3.3320  -3.2831  -3.2566  -3.2514  -3.2209  -3.1944  -3.1773  -3.1635
    -3.1223  -3.0979  -3.0634  -3.0452  -3.0155  -2.9925  -2.9822  -2.9667
    -2.9552  -2.9372  -2.9112  -2.8837  -2.8640  -2.8375  -2.8314  -2.8190
    -2.7975  -2.7816  -2.7564  -2.7423  -2.7265  -2.6920  -2.6833  -2.6554
    -2.6161  -2.6048  -2.6002  -2.5805  -2.5708  -2.5501  -2.5441  -2.5191
    -2.4951  -2.4735  -2.4371  -2.4224  -2.4081  -2.3854  -2.3772  -2.3594
    -2.3263  -2.3201  -2.2809  -2.2597  -2.2440  -2.2285  -2.2047  -2.1870
    -2.1633  -2.1484  -2.1301  -2.1219  -2.1106  -2.1002  -2.0687  -2.0445
    -2.0304  -2.0248  -1.9931  -1.9745  -1.9701  -1.9508  -1.9307  -1.9087
    -1.8912  -1.8781  -1.8645  -1.8470  -1.8204  -1.8076  -1.7965  -1.7723
    -1.7579  -1.7398  -1.7303  -1.7158  -1.6946  -1.6834  -1.6515  -1.6390
    -1.6355  -1.6085  -1.5969  -1.5837  -1.5527  -1.5262  -1.5092  -1.5041
    -1.4771  -1.4578  -1.4360  -1.4138  -1.4010  -1.3885  -1.3727  -1.3629
    -1.3437  -1.3285  -1.3159  -1.2974  -1.2889  -1.2605  -1.2586  -1.2462
    -1.2292  -1.2105  -1.1966  -1.1851  -1.1643  -1.1537  -1.1355  -1.1177
    -1.1058  -1.0934  -1.0648  -1.0557  -1.0380  -1.0300  -1.0159  -0.9968
    -0.9857  -0.9802  -0.9644  -0.9491  -0.9321  -0.9239  -0.9110  -0.8965
    -0.8864  -0.8691  -0.8514  -0.8413  -0.8289  -0.8052  -0.7979  -0.7818
    -0.7714  -0.7561  -0.7388  -0.7249  -0.7120  -0.6978  -0.6781  -0.6557
    -0.6415  -0.6321  -0.6087  -0.6027  -0.5869  -0.5769  -0.5671  -0.5538
    -0.5506  -0.5397  -0.5245  -0.5115  -0.4949  -0.4835  -0.4765  -0.4667
    -0.4362  -0.4255  -0.4188  -0.3993  -0.3870  -0.3726  -0.3556  -0.3459
    -0.3387  -0.3346  -0.3282  -0.3240  -0.3102  -0.3036  -0.2893  -0.2749
    -0.2657  -0.2552  -0.2424  -0.2331  -0.2240  -0.2094  -0.1920  -0.1699
    -0.1557  -0.1516  -0.1229  -0.1001  -0.0950  -0.0755  -0.0723  -0.0424
    -0.0402  -0.0331  -0.0293  -0.0094  -0.0063   0.0122   0.0147   1.8146
     1.8546   2.0386   2.2112   2.7512   3.0648   3.1078   3.3532   3.5100
     3.5559   3.7157   3.8937   3.9958   4.0269

     the Fermi energy is     1.8510 ev

!    total energy              =  -27384.98747561 Ry
     total all-electron energy =   -693757.949809 Ry
     estimated scf accuracy    <          7.2E-10 Ry
     smearing contrib. (-TS)   =      -0.00547184 Ry
     internal energy E=F+TS    =  -27384.98200378 Ry

     The total energy is F=E-TS. E is the sum of the following terms:
     one-electron contribution = -273389.62055222 Ry
     hartree contribution      =  137478.09154875 Ry
     xc contribution           =   -3322.93426293 Ry
     ewald contribution        =  128370.63349118 Ry
     one-center paw contrib.   =  -16521.15222856 Ry

     convergence has been achieved in  70 iterations

     negative rho (up, down):  2.921E-03 0.000E+00

     Forces acting on atoms (cartesian axes, Ry/au):

     atom    1 type  1   force =     0.00009536    0.00048047   -0.00181093
     atom    2 type  1   force =    -0.00026026    0.00042439   -0.00225518
     atom    3 type  1   force =     0.00148563    0.00410665   -0.00623235
     atom    4 type  1   force =    -0.00026037   -0.00047470   -0.00148047
     atom    5 type  1   force =    -0.00355902    0.00058915   -0.00566769
     atom    6 type  1   force =     0.00031735    0.00030476   -0.00147485
     atom    7 type  1   force =    -0.00077146    0.00099600   -0.00563302
     atom    8 type  1   force =     0.00079210   -0.00157262   -0.00570839
     atom    9 type  1   force =    -0.00289905   -0.00262511   -0.00634473
     atom   10 type  1   force =     0.02100602   -0.01576460   -0.01616281
     atom   11 type  1   force =    -0.00054862    0.00012274   -0.00203130
     atom   12 type  1   force =     0.00069243    0.00103854   -0.00685957
     atom   13 type  2   force =     0.00044975    0.00017595    0.00240569
     atom   14 type  2   force =     0.00006095   -0.00089855    0.00251883
     atom   15 type  2   force =    -0.00461519   -0.00200827    0.00700731
     atom   16 type  2   force =    -0.00019497   -0.00311463    0.00618177
     atom   17 type  2   force =     0.00071827   -0.00050481    0.00017776
     atom   18 type  2   force =     0.00062722    0.00023927    0.00063501
     atom   19 type  2   force =    -0.00061558    0.00029143    0.00037395
     atom   20 type  2   force =     0.00002111    0.00001131    0.00284274
     atom   21 type  2   force =    -0.00050494   -0.00077381    0.00178536
     atom   22 type  2   force =     0.00089392   -0.00094417    0.00259911
     atom   23 type  2   force =     0.00082562   -0.00044651    0.00085660
     atom   24 type  2   force =     0.00223442    0.00128523    0.00095032
     atom   25 type  2   force =    -0.00011770   -0.00038442    0.00104678
     atom   26 type  2   force =     0.00005234    0.00028700    0.00129780
     atom   27 type  2   force =     0.00546197   -0.00514589    0.00274252
     atom   28 type  2   force =     0.04910860   -0.04198479    0.04300483
     atom   29 type  2   force =    -0.00048992    0.00014027    0.00166549
     atom   30 type  2   force =    -0.00079550   -0.00025357    0.00024524
     atom   31 type  2   force =     0.00004955   -0.00042244    0.00162911
     atom   32 type  2   force =     0.00055562    0.00044320    0.00024679
     atom   33 type  2   force =    -0.00081115   -0.00046227    0.00105171
     atom   34 type  2   force =    -0.01074601   -0.00003277    0.00142147
     atom   35 type  2   force =     0.00061210    0.00012897    0.00205012
     atom   36 type  2   force =    -0.00133699    0.00126995    0.00318855
     atom   37 type  1   force =     0.00992213   -0.01876204   -0.02148559
     atom   38 type  1   force =    -0.00151017   -0.00470600   -0.00646812
     atom   39 type  1   force =     0.00025835   -0.00069997   -0.00225662
     atom   40 type  1   force =    -0.00382628    0.02426904   -0.02649937
     atom   41 type  1   force =     0.00061272   -0.00011732   -0.00218649
     atom   42 type  1   force =    -0.02027622    0.00015960   -0.02886240
     atom   43 type  1   force =     0.02337496    0.02382546   -0.00072138
     atom   44 type  1   force =     0.00307022   -0.00295057   -0.00607155
     atom   45 type  1   force =    -0.00067307    0.00019621   -0.00169641
     atom   46 type  1   force =     0.00480643    0.00197222   -0.00681040
     atom   47 type  1   force =    -0.00060922    0.00003808   -0.00323141
     atom   48 type  1   force =     0.00178877   -0.00037348   -0.00981181
     atom   49 type  1   force =    -0.00338917    0.00305750   -0.00705177
     atom   50 type  1   force =    -0.02051720   -0.01779001    0.00657955
     atom   51 type  2   force =    -0.00367726    0.00500919    0.00423925
     atom   52 type  2   force =    -0.00363095    0.00334365    0.00317377
     atom   53 type  2   force =    -0.00000417    0.00041130    0.00114208
     atom   54 type  2   force =     0.00018717   -0.00022168    0.00111432
     atom   55 type  2   force =    -0.00178125    0.00617990    0.01012145
     atom   56 type  2   force =    -0.07170479   -0.03458226    0.07291458
     atom   57 type  2   force =    -0.00099132   -0.00023030    0.00302600
     atom   58 type  2   force =    -0.00221163   -0.00259351    0.00152413
     atom   59 type  2   force =     0.05352528    0.07675134    0.06006073
     atom   60 type  2   force =    -0.00087654    0.00047422    0.00120207
     atom   61 type  2   force =     0.00165383   -0.00087332    0.01108689
     atom   62 type  2   force =    -0.00053249   -0.00028958    0.00309810
     atom   63 type  2   force =     0.00253375    0.00292263    0.01258360
     atom   64 type  2   force =     0.00194360    0.00074875    0.00249941
     atom   65 type  2   force =    -0.00019542   -0.00004601    0.00327198
     atom   66 type  2   force =    -0.00039540    0.00058912    0.00132834
     atom   67 type  2   force =     0.00295648    0.00938246    0.00269203
     atom   68 type  2   force =     0.00107865   -0.00196390    0.00629968
     atom   69 type  2   force =     0.01126110    0.00223251    0.00312201
     atom   70 type  2   force =     0.00253516   -0.00109431    0.00555287
     atom   71 type  2   force =    -0.00053824    0.00092411    0.00364078
     atom   72 type  2   force =     0.00000484    0.00054156    0.00224194
     atom   73 type  2   force =     0.00041630   -0.01004130    0.00132546
     atom   74 type  2   force =     0.00085942    0.00038844    0.00107210
     atom   75 type  1   force =    -0.00148563    0.00410665    0.00623235
     atom   76 type  1   force =     0.00382628    0.02426904    0.02649937
     atom   77 type  1   force =    -0.00009536    0.00048047    0.00181093
     atom   78 type  1   force =     0.00151017   -0.00470600    0.00646812
     atom   79 type  1   force =    -0.00031735    0.00030476    0.00147485
     atom   80 type  1   force =     0.00355902    0.00058915    0.00566769
     atom   81 type  1   force =     0.00077146    0.00099600    0.00563302
     atom   82 type  1   force =    -0.00079210   -0.00157262    0.00570839
     atom   83 type  1   force =    -0.00307022   -0.00295057    0.00607155
     atom   84 type  1   force =    -0.02337496    0.02382546    0.00072138
     atom   85 type  1   force =     0.00054862    0.00012274    0.00203130
     atom   86 type  1   force =    -0.02100602   -0.01576460    0.01616281
     atom   87 type  3   force =     0.00000000   -0.00143800    0.00000000
     atom   88 type  1   force =     0.00000000    0.00192868    0.00000000
     atom   89 type  1   force =     0.02051720   -0.01779001   -0.00657955
     atom   90 type  1   force =     0.00338917    0.00305750    0.00705177
     atom   91 type  2   force =     0.00461519   -0.00200827   -0.00700731
     atom   92 type  2   force =     0.00019497   -0.00311463   -0.00618177
     atom   93 type  2   force =    -0.00044975    0.00017595   -0.00240569
     atom   94 type  2   force =    -0.00006095   -0.00089855   -0.00251883
     atom   95 type  2   force =     0.00221163   -0.00259351   -0.00152413
     atom   96 type  2   force =     0.00099132   -0.00023030   -0.00302600
     atom   97 type  2   force =     0.07170479   -0.03458226   -0.07291458
     atom   98 type  2   force =     0.00178125    0.00617990   -0.01012145
     atom   99 type  2   force =    -0.00089392   -0.00094417   -0.00259911
     atom  100 type  2   force =     0.00050494   -0.00077381   -0.00178536
     atom  101 type  2   force =    -0.00223442    0.00128523   -0.00095032
     atom  102 type  2   force =    -0.00082562   -0.00044651   -0.00085660
     atom  103 type  2   force =    -0.00546197   -0.00514589   -0.00274252
     atom  104 type  2   force =    -0.04910860   -0.04198479   -0.04300483
     atom  105 type  2   force =     0.00011770   -0.00038442   -0.00104678
     atom  106 type  2   force =    -0.00005234    0.00028700   -0.00129780
     atom  107 type  2   force =    -0.00253516   -0.00109431   -0.00555287
     atom  108 type  2   force =    -0.01126110    0.00223251   -0.00312201
     atom  109 type  2   force =    -0.00107865   -0.00196390   -0.00629968
     atom  110 type  2   force =    -0.00295648    0.00938246   -0.00269203
     atom  111 type  2   force =     0.01074601   -0.00003277   -0.00142147
     atom  112 type  2   force =     0.00081115   -0.00046227   -0.00105171
     atom  113 type  2   force =     0.00133699    0.00126995   -0.00318855
     atom  114 type  2   force =    -0.00061210    0.00012897   -0.00205012
     atom  115 type  1   force =    -0.00025835   -0.00069997    0.00225662
     atom  116 type  1   force =     0.00026037   -0.00047470    0.00148047
     atom  117 type  1   force =    -0.00992213   -0.01876204    0.02148559
     atom  118 type  1   force =     0.00026026    0.00042439    0.00225518
     atom  119 type  1   force =     0.02027622    0.00015960    0.02886240
     atom  120 type  1   force =    -0.00061272   -0.00011732    0.00218649
     atom  121 type  1   force =     0.00000000   -0.00340311    0.00000000
     atom  122 type  1   force =     0.00000000    0.00149686    0.00000000
     atom  123 type  1   force =     0.00289905   -0.00262511    0.00634473
     atom  124 type  1   force =    -0.00480643    0.00197222    0.00681040
     atom  125 type  1   force =     0.00067307    0.00019621    0.00169641
     atom  126 type  1   force =     0.00060922    0.00003808    0.00323141
     atom  127 type  1   force =    -0.00178877   -0.00037348    0.00981181
     atom  128 type  1   force =    -0.00069243    0.00103854    0.00685957
     atom  129 type  2   force =     0.00000417    0.00041130   -0.00114208
     atom  130 type  2   force =    -0.00018717   -0.00022168   -0.00111432
     atom  131 type  2   force =     0.00367726    0.00500919   -0.00423925
     atom  132 type  2   force =     0.00363095    0.00334365   -0.00317377
     atom  133 type  2   force =    -0.00002111    0.00001131   -0.00284274
     atom  134 type  2   force =     0.00061558    0.00029143   -0.00037395
     atom  135 type  2   force =    -0.00062722    0.00023927   -0.00063501
     atom  136 type  2   force =    -0.00071827   -0.00050481   -0.00017776
     atom  137 type  2   force =     0.00087654    0.00047422   -0.00120207
     atom  138 type  2   force =    -0.05352528    0.07675134   -0.06006073
     atom  139 type  2   force =     0.00053249   -0.00028958   -0.00309810
     atom  140 type  2   force =    -0.00165383   -0.00087332   -0.01108689
     atom  141 type  2   force =     0.00019542   -0.00004601   -0.00327198
     atom  142 type  2   force =     0.00039540    0.00058912   -0.00132834
     atom  143 type  2   force =    -0.00253375    0.00292263   -0.01258360
     atom  144 type  2   force =    -0.00194360    0.00074875   -0.00249941
     atom  145 type  2   force =    -0.00055562    0.00044320   -0.00024679
     atom  146 type  2   force =    -0.00004955   -0.00042244   -0.00162911
     atom  147 type  2   force =     0.00079550   -0.00025357   -0.00024524
     atom  148 type  2   force =     0.00048992    0.00014027   -0.00166549
     atom  149 type  2   force =    -0.00000484    0.00054156   -0.00224194
     atom  150 type  2   force =     0.00053824    0.00092411   -0.00364078
     atom  151 type  2   force =    -0.00085942    0.00038844   -0.00107210
     atom  152 type  2   force =    -0.00041630   -0.01004130   -0.00132546
     atom  153 type  4   force =    -0.00015318    0.00015504   -0.00005988
     atom  154 type  4   force =     0.00016351   -0.00011962   -0.00015476
     atom  155 type  4   force =    -0.00012946   -0.00016171   -0.00053346
     atom  156 type  4   force =     0.00000354    0.00013816   -0.00052253
     atom  157 type  4   force =    -0.00001468   -0.00013717   -0.00053405
     atom  158 type  4   force =     0.00013780    0.00014245   -0.00010942
     atom  159 type  4   force =    -0.00015918   -0.00009250   -0.00010537
     atom  160 type  4   force =     0.00012095   -0.00011389   -0.00052229
     atom  161 type  4   force =     0.00003028   -0.00010417   -0.00053832
     atom  162 type  4   force =     0.00001497    0.00014290   -0.00054004
     atom  163 type  4   force =     0.00015359    0.00010510   -0.00051502
     atom  164 type  4   force =    -0.00016336    0.00015009   -0.00052563
     atom  165 type  4   force =     0.00012946   -0.00016171    0.00053346
     atom  166 type  4   force =    -0.00000354    0.00013816    0.00052253
     atom  167 type  4   force =     0.00001468   -0.00013717    0.00053405
     atom  168 type  4   force =    -0.00012095   -0.00011389    0.00052229
     atom  169 type  4   force =    -0.00003028   -0.00010417    0.00053832
     atom  170 type  4   force =    -0.00001497    0.00014290    0.00054004
     atom  171 type  4   force =    -0.00016351   -0.00011962    0.00015476
     atom  172 type  4   force =     0.00015318    0.00015504    0.00005988
     atom  173 type  4   force =    -0.00015359    0.00010510    0.00051502
     atom  174 type  4   force =     0.00015918   -0.00009250    0.00010537
     atom  175 type  4   force =    -0.00013780    0.00014245    0.00010942
     atom  176 type  4   force =     0.00016336    0.00015009    0.00052563

     Total force =     0.277402     Total SCF correction =     0.000145


     Computing stress (Cartesian axis) and pressure


     negative rho (up, down):  2.921E-03 0.000E+00
          total   stress  (Ry/bohr**3)                   (kbar)     P=       -0.93
  -0.00000389   0.00000000  -0.00000320           -0.57        0.00       -0.47
   0.00000000  -0.00000006   0.00000000            0.00       -0.01        0.00
  -0.00000320   0.00000000  -0.00001499           -0.47        0.00       -2.20


     BFGS Geometry Optimization
     Energy error            =      0.0E+00 Ry
     Gradient error          =      7.7E-02 Ry/Bohr

     number of scf cycles    =   1
     number of bfgs steps    =   0

     energy             new  =  -27384.9874756149 Ry

     new trust radius        =       0.1111890986 bohr
     new conv_thr            =       0.0000000010 Ry


ATOMIC_POSITIONS (crystal)
In               0.2475492311        0.2525707493        0.3285990101
In               0.7524423115        0.2474757015        0.3285938069
In               0.2503509529        0.2502541759        0.4428309720
In               0.2524423060        0.7525217169        0.3286028806
In               0.4663128446        0.4999536202        0.4427903092
In               0.0359320810        0.5024324085        0.3288656677
In               0.7512085941        0.4655149286        0.3856802568
In               0.2487924644        0.0344554710        0.3856793740
In               0.4998513158        0.7498652427        0.3782195382
In               0.0345819633       -0.0008858849        0.4426673855
In               0.4640560579        0.0024230649        0.3288591503
In               0.0000355128        0.2500533133        0.3782135082
O                0.3890927871        0.1565284063        0.3583711369
O                0.6109334054        0.3434345000        0.3583724620
O                0.1101281764        0.1548188602        0.4129853768
O                0.8896251248        0.3449181602        0.4129757078
O                0.3810756068        0.3938907576        0.3068943889
O                0.3837407942        0.6104013154        0.3508918322
O                0.6189296599        0.1060982883        0.3068966868
O                0.6162924571        0.8896115479        0.3509176901
O                0.1548696303        0.3833427519        0.3609603356
O                0.3461362802        0.3822801053        0.4110000487
O                0.1838010271        0.6029169323        0.2984446023
O                0.3456990212        0.6178418388        0.4748342330
O                0.0990485003        0.3426004056        0.3005759853
O                0.9009481487        0.1573945934        0.3005789254
O                0.3901395502        0.3452797714        0.4731132844
O                0.6126592238        0.1523008170        0.4735848559
O                0.1162662479        0.1103962336        0.3509039016
O                0.1189204324        0.8939036548        0.3068951793
O                0.8837111669        0.3895892813        0.3509034755
O                0.8810672649        0.6061060795        0.3068951974
O                0.3161997149        0.1029161227        0.2984468876
O                0.1538644430        0.1177741806        0.4748397514
O                0.3451358658        0.8833890959        0.3609634366
O                0.1538409964        0.8823937653        0.4110069525
In               0.7507836375        0.7489935028        0.4426523188
In               0.2496477885        0.7498017866        0.4428282106
In               0.7475575906        0.7474179837        0.3285937900
In               0.7495290017        0.2512024649        0.4425935950
In               0.9641156186       -0.0024227865        0.3288573325
In               0.5324647124        0.0000848162        0.4425186418
In               0.0011988368        0.2512230593        0.4922943972
In               0.0001574630        0.7498485358        0.3932445366
In               0.5358812851        0.4975933086        0.3288630726
In               0.9667418852        0.5001778654        0.4427769253
In               0.2512169148        0.5345381551        0.3857083855
In               0.7488435810        0.9654446267        0.3856313128
In               0.4998261790        0.2501569545        0.3932330558
In               0.4989477297        0.7490867662        0.4923799091
O                0.8896708243        0.6547132114        0.4731308149
O                0.1099543586        0.8457155742        0.4731183354
O                0.5990543228        0.6574009755        0.3005771016
O                0.4009550638        0.8426087595        0.3005767764
O                0.8821980078        0.8899621300        0.4208301942
O                0.8784901491        0.1081535403        0.4656181124
O                0.1176597957        0.6103432873        0.4207470888
O                0.1177188832        0.3899380743        0.4647819532
O                0.6571607382        0.8861641001        0.4755265625
O                0.8161963611        0.8970844910        0.2984486486
O                0.6539943872        0.1176265954        0.4110994616
O                0.8450771629        0.1166026598        0.3609757111
O                0.6104948254        0.8452280778        0.4130506891
O                0.3897348065        0.6549603895        0.4129325782
O                0.8890596982        0.8434782643        0.3583812833
O                0.1109100002        0.6565496167        0.3583585185
O                0.6179839413        0.6104104304        0.4647956323
O                0.6177659586        0.3895440757        0.4207854318
O                0.3827452392        0.8901858137        0.4648006683
O                0.3824193845        0.1102989338        0.4207766848
O                0.8460628285        0.6177188646        0.4110122492
O                0.6548957755        0.6166453258        0.3609656833
O                0.8456057749        0.3817086761        0.4748386269
O                0.6838027607        0.3970800874        0.2984471264
In               0.2496490471        0.2502541759        0.5571690283
In               0.7504709983        0.2512024649        0.5574064053
In               0.2524507689        0.2525707493        0.6714009899
In               0.2503522115        0.7498017866        0.5571717897
In               0.4640679190        0.5024324085        0.6711343323
In               0.0336871554        0.4999536202        0.5572096910
In               0.7487914059        0.4655149286        0.6143197432
In               0.2512075356        0.0344554710        0.6143206260
In               0.4998425370        0.7498485358        0.6067554634
In               0.4988011632        0.2512230593        0.5077056028
In               0.0359439421        0.0024230649        0.6711408497
In               0.4654180367       -0.0008858849        0.5573326147
W                0.7500000000        0.0333629009        0.5000000001
In               0.2500000000        0.4666622877        0.5000000001
In               0.0010522703        0.7490867662        0.5076200909
In               0.0001738210        0.2501569545        0.6067669442
O                0.3898718246        0.1548188602        0.5870146234
O                0.6103748762        0.3449181602        0.5870242924
O                0.1109072129        0.1565284063        0.6416288631
O                0.8890665946        0.3434345000        0.6416275380
O                0.3822811168        0.3899380743        0.5352180468
O                0.3823402052        0.6103432873        0.5792529112
O                0.6215098509        0.1081535403        0.5343818876
O                0.6178019931        0.8899621300        0.5791698058
O                0.1538637198        0.3822801053        0.5889999513
O                0.3451303697        0.3833427519        0.6390396644
O                0.1543009788        0.6178418388        0.5251657670
O                0.3161989729        0.6029169323        0.7015553979
O                0.1098604508        0.3452797714        0.5268867161
O                0.8873407772        0.1523008170        0.5264151446
O                0.4009515006        0.3426004056        0.6994240147
O                0.5990518522        0.1573945934        0.6994210746
O                0.1175806164        0.1102989338        0.5792233152
O                0.1172547608        0.8901858137        0.5351993317
O                0.8822340423        0.3895440757        0.5792145682
O                0.8820160587        0.6104104304        0.5352043677
O                0.3461355570        0.1177741806        0.5251602486
O                0.1838002851        0.1029161227        0.7015531126
O                0.3461590036        0.8823937653        0.5889930475
O                0.1548641342        0.8833890959        0.6390365634
In               0.7524424094        0.7474179837        0.6714062100
In               0.2475576940        0.7525217169        0.6713971194
In               0.7492163625        0.7489935028        0.5573476815
In               0.7475576885        0.2474757015        0.6714061931
In               0.9675352876        0.0000848162        0.5574813584
In               0.5358843804       -0.0024227865        0.6711426675
In               0.2500000000        0.9663885845        0.5000000001
In               0.7500000000        0.5335135593        0.5000000001
In               0.0001486842        0.7498652427        0.6217804618
In               0.5332581148        0.5001778654        0.5572230749
In               0.9641187139        0.4975933086        0.6711369274
In               0.2487830852        0.5345381551        0.6142916145
In               0.7511564190        0.9654446267        0.6143686872
In               0.4999644872        0.2500533133        0.6217864918
O                0.9009456781        0.6574009755        0.6994228984
O                0.0990449371        0.8426087595        0.6994232236
O                0.6103291767        0.6547132114        0.5268691856
O                0.3900456424        0.8457155742        0.5268816651
O                0.8837075429        0.8896115479        0.6490823099
O                0.8810703401        0.1060982883        0.6931033132
O                0.1162592058        0.6104013154        0.6491081678
O                0.1189243932        0.3938907576        0.6931056111
O                0.6838036389        0.8970844910        0.7015513516
O                0.8428392618        0.8861641001        0.5244734375
O                0.6549228371        0.1166026598        0.6390242889
O                0.8460056128        0.1176265954        0.5889005384
O                0.6109403018        0.8434782643        0.6416187167
O                0.3890899998        0.6565496167        0.6416414815
O                0.8895051756        0.8452280778        0.5869493111
O                0.1102651945        0.6549603895        0.5870674220
O                0.6189327351        0.6061060795        0.6931048026
O                0.6162888331        0.3895892813        0.6490965245
O                0.3810795676        0.8939036548        0.6931048207
O                0.3837337521        0.1103962336        0.6490960984
O                0.8451042245        0.6166453258        0.6390343167
O                0.6539371715        0.6177188646        0.5889877508
O                0.8161972393        0.3970800874        0.7015528738
O                0.6543942251        0.3817086761        0.5251613731
H                0.3222897904        0.4635836553        0.3002915112
H                0.6777107384        0.0364181633        0.3002903999
H                0.1357053294        0.6469670009        0.2828290923
H                0.1377727565        0.3799085447        0.2828806466
H                0.8622266720        0.1200915075        0.2828805117
H                0.1777094196        0.9635830099        0.3002909311
H                0.8222894830        0.5364195552        0.3002909784
H                0.3642942340        0.1469694560        0.2828292231
H                0.6377741281        0.6200932011        0.2828804616
H                0.3622281927        0.8799087870        0.2828804415
H                0.8642959071        0.8530300922        0.2828293083
H                0.6357035905        0.3530324014        0.2828291840
H                0.3642946706        0.6469670009        0.7171709077
H                0.3622272435        0.3799085447        0.7171193534
H                0.6377733280        0.1200915075        0.7171194883
H                0.1357057660        0.1469694560        0.7171707769
H                0.8622258719        0.6200932011        0.7171195384
H                0.1377718073        0.8799087870        0.7171195585
H                0.8222892606        0.0364181633        0.6997096001
H                0.1777102086        0.4635836553        0.6997084888
H                0.6357040919        0.8530300922        0.7171706917
H                0.6777105160        0.5364195552        0.6997090216
H                0.3222905794        0.9635830099        0.6997090689
H                0.8642964085        0.3530324014        0.7171708160



     Writing config-only to output data dir ./tmp/rel.save/ :
     XML data file
     NEW-OLD atomic charge density approx. for the potential

     negative rho (up, down):  2.919E-03 0.000E+00

     total cpu time spent up to now is     2788.0 secs

     Self-consistent Calculation

     iteration #  1     ecut=    71.00 Ry     beta= 0.20
     Davidson diagonalization with overlap
     c_bands:  3 eigenvalues not converged
     c_bands:  1 eigenvalues not converged
     c_bands:  3 eigenvalues not converged
     c_bands:  3 eigenvalues not converged
     ethr =  1.00E-06,  avg # of iterations = 20.0

     negative rho (up, down):  3.542E-03 0.000E+00

     total cpu time spent up to now is     2859.0 secs

     total energy              =  -27384.93399564 Ry
     estimated scf accuracy    <       0.02994163 Ry

     iteration #  2     ecut=    71.00 Ry     beta= 0.20
     Davidson diagonalization with overlap
     c_bands:  1 eigenvalues not converged
     ethr =  2.25E-06,  avg # of iterations = 13.8

     negative rho (up, down):  8.954E-03 0.000E+00

     total cpu time spent up to now is     2895.5 secs

     total energy              =  -27385.01236029 Ry
     estimated scf accuracy    <       0.01676969 Ry

     iteration #  3     ecut=    71.00 Ry     beta= 0.20
     Davidson diagonalization with overlap
     ethr =  1.26E-06,  avg # of iterations =  5.0

     negative rho (up, down):  7.443E-03 0.000E+00

     total cpu time spent up to now is     2933.8 secs

     total energy              =  -27385.03286089 Ry
     estimated scf accuracy    <       0.00204430 Ry

     iteration #  4     ecut=    71.00 Ry     beta= 0.20
     Davidson diagonalization with overlap
     ethr =  1.54E-07,  avg # of iterations = 14.0

     negative rho (up, down):  6.018E-03 0.000E+00

     total cpu time spent up to now is     2972.2 secs

     total energy              =  -27385.03656005 Ry
     estimated scf accuracy    <       0.00156182 Ry

     iteration #  5     ecut=    71.00 Ry     beta= 0.20
     Davidson diagonalization with overlap
     ethr =  1.18E-07,  avg # of iterations =  2.0

     negative rho (up, down):  5.355E-03 0.000E+00

     total cpu time spent up to now is     3005.2 secs

     total energy              =  -27385.05284579 Ry
     estimated scf accuracy    <       0.00114164 Ry

     iteration #  6     ecut=    71.00 Ry     beta= 0.20
     Davidson diagonalization with overlap
     ethr =  8.59E-08,  avg # of iterations =  8.5

     negative rho (up, down):  5.160E-03 0.000E+00

     total cpu time spent up to now is     3046.0 secs

     total energy              =  -27385.05375062 Ry
     estimated scf accuracy    <       0.00144853 Ry

     iteration #  7     ecut=    71.00 Ry     beta= 0.20
     Davidson diagonalization with overlap
     ethr =  8.59E-08,  avg # of iterations =  1.8

     negative rho (up, down):  5.583E-03 0.000E+00

     total cpu time spent up to now is     3078.9 secs

     total energy              =  -27385.05415152 Ry
     estimated scf accuracy    <       0.00126929 Ry

     iteration #  8     ecut=    71.00 Ry     beta= 0.20
     Davidson diagonalization with overlap
     ethr =  8.59E-08,  avg # of iterations =  2.0

     negative rho (up, down):  5.883E-03 0.000E+00

     total cpu time spent up to now is     3112.0 secs

     total energy              =  -27385.05360201 Ry
     estimated scf accuracy    <       0.00170577 Ry

     iteration #  9     ecut=    71.00 Ry     beta= 0.20
     Davidson diagonalization with overlap
     ethr =  8.59E-08,  avg # of iterations =  1.8

     negative rho (up, down):  5.715E-03 0.000E+00

     total cpu time spent up to now is     3145.0 secs

     total energy              =  -27385.05561135 Ry
     estimated scf accuracy    <       0.00212588 Ry

     iteration # 10     ecut=    71.00 Ry     beta= 0.20
     Davidson diagonalization with overlap
     ethr =  8.59E-08,  avg # of iterations =  2.0

     negative rho (up, down):  5.859E-03 0.000E+00

     total cpu time spent up to now is     3178.9 secs

     total energy              =  -27385.05406522 Ry
     estimated scf accuracy    <       0.00185640 Ry

     iteration # 11     ecut=    71.00 Ry     beta= 0.20
     Davidson diagonalization with overlap
     c_bands:  1 eigenvalues not converged
     ethr =  8.59E-08,  avg # of iterations = 15.3

     negative rho (up, down):  5.233E-03 0.000E+00

     total cpu time spent up to now is     3226.8 secs

     total energy              =  -27385.05585109 Ry
     estimated scf accuracy    <       0.00150437 Ry

     iteration # 12     ecut=    71.00 Ry     beta= 0.20
     Davidson diagonalization with overlap
     ethr =  8.59E-08,  avg # of iterations =  2.0

     negative rho (up, down):  5.092E-03 0.000E+00

     total cpu time spent up to now is     3259.9 secs

     total energy              =  -27385.05593549 Ry
     estimated scf accuracy    <       0.00082393 Ry

     iteration # 13     ecut=    71.00 Ry     beta= 0.20
     Davidson diagonalization with overlap
     ethr =  6.20E-08,  avg # of iterations =  5.3

     negative rho (up, down):  5.000E-03 0.000E+00

     total cpu time spent up to now is     3294.3 secs

     total energy              =  -27385.05621550 Ry
     estimated scf accuracy    <       0.00038542 Ry

     iteration # 14     ecut=    71.00 Ry     beta= 0.20
     Davidson diagonalization with overlap
     ethr =  2.90E-08,  avg # of iterations =  6.0

     negative rho (up, down):  4.857E-03 0.000E+00

     total cpu time spent up to now is     3328.8 secs

     total energy              =  -27385.05643134 Ry
     estimated scf accuracy    <       0.00023368 Ry

     iteration # 15     ecut=    71.00 Ry     beta= 0.20
     Davidson diagonalization with overlap
     ethr =  1.76E-08,  avg # of iterations =  4.0

     negative rho (up, down):  4.801E-03 0.000E+00

     total cpu time spent up to now is     3363.6 secs

     total energy              =  -27385.05642516 Ry
     estimated scf accuracy    <       0.00015596 Ry

     iteration # 16     ecut=    71.00 Ry     beta= 0.20
     Davidson diagonalization with overlap
     ethr =  1.17E-08,  avg # of iterations =  5.8

     negative rho (up, down):  4.874E-03 0.000E+00

     total cpu time spent up to now is     3398.0 secs

     total energy              =  -27385.05644734 Ry
     estimated scf accuracy    <       0.00006064 Ry

     iteration # 17     ecut=    71.00 Ry     beta= 0.20
     Davidson diagonalization with overlap
     ethr =  4.56E-09,  avg # of iterations =  5.8

     negative rho (up, down):  5.021E-03 0.000E+00

     total cpu time spent up to now is     3434.0 secs

     total energy              =  -27385.05645901 Ry
     estimated scf accuracy    <       0.00003540 Ry

     iteration # 18     ecut=    71.00 Ry     beta= 0.20
     Davidson diagonalization with overlap
     ethr =  2.66E-09,  avg # of iterations =  8.8

     negative rho (up, down):  5.240E-03 0.000E+00

     total cpu time spent up to now is     3471.3 secs

     total energy              =  -27385.05647430 Ry
     estimated scf accuracy    <       0.00004655 Ry

     iteration # 19     ecut=    71.00 Ry     beta= 0.20
     Davidson diagonalization with overlap
     ethr =  2.66E-09,  avg # of iterations =  4.0

     negative rho (up, down):  5.270E-03 0.000E+00

     total cpu time spent up to now is     3505.0 secs

     total energy              =  -27385.05648578 Ry
     estimated scf accuracy    <       0.00003921 Ry

     iteration # 20     ecut=    71.00 Ry     beta= 0.20
     Davidson diagonalization with overlap
     ethr =  2.66E-09,  avg # of iterations =  5.0

     negative rho (up, down):  5.145E-03 0.000E+00

     total cpu time spent up to now is     3539.3 secs

     total energy              =  -27385.05646455 Ry
     estimated scf accuracy    <       0.00004275 Ry

     iteration # 21     ecut=    71.00 Ry     beta= 0.20
     Davidson diagonalization with overlap
     ethr =  2.66E-09,  avg # of iterations =  2.0

     negative rho (up, down):  5.073E-03 0.000E+00

     total cpu time spent up to now is     3572.6 secs

     total energy              =  -27385.05646417 Ry
     estimated scf accuracy    <       0.00003154 Ry

     iteration # 22     ecut=    71.00 Ry     beta= 0.20
     Davidson diagonalization with overlap
     ethr =  2.37E-09,  avg # of iterations =  6.0

     negative rho (up, down):  5.034E-03 0.000E+00

     total cpu time spent up to now is     3606.9 secs

     total energy              =  -27385.05648331 Ry
     estimated scf accuracy    <       0.00001202 Ry

     iteration # 23     ecut=    71.00 Ry     beta= 0.20
     Davidson diagonalization with overlap
     ethr =  9.05E-10,  avg # of iterations =  5.5

     negative rho (up, down):  5.060E-03 0.000E+00

     total cpu time spent up to now is     3645.3 secs

     total energy              =  -27385.05648898 Ry
     estimated scf accuracy    <       0.00000879 Ry

     iteration # 24     ecut=    71.00 Ry     beta= 0.20
     Davidson diagonalization with overlap
     ethr =  6.61E-10,  avg # of iterations =  2.0

     negative rho (up, down):  5.033E-03 0.000E+00

     total cpu time spent up to now is     3678.7 secs

     total energy              =  -27385.05648583 Ry
     estimated scf accuracy    <       0.00000695 Ry

     iteration # 25     ecut=    71.00 Ry     beta= 0.20
     Davidson diagonalization with overlap
     ethr =  5.23E-10,  avg # of iterations =  2.0

     negative rho (up, down):  4.983E-03 0.000E+00

     total cpu time spent up to now is     3712.6 secs

     total energy              =  -27385.05648899 Ry
     estimated scf accuracy    <       0.00000547 Ry

     iteration # 26     ecut=    71.00 Ry     beta= 0.20
     Davidson diagonalization with overlap
     ethr =  4.12E-10,  avg # of iterations = 10.8

     negative rho (up, down):  5.024E-03 0.000E+00

     total cpu time spent up to now is     3753.0 secs

     total energy              =  -27385.05648706 Ry
     estimated scf accuracy    <       0.00001044 Ry

     iteration # 27     ecut=    71.00 Ry     beta= 0.20
     Davidson diagonalization with overlap
     ethr =  4.12E-10,  avg # of iterations =  7.0

     negative rho (up, down):  4.931E-03 0.000E+00

     total cpu time spent up to now is     3791.0 secs

     total energy              =  -27385.05648770 Ry
     estimated scf accuracy    <       0.00000322 Ry

     iteration # 28     ecut=    71.00 Ry     beta= 0.20
     Davidson diagonalization with overlap
     ethr =  2.42E-10,  avg # of iterations =  6.0

     negative rho (up, down):  4.872E-03 0.000E+00

     total cpu time spent up to now is     3826.8 secs

     total energy              =  -27385.05648647 Ry
     estimated scf accuracy    <       0.00000253 Ry

     iteration # 29     ecut=    71.00 Ry     beta= 0.20
     Davidson diagonalization with overlap
     ethr =  1.90E-10,  avg # of iterations =  6.0

     negative rho (up, down):  4.848E-03 0.000E+00

     total cpu time spent up to now is     3862.6 secs

     total energy              =  -27385.05648899 Ry
     estimated scf accuracy    <       0.00000146 Ry

     iteration # 30     ecut=    71.00 Ry     beta= 0.20
     Davidson diagonalization with overlap
     ethr =  1.09E-10,  avg # of iterations =  2.0

     negative rho (up, down):  4.853E-03 0.000E+00

     total cpu time spent up to now is     3897.9 secs

     total energy              =  -27385.05648919 Ry
     estimated scf accuracy    <       0.00000106 Ry

     iteration # 31     ecut=    71.00 Ry     beta= 0.20
     Davidson diagonalization with overlap
     ethr =  8.01E-11,  avg # of iterations =  5.3

     negative rho (up, down):  4.860E-03 0.000E+00

     total cpu time spent up to now is     3934.0 secs

     total energy              =  -27385.05648931 Ry
     estimated scf accuracy    <       0.00000055 Ry

     iteration # 32     ecut=    71.00 Ry     beta= 0.20
     Davidson diagonalization with overlap
     ethr =  4.11E-11,  avg # of iterations =  6.0

     negative rho (up, down):  4.863E-03 0.000E+00

     total cpu time spent up to now is     3971.9 secs

     total energy              =  -27385.05648955 Ry
     estimated scf accuracy    <       0.00000055 Ry

     iteration # 33     ecut=    71.00 Ry     beta= 0.20
     Davidson diagonalization with overlap
     ethr =  4.11E-11,  avg # of iterations =  4.8

     negative rho (up, down):  4.883E-03 0.000E+00

     total cpu time spent up to now is     4006.6 secs

     total energy              =  -27385.05648946 Ry
     estimated scf accuracy    <       0.00000031 Ry

     iteration # 34     ecut=    71.00 Ry     beta= 0.20
     Davidson diagonalization with overlap
     ethr =  2.30E-11,  avg # of iterations =  6.3

     negative rho (up, down):  4.861E-03 0.000E+00

     total cpu time spent up to now is     4046.4 secs

     total energy              =  -27385.05648944 Ry
     estimated scf accuracy    <       0.00000052 Ry

     iteration # 35     ecut=    71.00 Ry     beta= 0.20
     Davidson diagonalization with overlap
     ethr =  2.30E-11,  avg # of iterations =  5.3

     negative rho (up, down):  4.868E-03 0.000E+00

     total cpu time spent up to now is     4085.9 secs

     total energy              =  -27385.05648944 Ry
     estimated scf accuracy    <       0.00000017 Ry

     iteration # 36     ecut=    71.00 Ry     beta= 0.20
     Davidson diagonalization with overlap
     ethr =  1.30E-11,  avg # of iterations =  2.0

     negative rho (up, down):  4.867E-03 0.000E+00

     total cpu time spent up to now is     4119.0 secs

     total energy              =  -27385.05648954 Ry
     estimated scf accuracy    <       0.00000014 Ry

     iteration # 37     ecut=    71.00 Ry     beta= 0.20
     Davidson diagonalization with overlap
     ethr =  1.06E-11,  avg # of iterations =  2.0

     negative rho (up, down):  4.885E-03 0.000E+00

     total cpu time spent up to now is     4153.4 secs

     total energy              =  -27385.05648953 Ry
     estimated scf accuracy    <       0.00000009 Ry

     iteration # 38     ecut=    71.00 Ry     beta= 0.20
     Davidson diagonalization with overlap
     ethr =  6.95E-12,  avg # of iterations =  2.0

     negative rho (up, down):  4.893E-03 0.000E+00

     total cpu time spent up to now is     4186.6 secs

     total energy              =  -27385.05648952 Ry
     estimated scf accuracy    <       0.00000007 Ry

     iteration # 39     ecut=    71.00 Ry     beta= 0.20
     Davidson diagonalization with overlap
     ethr =  5.07E-12,  avg # of iterations =  5.0

     negative rho (up, down):  4.890E-03 0.000E+00

     total cpu time spent up to now is     4220.9 secs

     total energy              =  -27385.05648953 Ry
     estimated scf accuracy    <       0.00000005 Ry

     iteration # 40     ecut=    71.00 Ry     beta= 0.20
     Davidson diagonalization with overlap
     ethr =  3.39E-12,  avg # of iterations =  2.0

     negative rho (up, down):  4.901E-03 0.000E+00

     total cpu time spent up to now is     4254.1 secs

     total energy              =  -27385.05648956 Ry
     estimated scf accuracy    <       0.00000004 Ry

     iteration # 41     ecut=    71.00 Ry     beta= 0.20
     Davidson diagonalization with overlap
     ethr =  2.86E-12,  avg # of iterations =  5.0

     negative rho (up, down):  4.902E-03 0.000E+00

     total cpu time spent up to now is     4289.5 secs

     total energy              =  -27385.05648957 Ry
     estimated scf accuracy    <       0.00000003 Ry

     iteration # 42     ecut=    71.00 Ry     beta= 0.20
     Davidson diagonalization with overlap
     ethr =  2.50E-12,  avg # of iterations =  2.0

     negative rho (up, down):  4.911E-03 0.000E+00

     total cpu time spent up to now is     4322.5 secs

     total energy              =  -27385.05648953 Ry
     estimated scf accuracy    <       0.00000003 Ry

     iteration # 43     ecut=    71.00 Ry     beta= 0.20
     Davidson diagonalization with overlap
     ethr =  2.05E-12,  avg # of iterations =  7.3

     negative rho (up, down):  4.933E-03 0.000E+00

     total cpu time spent up to now is     4358.1 secs

     total energy              =  -27385.05648953 Ry
     estimated scf accuracy    <       0.00000002 Ry

     iteration # 44     ecut=    71.00 Ry     beta= 0.20
     Davidson diagonalization with overlap
     ethr =  1.70E-12,  avg # of iterations =  7.8

     negative rho (up, down):  4.936E-03 0.000E+00

     total cpu time spent up to now is     4393.8 secs

     total energy              =  -27385.05648954 Ry
     estimated scf accuracy    <       0.00000001 Ry

     iteration # 45     ecut=    71.00 Ry     beta= 0.20
     Davidson diagonalization with overlap
     ethr =  9.41E-13,  avg # of iterations =  2.8

     negative rho (up, down):  4.939E-03 0.000E+00

     total cpu time spent up to now is     4427.4 secs

     total energy              =  -27385.05648953 Ry
     estimated scf accuracy    <       0.00000001 Ry

     iteration # 46     ecut=    71.00 Ry     beta= 0.20
     Davidson diagonalization with overlap
     ethr =  8.02E-13,  avg # of iterations =  4.3

     negative rho (up, down):  4.955E-03 0.000E+00

     total cpu time spent up to now is     4461.8 secs

     total energy              =  -27385.05648953 Ry
     estimated scf accuracy    <          9.1E-09 Ry

     iteration # 47     ecut=    71.00 Ry     beta= 0.20
     Davidson diagonalization with overlap
     ethr =  6.81E-13,  avg # of iterations =  6.8

     negative rho (up, down):  4.958E-03 0.000E+00

     total cpu time spent up to now is     4501.9 secs

     total energy              =  -27385.05648951 Ry
     estimated scf accuracy    <       0.00000001 Ry

     iteration # 48     ecut=    71.00 Ry     beta= 0.20
     Davidson diagonalization with overlap
     ethr =  6.81E-13,  avg # of iterations =  5.3

     negative rho (up, down):  4.960E-03 0.000E+00

     total cpu time spent up to now is     4536.7 secs

     total energy              =  -27385.05648950 Ry
     estimated scf accuracy    <          6.5E-09 Ry

     iteration # 49     ecut=    71.00 Ry     beta= 0.20
     Davidson diagonalization with overlap
     ethr =  4.89E-13,  avg # of iterations =  6.0

     negative rho (up, down):  4.962E-03 0.000E+00

     total cpu time spent up to now is     4572.3 secs

     total energy              =  -27385.05648953 Ry
     estimated scf accuracy    <          5.6E-09 Ry

     iteration # 50     ecut=    71.00 Ry     beta= 0.20
     Davidson diagonalization with overlap
     ethr =  4.19E-13,  avg # of iterations =  2.0

     negative rho (up, down):  4.972E-03 0.000E+00

     total cpu time spent up to now is     4605.4 secs

     total energy              =  -27385.05648955 Ry
     estimated scf accuracy    <          4.9E-09 Ry

     iteration # 51     ecut=    71.00 Ry     beta= 0.20
     Davidson diagonalization with overlap
     ethr =  3.69E-13,  avg # of iterations =  7.0

     negative rho (up, down):  4.988E-03 0.000E+00

     total cpu time spent up to now is     4642.8 secs

     total energy              =  -27385.05648953 Ry
     estimated scf accuracy    <          5.1E-09 Ry

     iteration # 52     ecut=    71.00 Ry     beta= 0.20
     Davidson diagonalization with overlap
     ethr =  3.69E-13,  avg # of iterations =  2.0

     negative rho (up, down):  5.002E-03 0.000E+00

     total cpu time spent up to now is     4676.0 secs

     total energy              =  -27385.05648954 Ry
     estimated scf accuracy    <          2.2E-09 Ry

     iteration # 53     ecut=    71.00 Ry     beta= 0.20
     Davidson diagonalization with overlap
     ethr =  1.62E-13,  avg # of iterations =  8.0

     negative rho (up, down):  5.002E-03 0.000E+00

     total cpu time spent up to now is     4712.1 secs

     total energy              =  -27385.05648955 Ry
     estimated scf accuracy    <          1.9E-09 Ry

     iteration # 54     ecut=    71.00 Ry     beta= 0.20
     Davidson diagonalization with overlap
     ethr =  1.46E-13,  avg # of iterations =  4.8

     negative rho (up, down):  5.014E-03 0.000E+00

     total cpu time spent up to now is     4746.5 secs

     End of self-consistent calculation

          k = 0.0000 0.0000 0.0000 (327585 PWs)   bands (ev):

   -74.2819 -38.5200 -38.3919 -38.1480 -18.1823 -18.1823 -18.0667 -18.0667
   -18.0383 -18.0383 -17.9902 -17.9902 -17.8385 -17.8385 -17.8011 -17.7739
   -17.7739 -17.7465 -17.7465 -17.6892 -17.6892 -17.6886 -17.6886 -17.6632
   -17.6632 -17.6004 -17.6004 -17.5921 -17.5921 -17.4333 -17.4225 -17.3705
   -17.3379 -17.2325 -17.1564 -17.1258 -17.1008 -17.0458 -17.0198 -17.0129
   -16.9789 -16.9778 -16.9550 -16.9549 -16.9136 -16.9111 -16.9045 -16.9017
   -16.8946 -16.8513 -16.8337 -16.8229 -16.8126 -16.8110 -16.7829 -16.7752
   -16.7632 -16.7541 -16.7444 -16.7392 -16.7219 -16.6663 -16.6636 -16.6600
   -16.6517 -16.6345 -16.6290 -16.6215 -16.6158 -16.6077 -16.5938 -16.5934
   -16.5820 -16.5770 -16.5648 -16.5595 -16.5585 -16.5498 -16.5391 -16.5287
   -16.5131 -16.4951 -16.4865 -16.4786 -16.4476 -16.4463 -16.4418 -16.4414
   -16.4168 -16.4098 -16.3913 -16.3895 -16.3807 -16.3792 -16.3782 -16.3498
   -16.3128 -16.3124 -16.2501 -16.2446 -12.6019 -12.5991 -12.5810 -12.5729
   -12.5723 -12.5650 -12.5608 -12.5479 -12.5477 -12.5408 -12.5393 -12.5304
   -12.5254 -12.5245 -12.5215 -12.5185 -12.5141 -12.5066 -12.5035 -12.5009
   -12.4923 -12.4895 -12.4833 -12.4726 -12.4716 -12.4652 -12.4642 -12.4598
   -12.4579 -12.4540 -12.4515 -12.4409 -12.4349 -12.4328 -12.4286 -12.4275
   -12.4190 -12.4170 -12.4093 -12.4084 -12.4016 -12.3968 -12.3968 -12.3914
   -12.3855 -12.3835 -12.3828 -12.3798 -12.3683 -12.3666 -12.3638 -12.3601
   -12.3601 -12.3533 -12.3516 -12.3468 -12.3443 -12.3358 -12.3348 -12.3326
   -12.3281 -12.3227 -12.3193 -12.3174 -12.3147 -12.3091 -12.3067 -12.3055
   -12.3052 -12.3004 -12.2994 -12.2971 -12.2943 -12.2935 -12.2931 -12.2916
   -12.2899 -12.2862 -12.2828 -12.2798 -12.2779 -12.2757 -12.2739 -12.2738
   -12.2720 -12.2679 -12.2647 -12.2633 -12.2618 -12.2615 -12.2571 -12.2571
   -12.2493 -12.2482 -12.2472 -12.2469 -12.2413 -12.2408 -12.2386 -12.2355
   -12.2330 -12.2319 -12.2292 -12.2270 -12.2226 -12.2209 -12.2174 -12.2165
   -12.2144 -12.2132 -12.2104 -12.2040 -12.2026 -12.1987 -12.1984 -12.1980
   -12.1973 -12.1962 -12.1937 -12.1931 -12.1905 -12.1880 -12.1859 -12.1844
   -12.1810 -12.1799 -12.1762 -12.1759 -12.1747 -12.1707 -12.1654 -12.1649
   -12.1635 -12.1632 -12.1599 -12.1570 -12.1534 -12.1503 -12.1443 -12.1424
   -12.1412 -12.1393 -12.1386 -12.1363 -12.1337 -12.1291 -12.1280 -12.1264
   -12.1224 -12.1223 -12.1209 -12.1181 -12.1170 -12.1123 -12.1107 -12.1095
   -12.1086 -12.1070 -12.1030 -12.1026 -12.1013 -12.0997 -12.0970 -12.0956
   -12.0951 -12.0925 -12.0865 -12.0806 -12.0783 -12.0766 -12.0757 -12.0750
   -12.0744 -12.0741 -12.0656 -12.0651 -12.0616 -12.0592 -12.0589 -12.0543
   -12.0539 -12.0538 -12.0477 -12.0463 -12.0415 -12.0408 -12.0370 -12.0363
   -12.0318 -12.0297 -12.0269 -12.0250 -12.0222 -12.0190 -12.0190 -12.0161
   -12.0148 -12.0130 -12.0124 -12.0095 -12.0069 -12.0019 -12.0009 -11.9960
   -11.9932 -11.9928 -11.9908 -11.9888 -11.9843 -11.9812 -11.9765 -11.9678
   -11.9669 -11.9661 -11.9584 -11.9554 -11.9533 -11.9517 -11.9513 -11.9504
   -11.9413 -11.9396 -11.9387 -11.9361 -11.9257 -11.9224 -11.9134 -11.9108
   -11.9024 -11.8999 -11.8994 -11.8890 -11.8747 -11.8717 -11.8623 -11.8512
   -11.8314 -11.8114 -11.7603 -11.7457 -11.7308 -11.7203 -11.7011 -11.6937
   -11.6564 -11.6485 -11.6295 -11.6152 -11.5907 -11.5811 -11.5713 -11.5473
   -11.5298 -11.4916 -11.4899 -11.4719 -11.4573 -11.4365 -11.4231 -11.4163
   -11.3992 -11.3978 -11.3685 -11.3564 -11.3335 -11.3066 -11.3058 -11.2989
   -11.2971 -11.1977 -11.1756 -11.1559 -11.1457 -11.1312 -11.1153  -5.7706
    -5.7703  -5.6031  -5.6006  -5.5934  -5.5890  -5.5886  -5.5802  -5.4576
    -5.4470  -5.4291  -5.3851  -5.3816  -5.3718  -5.3096  -5.3088  -5.3031
    -5.2876  -5.2343  -5.1920  -5.1907  -5.1517  -5.1263  -5.0611  -4.9835
    -4.9343  -4.9065  -4.8866  -4.8650  -4.8645  -4.7799  -4.7455  -4.7027
    -4.7002  -4.6827  -4.6416  -4.6411  -4.6312  -4.5870  -4.5743  -4.5731
    -4.5419  -4.5267  -4.5041  -4.4976  -4.4331  -4.4068  -4.3775  -4.3630
    -4.3495  -4.3030  -4.2874  -4.2341  -4.1924  -4.1780  -4.1244  -4.0934
    -4.0921  -4.0633  -4.0311  -4.0186  -3.9717  -3.8948  -3.8850  -3.8575
    -3.8314  -3.7897  -3.7681  -3.7281  -3.6816  -3.6661  -3.6556  -3.6272
    -3.6230  -3.6105  -3.5933  -3.5644  -3.5457  -3.5331  -3.4987  -3.4913
    -3.4482  -3.4372  -3.3959  -3.3712  -3.3424  -3.3265  -3.3134  -3.2786
    -3.2569  -3.2111  -3.1705  -3.1609  -3.0864  -3.0854  -3.0504  -3.0445
    -3.0277  -3.0229  -3.0061  -2.9743  -2.9358  -2.9120  -2.8701  -2.8651
    -2.8201  -2.8048  -2.7908  -2.7803  -2.7312  -2.7129  -2.6807  -2.6681
    -2.6404  -2.6178  -2.6004  -2.5692  -2.5523  -2.5274  -2.5190  -2.5098
    -2.4772  -2.4736  -2.4175  -2.3957  -2.3834  -2.3738  -2.3509  -2.3342
    -2.2824  -2.2690  -2.2643  -2.2083  -2.1858  -2.1487  -2.1431  -2.1215
    -2.0870  -2.0693  -2.0512  -2.0476  -2.0393  -2.0291  -1.9993  -1.9787
    -1.9535  -1.9242  -1.9192  -1.9154  -1.8942  -1.8764  -1.8700  -1.8329
    -1.8283  -1.8206  -1.8160  -1.7920  -1.7683  -1.7592  -1.7524  -1.7412
    -1.7310  -1.7295  -1.7235  -1.7145  -1.6987  -1.6836  -1.6756  -1.6639
    -1.6431  -1.6412  -1.6101  -1.5902  -1.5855  -1.5745  -1.5714  -1.5524
    -1.5334  -1.5305  -1.5211  -1.4958  -1.4706  -1.4559  -1.4405  -1.4374
    -1.3937  -1.3857  -1.3808  -1.3506  -1.3407  -1.3373  -1.3003  -1.2933
    -1.2874  -1.2711  -1.2409  -1.2335  -1.1971  -1.1930  -1.1703  -1.1603
    -1.1495  -1.1072  -1.0585  -1.0336  -1.0120  -1.0056  -1.0055  -0.9986
    -0.9818  -0.9750  -0.9410  -0.9028  -0.8989  -0.8897  -0.8783  -0.8473
    -0.8410  -0.8332  -0.8204  -0.8149  -0.8001  -0.7927  -0.7795  -0.7375
    -0.7181  -0.7086  -0.6654  -0.6467  -0.6339  -0.6168  -0.6136  -0.6026
    -0.5747  -0.5638  -0.5534  -0.5300  -0.5265  -0.5262  -0.5057  -0.4841
    -0.4790  -0.4649  -0.4513  -0.4499  -0.4489  -0.4425  -0.4302  -0.4244
    -0.4135  -0.4003  -0.3977  -0.3849  -0.3819  -0.3631  -0.3630  -0.3517
    -0.3475  -0.3357  -0.3347  -0.3323  -0.3179  -0.3087  -0.3083  -0.2895
    -0.2743  -0.2675  -0.2614  -0.2482  -0.2413  -0.2113  -0.2063  -0.1870
    -0.1854  -0.1780  -0.1745  -0.1738  -0.1651  -0.1642  -0.1290  -0.1223
    -0.1083  -0.0791  -0.0731   0.0055   0.0099   0.0150   0.0192   1.1717
     1.9204   1.9674   2.0244   2.3449   2.7597   3.5296   3.7647   3.8343
     3.8684   3.9312   4.1425   4.2133   4.2731

          k = 0.0000 0.3336 0.0000 (327620 PWs)   bands (ev):

   -74.2819 -38.5200 -38.3919 -38.1480 -18.1544 -18.1544 -18.0860 -18.0860
   -18.0509 -18.0509 -18.0134 -18.0134 -17.8027 -17.8027 -17.7883 -17.7616
   -17.7616 -17.7506 -17.7506 -17.7068 -17.7067 -17.6788 -17.6788 -17.6662
   -17.6662 -17.6023 -17.6023 -17.5975 -17.5975 -17.4632 -17.4178 -17.3727
   -17.3005 -17.2382 -17.1908 -17.1511 -17.0794 -17.0748 -17.0465 -17.0295
   -16.9932 -16.9843 -16.9518 -16.9383 -16.9186 -16.9119 -16.8924 -16.8748
   -16.8737 -16.8361 -16.8253 -16.8147 -16.8024 -16.7977 -16.7862 -16.7575
   -16.7512 -16.7467 -16.7307 -16.7260 -16.7132 -16.6734 -16.6702 -16.6529
   -16.6431 -16.6429 -16.6344 -16.6254 -16.6080 -16.6055 -16.5976 -16.5953
   -16.5850 -16.5752 -16.5724 -16.5703 -16.5543 -16.5483 -16.5335 -16.5304
   -16.5029 -16.4970 -16.4919 -16.4772 -16.4755 -16.4683 -16.4546 -16.4524
   -16.4065 -16.3997 -16.3955 -16.3944 -16.3884 -16.3848 -16.3827 -16.3590
   -16.2901 -16.2895 -16.2604 -16.2569 -12.5954 -12.5871 -12.5778 -12.5729
   -12.5665 -12.5645 -12.5600 -12.5538 -12.5466 -12.5392 -12.5378 -12.5371
   -12.5243 -12.5239 -12.5189 -12.5166 -12.5091 -12.5064 -12.5028 -12.4995
   -12.4863 -12.4836 -12.4784 -12.4741 -12.4738 -12.4667 -12.4632 -12.4603
   -12.4575 -12.4535 -12.4478 -12.4426 -12.4415 -12.4355 -12.4324 -12.4238
   -12.4196 -12.4175 -12.4103 -12.4097 -12.4075 -12.4025 -12.3980 -12.3950
   -12.3927 -12.3918 -12.3858 -12.3835 -12.3736 -12.3689 -12.3682 -12.3645
   -12.3594 -12.3593 -12.3512 -12.3473 -12.3464 -12.3411 -12.3369 -12.3331
   -12.3309 -12.3229 -12.3208 -12.3185 -12.3149 -12.3107 -12.3086 -12.3084
   -12.3048 -12.3012 -12.2997 -12.2954 -12.2940 -12.2926 -12.2887 -12.2884
   -12.2850 -12.2843 -12.2822 -12.2757 -12.2756 -12.2743 -12.2714 -12.2695
   -12.2687 -12.2619 -12.2605 -12.2587 -12.2569 -12.2551 -12.2545 -12.2505
   -12.2503 -12.2461 -12.2451 -12.2416 -12.2366 -12.2361 -12.2321 -12.2312
   -12.2280 -12.2260 -12.2243 -12.2226 -12.2189 -12.2175 -12.2164 -12.2128
   -12.2126 -12.2105 -12.2071 -12.2065 -12.2045 -12.2012 -12.1983 -12.1981
   -12.1935 -12.1934 -12.1913 -12.1912 -12.1876 -12.1853 -12.1852 -12.1839
   -12.1838 -12.1786 -12.1782 -12.1740 -12.1733 -12.1722 -12.1719 -12.1679
   -12.1679 -12.1644 -12.1638 -12.1617 -12.1591 -12.1565 -12.1519 -12.1504
   -12.1484 -12.1467 -12.1453 -12.1399 -12.1386 -12.1355 -12.1341 -12.1307
   -12.1279 -12.1253 -12.1213 -12.1202 -12.1184 -12.1168 -12.1160 -12.1155
   -12.1128 -12.1094 -12.1061 -12.1043 -12.1035 -12.0994 -12.0968 -12.0957
   -12.0944 -12.0921 -12.0896 -12.0883 -12.0831 -12.0829 -12.0805 -12.0777
   -12.0746 -12.0740 -12.0727 -12.0716 -12.0680 -12.0618 -12.0579 -12.0553
   -12.0519 -12.0484 -12.0475 -12.0456 -12.0438 -12.0398 -12.0384 -12.0331
   -12.0320 -12.0295 -12.0250 -12.0229 -12.0198 -12.0185 -12.0110 -12.0107
   -12.0089 -12.0075 -12.0019 -12.0012 -12.0003 -11.9998 -11.9955 -11.9955
   -11.9920 -11.9892 -11.9831 -11.9830 -11.9794 -11.9785 -11.9754 -11.9750
   -11.9731 -11.9710 -11.9663 -11.9628 -11.9612 -11.9583 -11.9563 -11.9547
   -11.9500 -11.9468 -11.9439 -11.9384 -11.9307 -11.9303 -11.9212 -11.9207
   -11.9064 -11.8921 -11.8827 -11.8721 -11.8672 -11.8546 -11.8360 -11.8269
   -11.8215 -11.7967 -11.7858 -11.7603 -11.7599 -11.7336 -11.7226 -11.6871
   -11.6694 -11.6411 -11.6311 -11.5782 -11.5755 -11.5563 -11.5357 -11.5135
   -11.5073 -11.4947 -11.4855 -11.4694 -11.4583 -11.4509 -11.4403 -11.4261
   -11.4009 -11.4004 -11.3897 -11.3729 -11.3436 -11.3308 -11.3007 -11.2439
   -11.2386 -11.2001 -11.1852 -11.1847 -11.1672 -11.1555 -11.1398  -5.7457
    -5.7451  -5.6779  -5.6749  -5.5960  -5.5959  -5.5869  -5.5845  -5.4465
    -5.4330  -5.4177  -5.4045  -5.4043  -5.3135  -5.2437  -5.2417  -5.2368
    -5.2343  -5.1787  -5.1447  -5.1235  -5.0826  -5.0558  -5.0310  -4.9875
    -4.9802  -4.9361  -4.9002  -4.8638  -4.8245  -4.8007  -4.7975  -4.7910
    -4.7805  -4.7217  -4.7022  -4.6769  -4.6554  -4.6388  -4.6269  -4.6086
    -4.5634  -4.5336  -4.5103  -4.4990  -4.4744  -4.4155  -4.4142  -4.3968
    -4.3662  -4.3591  -4.3237  -4.2884  -4.2590  -4.2273  -4.2242  -4.2106
    -4.2013  -4.0459  -4.0324  -3.9920  -3.9340  -3.9147  -3.8549  -3.8330
    -3.7762  -3.7641  -3.7490  -3.7245  -3.6983  -3.6752  -3.6522  -3.6469
    -3.6146  -3.5817  -3.5656  -3.5437  -3.5231  -3.5220  -3.4335  -3.4186
    -3.3965  -3.3714  -3.3210  -3.3206  -3.2699  -3.2650  -3.2345  -3.2124
    -3.1529  -3.1413  -3.1397  -3.1098  -3.0815  -3.0560  -3.0539  -3.0271
    -2.9968  -2.9577  -2.9418  -2.9350  -2.9136  -2.8746  -2.8663  -2.8553
    -2.8177  -2.8157  -2.7636  -2.7494  -2.7167  -2.6889  -2.6748  -2.6468
    -2.6262  -2.6010  -2.5903  -2.5592  -2.5355  -2.5203  -2.5062  -2.4715
    -2.4642  -2.4544  -2.4167  -2.3792  -2.3664  -2.3367  -2.3237  -2.3113
    -2.3024  -2.2893  -2.2788  -2.2559  -2.2350  -2.2205  -2.2175  -2.1843
    -2.1822  -2.1422  -2.1419  -2.1247  -2.1215  -2.0701  -2.0603  -2.0531
    -2.0227  -2.0216  -2.0056  -2.0055  -1.9645  -1.9498  -1.9308  -1.8975
    -1.8841  -1.8615  -1.8578  -1.8354  -1.8309  -1.7967  -1.7917  -1.7503
    -1.7462  -1.7322  -1.7041  -1.6967  -1.6717  -1.6713  -1.6494  -1.6326
    -1.6242  -1.6145  -1.5820  -1.5770  -1.5527  -1.5518  -1.5230  -1.4939
    -1.4683  -1.4481  -1.4358  -1.4205  -1.4182  -1.4098  -1.3954  -1.3914
    -1.3608  -1.3538  -1.3507  -1.3118  -1.3084  -1.2865  -1.2848  -1.2685
    -1.2570  -1.2344  -1.2289  -1.1854  -1.1834  -1.1606  -1.1390  -1.1304
    -1.1033  -1.0965  -1.0716  -1.0490  -1.0404  -1.0234  -0.9921  -0.9829
    -0.9621  -0.9531  -0.9361  -0.9360  -0.9060  -0.8872  -0.8795  -0.8711
    -0.8445  -0.8402  -0.8289  -0.8242  -0.7955  -0.7952  -0.7698  -0.7666
    -0.7435  -0.7317  -0.7171  -0.7167  -0.6888  -0.6827  -0.6533  -0.6526
    -0.6299  -0.6220  -0.5971  -0.5797  -0.5663  -0.5623  -0.5498  -0.5288
    -0.5285  -0.4945  -0.4924  -0.4854  -0.4831  -0.4669  -0.4526  -0.4235
    -0.4126  -0.4086  -0.3977  -0.3962  -0.3826  -0.3806  -0.3654  -0.3634
    -0.3469  -0.3429  -0.3374  -0.3222  -0.3220  -0.3013  -0.2913  -0.2831
    -0.2760  -0.2644  -0.2514  -0.2511  -0.2428  -0.2382  -0.2281  -0.2227
    -0.2125  -0.1932  -0.1896  -0.1336  -0.1212  -0.1112  -0.0961  -0.0912
    -0.0796  -0.0700  -0.0571  -0.0269  -0.0208  -0.0144  -0.0103   1.7190
     1.9758   2.0443   2.2706   2.4334   2.8129   3.0827   3.2884   3.7764
     3.8053   4.0214   4.0672   4.2033   4.3138

          k = 0.3333 0.0000 0.0000 (327628 PWs)   bands (ev):

   -74.2819 -38.5200 -38.3919 -38.1480 -18.1586 -18.1586 -18.1026 -18.1025
   -18.0271 -18.0271 -18.0023 -18.0023 -17.8214 -17.8214 -17.7907 -17.7906
   -17.7880 -17.7242 -17.7242 -17.6871 -17.6871 -17.6806 -17.6806 -17.6762
   -17.6762 -17.6022 -17.6022 -17.5976 -17.5976 -17.4430 -17.4254 -17.4091
   -17.2753 -17.2335 -17.1874 -17.1481 -17.1023 -17.0613 -17.0425 -17.0223
   -16.9779 -16.9673 -16.9507 -16.9419 -16.9293 -16.9234 -16.9030 -16.8958
   -16.8735 -16.8575 -16.8306 -16.8168 -16.8138 -16.8031 -16.7837 -16.7733
   -16.7536 -16.7445 -16.7247 -16.7071 -16.7054 -16.6727 -16.6555 -16.6492
   -16.6473 -16.6330 -16.6262 -16.6206 -16.6184 -16.6077 -16.5982 -16.5954
   -16.5831 -16.5761 -16.5701 -16.5540 -16.5453 -16.5400 -16.5365 -16.5217
   -16.5114 -16.5014 -16.4934 -16.4807 -16.4533 -16.4500 -16.4483 -16.4387
   -16.4312 -16.4295 -16.4138 -16.4053 -16.3907 -16.3873 -16.3785 -16.3608
   -16.2880 -16.2868 -16.2575 -16.2537 -12.5956 -12.5897 -12.5828 -12.5749
   -12.5688 -12.5628 -12.5535 -12.5487 -12.5457 -12.5454 -12.5391 -12.5327
   -12.5249 -12.5190 -12.5180 -12.5164 -12.5127 -12.5054 -12.4998 -12.4970
   -12.4903 -12.4881 -12.4821 -12.4756 -12.4682 -12.4631 -12.4619 -12.4611
   -12.4545 -12.4536 -12.4459 -12.4442 -12.4404 -12.4342 -12.4309 -12.4286
   -12.4251 -12.4159 -12.4148 -12.4094 -12.4090 -12.4072 -12.4009 -12.3975
   -12.3913 -12.3883 -12.3854 -12.3826 -12.3779 -12.3733 -12.3686 -12.3656
   -12.3606 -12.3510 -12.3500 -12.3479 -12.3459 -12.3424 -12.3393 -12.3358
   -12.3300 -12.3275 -12.3233 -12.3181 -12.3142 -12.3105 -12.3073 -12.3029
   -12.3016 -12.2998 -12.2960 -12.2943 -12.2907 -12.2895 -12.2882 -12.2861
   -12.2841 -12.2812 -12.2792 -12.2750 -12.2720 -12.2702 -12.2678 -12.2667
   -12.2649 -12.2629 -12.2605 -12.2596 -12.2587 -12.2569 -12.2552 -12.2537
   -12.2517 -12.2480 -12.2466 -12.2442 -12.2402 -12.2375 -12.2365 -12.2327
   -12.2323 -12.2310 -12.2272 -12.2267 -12.2236 -12.2214 -12.2188 -12.2177
   -12.2147 -12.2138 -12.2088 -12.2084 -12.2050 -12.2033 -12.2030 -12.1989
   -12.1983 -12.1946 -12.1938 -12.1908 -12.1901 -12.1886 -12.1867 -12.1848
   -12.1832 -12.1805 -12.1767 -12.1753 -12.1722 -12.1711 -12.1693 -12.1660
   -12.1648 -12.1618 -12.1604 -12.1580 -12.1554 -12.1520 -12.1503 -12.1467
   -12.1452 -12.1425 -12.1400 -12.1370 -12.1356 -12.1341 -12.1296 -12.1289
   -12.1259 -12.1239 -12.1187 -12.1167 -12.1152 -12.1144 -12.1139 -12.1126
   -12.1112 -12.1083 -12.1055 -12.1044 -12.1023 -12.0984 -12.0969 -12.0956
   -12.0924 -12.0898 -12.0885 -12.0869 -12.0862 -12.0827 -12.0809 -12.0774
   -12.0734 -12.0715 -12.0700 -12.0677 -12.0651 -12.0612 -12.0586 -12.0551
   -12.0526 -12.0506 -12.0489 -12.0464 -12.0424 -12.0405 -12.0385 -12.0355
   -12.0304 -12.0290 -12.0262 -12.0239 -12.0222 -12.0187 -12.0129 -12.0123
   -12.0038 -12.0029 -11.9995 -11.9977 -11.9973 -11.9960 -11.9923 -11.9892
   -11.9873 -11.9847 -11.9837 -11.9820 -11.9803 -11.9777 -11.9774 -11.9753
   -11.9725 -11.9710 -11.9695 -11.9676 -11.9620 -11.9587 -11.9556 -11.9511
   -11.9508 -11.9496 -11.9426 -11.9390 -11.9311 -11.9265 -11.9225 -11.9121
   -11.9089 -11.8972 -11.8861 -11.8690 -11.8579 -11.8555 -11.8447 -11.8326
   -11.8282 -11.8208 -11.8025 -11.7900 -11.7843 -11.7197 -11.7154 -11.6873
   -11.6750 -11.6523 -11.6092 -11.5984 -11.5814 -11.5594 -11.5455 -11.5292
   -11.5216 -11.4992 -11.4904 -11.4672 -11.4663 -11.4474 -11.4145 -11.4121
   -11.3813 -11.3751 -11.3546 -11.3393 -11.3306 -11.3200 -11.2858 -11.2638
   -11.2600 -11.2131 -11.2015 -11.1809 -11.1719 -11.1633 -11.1502  -5.7385
    -5.7373  -5.6574  -5.6543  -5.6005  -5.5977  -5.5863  -5.5814  -5.4685
    -5.4569  -5.4329  -5.4198  -5.3843  -5.2947  -5.2569  -5.2477  -5.2362
    -5.2325  -5.2252  -5.1617  -5.1050  -5.0517  -5.0247  -4.9910  -4.9653
    -4.9496  -4.9400  -4.8980  -4.8878  -4.8640  -4.8360  -4.8234  -4.7662
    -4.7252  -4.7162  -4.6827  -4.6728  -4.6590  -4.6515  -4.6338  -4.6019
    -4.5791  -4.5548  -4.5476  -4.5314  -4.4977  -4.4931  -4.4848  -4.3879
    -4.3507  -4.3056  -4.2620  -4.2480  -4.2207  -4.1765  -4.1598  -4.1336
    -4.0998  -4.0617  -4.0372  -4.0022  -3.9874  -3.9574  -3.9429  -3.9341
    -3.8745  -3.8394  -3.8278  -3.8028  -3.7304  -3.6887  -3.6387  -3.6060
    -3.5700  -3.5458  -3.5440  -3.5129  -3.5015  -3.4851  -3.4492  -3.4107
    -3.3844  -3.3659  -3.3312  -3.2918  -3.2686  -3.2636  -3.2235  -3.2039
    -3.1841  -3.1491  -3.1295  -3.1046  -3.0750  -3.0543  -3.0326  -3.0059
    -2.9741  -2.9676  -2.9249  -2.9031  -2.8938  -2.8660  -2.8452  -2.8425
    -2.8287  -2.7962  -2.7445  -2.7285  -2.7120  -2.7086  -2.6634  -2.6397
    -2.6319  -2.6217  -2.6027  -2.5790  -2.5529  -2.5401  -2.5222  -2.5050
    -2.4913  -2.4709  -2.4532  -2.4137  -2.3885  -2.3728  -2.3484  -2.3402
    -2.3182  -2.3029  -2.2873  -2.2695  -2.2401  -2.2058  -2.1973  -2.1745
    -2.1686  -2.1013  -2.0727  -2.0598  -2.0551  -2.0365  -2.0261  -2.0109
    -1.9992  -1.9679  -1.9568  -1.9281  -1.9249  -1.9104  -1.8936  -1.8915
    -1.8792  -1.8415  -1.8305  -1.8266  -1.8062  -1.7859  -1.7820  -1.7638
    -1.7461  -1.7163  -1.7090  -1.6887  -1.6756  -1.6655  -1.6620  -1.6456
    -1.6277  -1.6213  -1.5957  -1.5791  -1.5683  -1.5572  -1.5456  -1.5306
    -1.5130  -1.4980  -1.4950  -1.4745  -1.4586  -1.4472  -1.4348  -1.4122
    -1.3897  -1.3644  -1.3570  -1.3394  -1.3305  -1.3102  -1.3054  -1.2787
    -1.2615  -1.2337  -1.2239  -1.1921  -1.1779  -1.1725  -1.1462  -1.1213
    -1.0985  -1.0903  -1.0831  -1.0643  -1.0563  -1.0399  -1.0160  -1.0032
    -0.9937  -0.9666  -0.9533  -0.9275  -0.9067  -0.8944  -0.8923  -0.8729
    -0.8656  -0.8404  -0.8142  -0.8026  -0.7999  -0.7630  -0.7492  -0.7418
    -0.7211  -0.7160  -0.6919  -0.6777  -0.6673  -0.6573  -0.6412  -0.6307
    -0.6051  -0.5949  -0.5878  -0.5710  -0.5631  -0.5501  -0.5460  -0.5379
    -0.5157  -0.5084  -0.4960  -0.4784  -0.4635  -0.4600  -0.4568  -0.4342
    -0.4237  -0.4171  -0.4072  -0.4024  -0.3952  -0.3917  -0.3836  -0.3681
    -0.3618  -0.3476  -0.3436  -0.3373  -0.3258  -0.3175  -0.3078  -0.2977
    -0.2849  -0.2755  -0.2662  -0.2516  -0.2420  -0.2290  -0.2169  -0.2134
    -0.2065  -0.1814  -0.1575  -0.1554  -0.1421  -0.1289  -0.1084  -0.0840
    -0.0820  -0.0629  -0.0553  -0.0039  -0.0026   0.0068   0.0103   1.7293
     1.9907   2.0252   2.2772   2.4231   2.8223   3.0838   3.2717   3.7401
     3.8302   3.9678   4.0670   4.2687   4.3424

          k = 0.3333 0.3336 0.0000 (327656 PWs)   bands (ev):

   -74.2819 -38.5200 -38.3919 -38.1480 -18.1329 -18.1329 -18.0825 -18.0824
   -18.0701 -18.0700 -18.0339 -18.0338 -17.7858 -17.7857 -17.7785 -17.7607
   -17.7605 -17.7391 -17.7390 -17.7094 -17.7094 -17.6805 -17.6803 -17.6752
   -17.6751 -17.6028 -17.6023 -17.5995 -17.5990 -17.4525 -17.4275 -17.3970
   -17.2749 -17.2453 -17.1887 -17.1387 -17.1256 -17.0708 -17.0594 -17.0377
   -17.0159 -16.9962 -16.9706 -16.9477 -16.9102 -16.8957 -16.8838 -16.8628
   -16.8551 -16.8448 -16.8164 -16.8137 -16.7938 -16.7813 -16.7652 -16.7526
   -16.7503 -16.7344 -16.7189 -16.7106 -16.6968 -16.6801 -16.6687 -16.6587
   -16.6487 -16.6386 -16.6304 -16.6271 -16.6184 -16.6094 -16.6033 -16.5984
   -16.5867 -16.5775 -16.5708 -16.5569 -16.5511 -16.5395 -16.5271 -16.5191
   -16.5122 -16.5039 -16.4924 -16.4871 -16.4729 -16.4625 -16.4596 -16.4495
   -16.4287 -16.4265 -16.4212 -16.4123 -16.3791 -16.3709 -16.3697 -16.3580
   -16.2830 -16.2817 -16.2658 -16.2636 -12.5949 -12.5865 -12.5802 -12.5754
   -12.5700 -12.5624 -12.5552 -12.5536 -12.5469 -12.5424 -12.5400 -12.5352
   -12.5317 -12.5260 -12.5181 -12.5157 -12.5138 -12.5071 -12.4972 -12.4924
   -12.4879 -12.4865 -12.4828 -12.4749 -12.4688 -12.4655 -12.4636 -12.4565
   -12.4533 -12.4506 -12.4479 -12.4441 -12.4429 -12.4350 -12.4321 -12.4274
   -12.4253 -12.4220 -12.4146 -12.4108 -12.4085 -12.4048 -12.4032 -12.3971
   -12.3946 -12.3909 -12.3864 -12.3794 -12.3747 -12.3722 -12.3676 -12.3634
   -12.3588 -12.3576 -12.3526 -12.3490 -12.3427 -12.3398 -12.3369 -12.3313
   -12.3290 -12.3267 -12.3238 -12.3216 -12.3177 -12.3150 -12.3126 -12.3083
   -12.3042 -12.3032 -12.2987 -12.2955 -12.2952 -12.2910 -12.2894 -12.2864
   -12.2843 -12.2832 -12.2804 -12.2777 -12.2757 -12.2728 -12.2721 -12.2698
   -12.2682 -12.2645 -12.2632 -12.2602 -12.2557 -12.2539 -12.2527 -12.2504
   -12.2483 -12.2456 -12.2432 -12.2406 -12.2388 -12.2370 -12.2342 -12.2318
   -12.2289 -12.2280 -12.2260 -12.2228 -12.2215 -12.2176 -12.2170 -12.2159
   -12.2128 -12.2104 -12.2091 -12.2079 -12.2044 -12.2033 -12.2017 -12.2003
   -12.1983 -12.1950 -12.1938 -12.1923 -12.1899 -12.1876 -12.1863 -12.1854
   -12.1835 -12.1807 -12.1795 -12.1770 -12.1754 -12.1723 -12.1710 -12.1692
   -12.1665 -12.1631 -12.1605 -12.1580 -12.1551 -12.1526 -12.1512 -12.1477
   -12.1449 -12.1424 -12.1398 -12.1355 -12.1333 -12.1310 -12.1287 -12.1280
   -12.1246 -12.1236 -12.1207 -12.1186 -12.1152 -12.1126 -12.1103 -12.1080
   -12.1072 -12.1046 -12.1020 -12.1013 -12.0991 -12.0973 -12.0954 -12.0913
   -12.0892 -12.0884 -12.0865 -12.0840 -12.0839 -12.0800 -12.0774 -12.0755
   -12.0728 -12.0710 -12.0690 -12.0664 -12.0634 -12.0620 -12.0587 -12.0564
   -12.0540 -12.0505 -12.0462 -12.0426 -12.0403 -12.0356 -12.0304 -12.0269
   -12.0262 -12.0230 -12.0217 -12.0184 -12.0159 -12.0137 -12.0115 -12.0098
   -12.0067 -12.0056 -12.0020 -11.9986 -11.9975 -11.9964 -11.9953 -11.9942
   -11.9899 -11.9866 -11.9831 -11.9812 -11.9789 -11.9750 -11.9742 -11.9717
   -11.9688 -11.9674 -11.9666 -11.9645 -11.9615 -11.9599 -11.9573 -11.9535
   -11.9507 -11.9464 -11.9410 -11.9387 -11.9351 -11.9294 -11.9169 -11.9129
   -11.9047 -11.8918 -11.8780 -11.8672 -11.8631 -11.8553 -11.8429 -11.8359
   -11.8256 -11.8170 -11.8015 -11.7902 -11.7772 -11.7668 -11.7577 -11.7416
   -11.7011 -11.6812 -11.6620 -11.6377 -11.5962 -11.5538 -11.5261 -11.5042
   -11.4898 -11.4842 -11.4727 -11.4559 -11.4338 -11.4258 -11.4069 -11.3743
   -11.3682 -11.3575 -11.3380 -11.3216 -11.3107 -11.2981 -11.2823 -11.2702
   -11.2630 -11.2307 -11.2260 -11.2084 -11.1959 -11.1909 -11.1740  -5.7222
    -5.7216  -5.6812  -5.6787  -5.6206  -5.6202  -5.6076  -5.6061  -5.4410
    -5.4298  -5.4188  -5.4166  -5.3496  -5.2620  -5.2110  -5.2083  -5.2058
    -5.1987  -5.1721  -5.1122  -5.0535  -5.0149  -4.9970  -4.9628  -4.9521
    -4.9373  -4.9198  -4.8990  -4.8710  -4.8522  -4.8407  -4.8302  -4.7725
    -4.7490  -4.7352  -4.7039  -4.6864  -4.6748  -4.6418  -4.6393  -4.6280
    -4.6138  -4.6016  -4.5707  -4.5570  -4.5443  -4.5260  -4.5073  -4.4907
    -4.4590  -4.4135  -4.3809  -4.3580  -4.3517  -4.2373  -4.2301  -4.1903
    -4.1378  -4.1042  -4.0776  -4.0458  -4.0142  -4.0009  -3.9822  -3.9420
    -3.8704  -3.8430  -3.7875  -3.7069  -3.6808  -3.6536  -3.5937  -3.5670
    -3.5468  -3.5142  -3.4872  -3.4573  -3.4278  -3.3901  -3.3693  -3.3430
    -3.3371  -3.2793  -3.2642  -3.2522  -3.2211  -3.2024  -3.1752  -3.1673
    -3.1243  -3.1016  -3.0580  -3.0456  -3.0113  -2.9927  -2.9857  -2.9736
    -2.9602  -2.9372  -2.9113  -2.8892  -2.8624  -2.8416  -2.8370  -2.8193
    -2.7980  -2.7772  -2.7519  -2.7405  -2.7221  -2.6890  -2.6811  -2.6562
    -2.6205  -2.6062  -2.6023  -2.5788  -2.5691  -2.5474  -2.5441  -2.5049
    -2.4883  -2.4712  -2.4377  -2.4238  -2.4081  -2.3904  -2.3752  -2.3598
    -2.3320  -2.3240  -2.2744  -2.2576  -2.2435  -2.2333  -2.2039  -2.1834
    -2.1612  -2.1482  -2.1309  -2.1210  -2.1059  -2.0985  -2.0686  -2.0422
    -2.0353  -2.0243  -1.9950  -1.9717  -1.9693  -1.9526  -1.9363  -1.9108
    -1.8926  -1.8782  -1.8654  -1.8506  -1.8231  -1.8105  -1.8017  -1.7775
    -1.7605  -1.7411  -1.7322  -1.7191  -1.6959  -1.6873  -1.6496  -1.6395
    -1.6354  -1.6121  -1.5995  -1.5857  -1.5476  -1.5259  -1.5083  -1.4993
    -1.4773  -1.4566  -1.4328  -1.4102  -1.4014  -1.3885  -1.3690  -1.3603
    -1.3469  -1.3308  -1.3221  -1.3006  -1.2928  -1.2682  -1.2558  -1.2506
    -1.2361  -1.2134  -1.1984  -1.1893  -1.1657  -1.1562  -1.1378  -1.1211
    -1.1070  -1.0967  -1.0699  -1.0611  -1.0419  -1.0302  -1.0201  -1.0015
    -0.9889  -0.9814  -0.9698  -0.9561  -0.9385  -0.9295  -0.9176  -0.9031
    -0.8931  -0.8762  -0.8588  -0.8468  -0.8287  -0.8115  -0.8006  -0.7920
    -0.7778  -0.7671  -0.7469  -0.7349  -0.7215  -0.7056  -0.6877  -0.6643
    -0.6460  -0.6435  -0.6159  -0.6111  -0.5947  -0.5887  -0.5754  -0.5628
    -0.5590  -0.5486  -0.5319  -0.5215  -0.5041  -0.4926  -0.4846  -0.4744
    -0.4442  -0.4357  -0.4290  -0.4082  -0.3937  -0.3786  -0.3619  -0.3549
    -0.3468  -0.3415  -0.3358  -0.3330  -0.3186  -0.3149  -0.2986  -0.2849
    -0.2773  -0.2632  -0.2514  -0.2432  -0.2316  -0.2189  -0.1998  -0.1784
    -0.1667  -0.1643  -0.1355  -0.1137  -0.1070  -0.0875  -0.0836  -0.0526
    -0.0503  -0.0427  -0.0398  -0.0166  -0.0152   0.0050   0.0067   1.9734
     2.0136   2.1824   2.3327   2.7505   3.0808   3.1281   3.3592   3.5174
     3.5508   3.7599   3.9680   4.0046   4.0326

     the Fermi energy is     2.0020 ev

!    total energy              =  -27385.05648954 Ry
     total all-electron energy =   -693758.018823 Ry
     estimated scf accuracy    <          7.9E-10 Ry
     smearing contrib. (-TS)   =      -0.00579477 Ry
     internal energy E=F+TS    =  -27385.05069476 Ry

     The total energy is F=E-TS. E is the sum of the following terms:
     one-electron contribution = -273347.96610655 Ry
     hartree contribution      =  137457.23486043 Ry
     xc contribution           =   -3322.90659285 Ry
     ewald contribution        =  128349.74431905 Ry
     one-center paw contrib.   =  -16521.15717485 Ry

     convergence has been achieved in  54 iterations

     negative rho (up, down):  5.014E-03 0.000E+00

     Forces acting on atoms (cartesian axes, Ry/au):

     atom    1 type  1   force =     0.00017821    0.00039514   -0.00140228
     atom    2 type  1   force =    -0.00021025   -0.00015164   -0.00153512
     atom    3 type  1   force =     0.00024416    0.00218982   -0.00451111
     atom    4 type  1   force =    -0.00029747   -0.00006991   -0.00137844
     atom    5 type  1   force =    -0.00142017    0.00113465   -0.00421702
     atom    6 type  1   force =     0.00009266    0.00024934   -0.00127787
     atom    7 type  1   force =    -0.00045199    0.00088205   -0.00506504
     atom    8 type  1   force =     0.00037492   -0.00066949   -0.00478667
     atom    9 type  1   force =    -0.00132391   -0.00139458   -0.00396400
     atom   10 type  1   force =     0.00904924   -0.00743352   -0.00677499
     atom   11 type  1   force =    -0.00015664    0.00027143   -0.00156743
     atom   12 type  1   force =     0.00041391    0.00025529   -0.00462080
     atom   13 type  2   force =    -0.00019094   -0.00012472    0.00154436
     atom   14 type  2   force =     0.00028150   -0.00019218    0.00167207
     atom   15 type  2   force =    -0.00419082   -0.00133274    0.00512449
     atom   16 type  2   force =     0.00180039   -0.00172991    0.00282038
     atom   17 type  2   force =    -0.00000423    0.00013744   -0.00032739
     atom   18 type  2   force =     0.00020699   -0.00001798    0.00028672
     atom   19 type  2   force =    -0.00006042   -0.00026640   -0.00009627
     atom   20 type  2   force =    -0.00043402   -0.00030564    0.00235166
     atom   21 type  2   force =    -0.00024546   -0.00061378    0.00142572
     atom   22 type  2   force =     0.00058668   -0.00026895    0.00173731
     atom   23 type  2   force =     0.00001807    0.00008166   -0.00047543
     atom   24 type  2   force =     0.00033474   -0.00043628    0.00053978
     atom   25 type  2   force =     0.00036117    0.00022290   -0.00040839
     atom   26 type  2   force =    -0.00048115   -0.00029203   -0.00036316
     atom   27 type  2   force =     0.00305908   -0.00263512   -0.00065426
     atom   28 type  2   force =     0.04077764   -0.03349124    0.03797184
     atom   29 type  2   force =    -0.00021293    0.00006890    0.00119973
     atom   30 type  2   force =    -0.00000501    0.00016501   -0.00024255
     atom   31 type  2   force =     0.00006701   -0.00005026    0.00125895
     atom   32 type  2   force =     0.00001413   -0.00015103   -0.00020414
     atom   33 type  2   force =     0.00004229    0.00018175   -0.00040040
     atom   34 type  2   force =    -0.00975949   -0.00012380   -0.00026792
     atom   35 type  2   force =     0.00048385   -0.00037415    0.00145062
     atom   36 type  2   force =     0.00056243   -0.00021860    0.00108362
     atom   37 type  1   force =     0.00462028   -0.00978321   -0.01207772
     atom   38 type  1   force =    -0.00062369   -0.00275704   -0.00422428
     atom   39 type  1   force =     0.00040627   -0.00057690   -0.00162648
     atom   40 type  1   force =    -0.00364794    0.01326884   -0.01402412
     atom   41 type  1   force =     0.00038667   -0.00011019   -0.00147276
     atom   42 type  1   force =    -0.01047674    0.00025428   -0.01810065
     atom   43 type  1   force =     0.01098367    0.01255324    0.00067543
     atom   44 type  1   force =     0.00156936   -0.00124629   -0.00486071
     atom   45 type  1   force =    -0.00044858   -0.00012053   -0.00138323
     atom   46 type  1   force =     0.00271017    0.00085274   -0.00356687
     atom   47 type  1   force =    -0.00035458   -0.00029274   -0.00288072
     atom   48 type  1   force =     0.00146777    0.00047844   -0.00555325
     atom   49 type  1   force =    -0.00198575    0.00191874   -0.00565327
     atom   50 type  1   force =    -0.01159183   -0.01085899    0.00400701
     atom   51 type  2   force =    -0.00249167    0.00298077    0.00267179
     atom   52 type  2   force =    -0.00015781    0.00168718    0.00137995
     atom   53 type  2   force =     0.00045239   -0.00019697   -0.00038820
     atom   54 type  2   force =    -0.00037910    0.00025248   -0.00032855
     atom   55 type  2   force =    -0.00057188    0.00487919    0.00727479
     atom   56 type  2   force =    -0.05948633   -0.03645611    0.06504396
     atom   57 type  2   force =    -0.00014544   -0.00025637    0.00189804
     atom   58 type  2   force =     0.00039583   -0.00037931    0.00036618
     atom   59 type  2   force =     0.04672335    0.06039386    0.05142372
     atom   60 type  2   force =     0.00008519   -0.00023131   -0.00039540
     atom   61 type  2   force =     0.00044426   -0.00030399    0.00732836
     atom   62 type  2   force =    -0.00022397    0.00061708    0.00171732
     atom   63 type  2   force =     0.00162817    0.00101833    0.01079386
     atom   64 type  2   force =     0.00158458    0.00051403    0.00153685
     atom   65 type  2   force =    -0.00020165   -0.00022009    0.00227518
     atom   66 type  2   force =     0.00017639    0.00013291    0.00064361
     atom   67 type  2   force =     0.00126017    0.01046377    0.00139511
     atom   68 type  2   force =    -0.00082944    0.00064659    0.00407358
     atom   69 type  2   force =     0.01023385   -0.00042034    0.00259590
     atom   70 type  2   force =    -0.00099942    0.00089306    0.00260918
     atom   71 type  2   force =     0.00057018   -0.00111984    0.00068012
     atom   72 type  2   force =    -0.00008703    0.00079061    0.00173637
     atom   73 type  2   force =     0.00142751   -0.00645015    0.00018174
     atom   74 type  2   force =    -0.00009598   -0.00011798   -0.00043938
     atom   75 type  1   force =    -0.00024416    0.00218982    0.00451111
     atom   76 type  1   force =     0.00364794    0.01326884    0.01402412
     atom   77 type  1   force =    -0.00017821    0.00039514    0.00140228
     atom   78 type  1   force =     0.00062369   -0.00275704    0.00422428
     atom   79 type  1   force =    -0.00009266    0.00024934    0.00127787
     atom   80 type  1   force =     0.00142017    0.00113465    0.00421702
     atom   81 type  1   force =     0.00045199    0.00088205    0.00506504
     atom   82 type  1   force =    -0.00037492   -0.00066949    0.00478667
     atom   83 type  1   force =    -0.00156936   -0.00124629    0.00486071
     atom   84 type  1   force =    -0.01098367    0.01255324   -0.00067543
     atom   85 type  1   force =     0.00015664    0.00027143    0.00156743
     atom   86 type  1   force =    -0.00904924   -0.00743352    0.00677499
     atom   87 type  3   force =     0.00000000    0.00608693    0.00000000
     atom   88 type  1   force =     0.00000000    0.00160472    0.00000000
     atom   89 type  1   force =     0.01159183   -0.01085899   -0.00400701
     atom   90 type  1   force =     0.00198575    0.00191874    0.00565327
     atom   91 type  2   force =     0.00419082   -0.00133274   -0.00512449
     atom   92 type  2   force =    -0.00180039   -0.00172991   -0.00282038
     atom   93 type  2   force =     0.00019094   -0.00012472   -0.00154436
     atom   94 type  2   force =    -0.00028150   -0.00019218   -0.00167207
     atom   95 type  2   force =    -0.00039583   -0.00037931   -0.00036618
     atom   96 type  2   force =     0.00014544   -0.00025637   -0.00189804
     atom   97 type  2   force =     0.05948633   -0.03645611   -0.06504396
     atom   98 type  2   force =     0.00057188    0.00487919   -0.00727479
     atom   99 type  2   force =    -0.00058668   -0.00026895   -0.00173731
     atom  100 type  2   force =     0.00024546   -0.00061378   -0.00142572
     atom  101 type  2   force =    -0.00033474   -0.00043628   -0.00053978
     atom  102 type  2   force =    -0.00001807    0.00008166    0.00047543
     atom  103 type  2   force =    -0.00305908   -0.00263512    0.00065426
     atom  104 type  2   force =    -0.04077764   -0.03349124   -0.03797184
     atom  105 type  2   force =    -0.00036117    0.00022290    0.00040839
     atom  106 type  2   force =     0.00048115   -0.00029203    0.00036316
     atom  107 type  2   force =     0.00099942    0.00089306   -0.00260918
     atom  108 type  2   force =    -0.01023385   -0.00042034   -0.00259590
     atom  109 type  2   force =     0.00082944    0.00064659   -0.00407358
     atom  110 type  2   force =    -0.00126017    0.01046377   -0.00139511
     atom  111 type  2   force =     0.00975949   -0.00012380    0.00026792
     atom  112 type  2   force =    -0.00004229    0.00018175    0.00040040
     atom  113 type  2   force =    -0.00056243   -0.00021860   -0.00108362
     atom  114 type  2   force =    -0.00048385   -0.00037415   -0.00145062
     atom  115 type  1   force =    -0.00040627   -0.00057690    0.00162648
     atom  116 type  1   force =     0.00029747   -0.00006991    0.00137844
     atom  117 type  1   force =    -0.00462028   -0.00978321    0.01207772
     atom  118 type  1   force =     0.00021025   -0.00015164    0.00153512
     atom  119 type  1   force =     0.01047674    0.00025428    0.01810065
     atom  120 type  1   force =    -0.00038667   -0.00011019    0.00147276
     atom  121 type  1   force =     0.00000000   -0.00099653    0.00000000
     atom  122 type  1   force =     0.00000000   -0.00022255    0.00000000
     atom  123 type  1   force =     0.00132391   -0.00139458    0.00396400
     atom  124 type  1   force =    -0.00271017    0.00085274    0.00356687
     atom  125 type  1   force =     0.00044858   -0.00012053    0.00138323
     atom  126 type  1   force =     0.00035458   -0.00029274    0.00288072
     atom  127 type  1   force =    -0.00146777    0.00047844    0.00555325
     atom  128 type  1   force =    -0.00041391    0.00025529    0.00462080
     atom  129 type  2   force =    -0.00045239   -0.00019697    0.00038820
     atom  130 type  2   force =     0.00037910    0.00025248    0.00032855
     atom  131 type  2   force =     0.00249167    0.00298077   -0.00267179
     atom  132 type  2   force =     0.00015781    0.00168718   -0.00137995
     atom  133 type  2   force =     0.00043402   -0.00030564   -0.00235166
     atom  134 type  2   force =     0.00006042   -0.00026640    0.00009627
     atom  135 type  2   force =    -0.00020699   -0.00001798   -0.00028672
     atom  136 type  2   force =     0.00000423    0.00013744    0.00032739
     atom  137 type  2   force =    -0.00008519   -0.00023131    0.00039540
     atom  138 type  2   force =    -0.04672335    0.06039386   -0.05142372
     atom  139 type  2   force =     0.00022397    0.00061708   -0.00171732
     atom  140 type  2   force =    -0.00044426   -0.00030399   -0.00732836
     atom  141 type  2   force =     0.00020165   -0.00022009   -0.00227518
     atom  142 type  2   force =    -0.00017639    0.00013291   -0.00064361
     atom  143 type  2   force =    -0.00162817    0.00101833   -0.01079386
     atom  144 type  2   force =    -0.00158458    0.00051403   -0.00153685
     atom  145 type  2   force =    -0.00001413   -0.00015103    0.00020414
     atom  146 type  2   force =    -0.00006701   -0.00005026   -0.00125895
     atom  147 type  2   force =     0.00000501    0.00016501    0.00024255
     atom  148 type  2   force =     0.00021293    0.00006890   -0.00119973
     atom  149 type  2   force =     0.00008703    0.00079061   -0.00173637
     atom  150 type  2   force =    -0.00057018   -0.00111984   -0.00068012
     atom  151 type  2   force =     0.00009598   -0.00011798    0.00043938
     atom  152 type  2   force =    -0.00142751   -0.00645015   -0.00018174
     atom  153 type  4   force =     0.00037460   -0.00046520    0.00011354
     atom  154 type  4   force =    -0.00029821    0.00040577    0.00002182
     atom  155 type  4   force =     0.00063644   -0.00086345    0.00049371
     atom  156 type  4   force =    -0.00059687   -0.00045465    0.00057586
     atom  157 type  4   force =     0.00064254    0.00052015    0.00069661
     atom  158 type  4   force =    -0.00032889   -0.00040057    0.00005496
     atom  159 type  4   force =     0.00031409    0.00040442    0.00004849
     atom  160 type  4   force =    -0.00070962   -0.00089151    0.00060725
     atom  161 type  4   force =    -0.00058950    0.00050341    0.00061191
     atom  162 type  4   force =     0.00061363   -0.00046104    0.00059233
     atom  163 type  4   force =    -0.00076895    0.00095053    0.00071762
     atom  164 type  4   force =     0.00068245    0.00092665    0.00061138
     atom  165 type  4   force =    -0.00063644   -0.00086345   -0.00049371
     atom  166 type  4   force =     0.00059687   -0.00045465   -0.00057586
     atom  167 type  4   force =    -0.00064254    0.00052015   -0.00069661
     atom  168 type  4   force =     0.00070962   -0.00089151   -0.00060725
     atom  169 type  4   force =     0.00058950    0.00050341   -0.00061191
     atom  170 type  4   force =    -0.00061363   -0.00046104   -0.00059233
     atom  171 type  4   force =     0.00029821    0.00040577   -0.00002182
     atom  172 type  4   force =    -0.00037460   -0.00046520   -0.00011354
     atom  173 type  4   force =     0.00076895    0.00095053   -0.00071762
     atom  174 type  4   force =    -0.00031409    0.00040442   -0.00004849
     atom  175 type  4   force =     0.00032889   -0.00040057   -0.00005496
     atom  176 type  4   force =    -0.00068245    0.00092665   -0.00061138

     Total force =     0.222514     Total SCF correction =     0.000138


     Computing stress (Cartesian axis) and pressure


     negative rho (up, down):  5.014E-03 0.000E+00
          total   stress  (Ry/bohr**3)                   (kbar)     P=       -0.73
  -0.00000278   0.00000000  -0.00000194           -0.41        0.00       -0.28
   0.00000000   0.00000200   0.00000000            0.00        0.29        0.00
  -0.00000194   0.00000000  -0.00001403           -0.28        0.00       -2.06

     Energy error            =      6.9E-02 Ry
     Gradient error          =      6.5E-02 Ry/Bohr

     number of scf cycles    =   2
     number of bfgs steps    =   1

     energy             old  =  -27384.9874756150 Ry
     energy             new  =  -27385.0564895374 Ry

     CASE: energy            _new < energy            _old

     new trust radius        =       0.1223080085 bohr
     new conv_thr            =       0.0000000007 Ry


ATOMIC_POSITIONS (crystal)
In               0.2475602952        0.2525969719        0.3285776281
In               0.7524283431        0.2474694115        0.3285700137
In               0.2503745017        0.2504084462        0.4427616116
In               0.2524232111        0.7525146623        0.3285822858
In               0.4662073404        0.5000240184        0.4427256944
In               0.0359394921        0.5024489652        0.3288464307
In               0.7511772525        0.4655729888        0.3856043090
In               0.2488194038        0.0344063408        0.3856070559
In               0.4997555554        0.7497669354        0.3781573620
In               0.0352438777       -0.0014208738        0.4425535972
In               0.4640434546        0.0024397927        0.3288352400
In               0.0000641267        0.2500747673        0.3781417885
O                0.3890843497        0.1565221597        0.3583952669
O                0.6109503272        0.3434176258        0.3583984661
O                0.1098532947        0.1547280139        0.4130640659
O                0.8897297310        0.3447970928        0.4130223040
O                0.3810798057        0.3938957138        0.3068902461
O                0.3837568433        0.6104017409        0.3508965785
O                0.6189222971        0.1060844233        0.3068959234
O                0.6162670796        0.8895936383        0.3509532737
O                0.1548520776        0.3833018498        0.3609819961
O                0.3461762961        0.3822584326        0.4110270420
O                0.1838072016        0.6029189690        0.2984394325
O                0.3457325305        0.6178241398        0.4748428216
O                0.0990689984        0.3426111353        0.3005719842
O                0.9009201945        0.1573791930        0.3005758863
O                0.3903531602        0.3450928653        0.4731083810
O                0.6153599040        0.1500704493        0.4741553210
O                0.1162507002        0.1104011563        0.3509223593
O                0.1189152124        0.8939117900        0.3068922706
O                0.8837154120        0.3895837068        0.3509226767
O                0.8810715357        0.6060999420        0.3068928064
O                0.3161971781        0.1029239491        0.2984430007
O                0.1532243151        0.1177666946        0.4748381655
O                0.3451680928        0.8833678856        0.3609858056
O                0.1538657732        0.8823887768        0.4110260055
In               0.7511166199        0.7483017140        0.4424598310
In               0.2496017817        0.7496104342        0.4427623665
In               0.7475830678        0.7473797087        0.3285687685
In               0.7492909111        0.2521334306        0.4423678931
In               0.9641421381       -0.0024299957        0.3288344735
In               0.5317234189        0.0001007637        0.4422348838
In               0.0019891112        0.2521091797        0.4923024426
In               0.0002687086        0.7497569346        0.3931707112
In               0.5358507535        0.4975874344        0.3288421082
In               0.9669309295        0.5002402521        0.4427194208
In               0.2511923030        0.5345211705        0.3856651514
In               0.7489409214        0.9654704569        0.3855429032
In               0.4996884863        0.2502887758        0.3931472066
In               0.4981394076        0.7483377172        0.4924429946
O                0.8895016131        0.6549196036        0.4731726698
O                0.1099226010        0.8458355474        0.4731413448
O                0.5990808848        0.6573919373        0.3005735062
O                0.4009339420        0.8426222382        0.3005739423
O                0.8821533675        0.8902874549        0.4209421480
O                0.8745499986        0.1057946387        0.4665942306
O                0.1176451098        0.6103267790        0.4207768430
O                0.1177284531        0.3898996872        0.4647890232
O                0.6602382104        0.8901925166        0.4763016953
O                0.8161959405        0.8970738233        0.2984450414
O                0.6540307379        0.1176033003        0.4112134995
O                0.8450607025        0.1166371655        0.3610031417
O                0.6106062058        0.8453060957        0.4132133570
O                0.3898399708        0.6549952685        0.4129567400
O                0.8890466369        0.8434650323        0.3584164473
O                0.1109179186        0.6565610864        0.3583690354
O                0.6180763107        0.6110841229        0.4648181640
O                0.6177238891        0.3895699404        0.4208490151
O                0.3834164359        0.8901749230        0.4648399249
O                0.3823763435        0.1103446867        0.4208195571
O                0.8460930065        0.6176587160        0.4110265260
O                0.6548906903        0.6166951908        0.3609921590
O                0.8456922508        0.3812670061        0.4748429405
O                0.6838024414        0.3970755542        0.2984427451
In               0.2496254983        0.2504084462        0.5572383887
In               0.7507090889        0.2521334306        0.5576321072
In               0.2524397048        0.2525969719        0.6714223719
In               0.2503982183        0.7496104342        0.5572376338
In               0.4640605079        0.5024489652        0.6711535693
In               0.0337926596        0.5000240184        0.5572743058
In               0.7488227475        0.4655729888        0.6143956910
In               0.2511805962        0.0344063408        0.6143929441
In               0.4997312914        0.7497569346        0.6068292888
In               0.4980108888        0.2521091797        0.5076975574
In               0.0359565454        0.0024397927        0.6711647600
In               0.4647561223       -0.0014208738        0.5574464030
W                0.7500000000        0.0337120595        0.5000000001
In               0.2500000000        0.4667686405        0.5000000001
In               0.0018605924        0.7483377172        0.5075570054
In               0.0003115137        0.2502887758        0.6068527934
O                0.3901467063        0.1547280139        0.5869359343
O                0.6102702700        0.3447970928        0.5869776962
O                0.1109156503        0.1565221597        0.6416047331
O                0.8890496728        0.3434176258        0.6416015339
O                0.3822715469        0.3898996872        0.5352109768
O                0.3823548911        0.6103267790        0.5792231570
O                0.6254500014        0.1057946387        0.5334057694
O                0.6178466334        0.8902874549        0.5790578520
O                0.1538237039        0.3822584326        0.5889729580
O                0.3451479224        0.3833018498        0.6390180039
O                0.1542674695        0.6178241398        0.5251571784
O                0.3161927984        0.6029189690        0.7015605677
O                0.1096468408        0.3450928653        0.5268916195
O                0.8846400970        0.1500704493        0.5258446795
O                0.4009310025        0.3426111353        0.6994280158
O                0.5990798064        0.1573791930        0.6994241137
O                0.1176236574        0.1103446867        0.5791804429
O                0.1165835641        0.8901749230        0.5351600751
O                0.8822761118        0.3895699404        0.5791509849
O                0.8819236893        0.6110841229        0.5351818360
O                0.3467756849        0.1177666946        0.5251618345
O                0.1838028219        0.1029239491        0.7015569995
O                0.3461342268        0.8823887768        0.5889739945
O                0.1548319072        0.8833678856        0.6390141944
In               0.7524169322        0.7473797087        0.6714312315
In               0.2475767889        0.7525146623        0.6714177142
In               0.7488833801        0.7483017140        0.5575401693
In               0.7475716569        0.2474694115        0.6714299863
In               0.9682765811        0.0001007637        0.5577651164
In               0.5358578609       -0.0024299957        0.6711655265
In               0.2500000000        0.9663088713        0.5000000001
In               0.7500000000        0.5335097444        0.5000000001
In               0.0002444446        0.7497669354        0.6218426380
In               0.5330690705        0.5002402521        0.5572805794
In               0.9641492455        0.4975874344        0.6711578918
In               0.2488076970        0.5345211705        0.6143348486
In               0.7510590786        0.9654704569        0.6144570968
In               0.4999358733        0.2500747673        0.6218582115
O                0.9009191161        0.6573919373        0.6994264938
O                0.0990660589        0.8426222382        0.6994260577
O                0.6104983879        0.6549196036        0.5268273307
O                0.3900774000        0.8458355474        0.5268586557
O                0.8837329204        0.8895936383        0.6490467263
O                0.8810777029        0.1060844233        0.6931040766
O                0.1162431567        0.6104017409        0.6491034215
O                0.1189201943        0.3938957138        0.6931097539
O                0.6838040595        0.8970738233        0.7015549588
O                0.8397617896        0.8901925166        0.5236983047
O                0.6549392975        0.1166371655        0.6389968583
O                0.8459692621        0.1176033003        0.5887865005
O                0.6109533631        0.8434650323        0.6415835527
O                0.3890820814        0.6565610864        0.6416309646
O                0.8893937952        0.8453060957        0.5867866432
O                0.1101600302        0.6549952685        0.5870432602
O                0.6189284643        0.6060999420        0.6931071936
O                0.6162845880        0.3895837068        0.6490773233
O                0.3810847876        0.8939117900        0.6931077294
O                0.3837492998        0.1104011563        0.6490776407
O                0.8451093097        0.6166951908        0.6390078410
O                0.6539069935        0.6176587160        0.5889734740
O                0.8161975586        0.3970755542        0.7015572551
O                0.6543077492        0.3812670061        0.5251570595
H                0.3223108580        0.4635572500        0.3002929505
H                0.6776942242        0.0364412918        0.3002904740
H                0.1357419330        0.6469152050        0.2828349644
H                0.1377376990        0.3798826554        0.2828876368
H                0.8622643450        0.1201212561        0.2828891064
H                0.1776909432        0.9635603289        0.3002915140
H                0.8223069570        0.5364427722        0.3002914803
H                0.3642532765        0.1469163061        0.2828366350
H                0.6377396692        0.6201221692        0.2828879133
H                0.3622643497        0.8798825514        0.2828876280
H                0.8642516651        0.8530866596        0.2828382118
H                0.6357426883        0.3530878428        0.2828366466
H                0.3642580670        0.6469152050        0.7171650356
H                0.3622623010        0.3798826554        0.7171123632
H                0.6377356550        0.1201212561        0.7171108936
H                0.1357467235        0.1469163061        0.7171633650
H                0.8622603308        0.6201221692        0.7171120867
H                0.1377356503        0.8798825514        0.7171123720
H                0.8223057748        0.0364412918        0.6997095260
H                0.1776891410        0.4635572500        0.6997070495
H                0.6357483339        0.8530866596        0.7171617882
H                0.6776930420        0.5364427722        0.6997085197
H                0.3223090558        0.9635603289        0.6997084860
H                0.8642573107        0.3530878428        0.7171633534



     Writing config-only to output data dir ./tmp/rel.save/ :
     XML data file
     NEW-OLD atomic charge density approx. for the potential

     negative rho (up, down):  4.965E-03 0.000E+00

     total cpu time spent up to now is     4986.6 secs

     Self-consistent Calculation

     iteration #  1     ecut=    71.00 Ry     beta= 0.20
     Davidson diagonalization with overlap
     c_bands:  2 eigenvalues not converged
     c_bands:  1 eigenvalues not converged
     c_bands:  4 eigenvalues not converged
     c_bands:  3 eigenvalues not converged
     ethr =  1.00E-06,  avg # of iterations = 20.0

     negative rho (up, down):  5.758E-03 0.000E+00

     total cpu time spent up to now is     5059.2 secs

     total energy              =  -27385.04455267 Ry
     estimated scf accuracy    <       0.03741206 Ry

     iteration #  2     ecut=    71.00 Ry     beta= 0.20
     Davidson diagonalization with overlap
     ethr =  2.82E-06,  avg # of iterations =  6.3

     negative rho (up, down):  1.743E-02 0.000E+00

     total cpu time spent up to now is     5093.6 secs

     total energy              =  -27385.08616572 Ry
     estimated scf accuracy    <       0.02167629 Ry

     iteration #  3     ecut=    71.00 Ry     beta= 0.20
     Davidson diagonalization with overlap
     c_bands:  1 eigenvalues not converged
     ethr =  1.63E-06,  avg # of iterations = 16.8

     negative rho (up, down):  1.568E-02 0.000E+00

     total cpu time spent up to now is     5133.6 secs

     total energy              =  -27385.10065225 Ry
     estimated scf accuracy    <       0.00206452 Ry

     iteration #  4     ecut=    71.00 Ry     beta= 0.20
     Davidson diagonalization with overlap
     ethr =  1.55E-07,  avg # of iterations = 11.5

     negative rho (up, down):  1.085E-02 0.000E+00

     total cpu time spent up to now is     5173.8 secs

     total energy              =  -27385.10114819 Ry
     estimated scf accuracy    <       0.00158452 Ry

     iteration #  5     ecut=    71.00 Ry     beta= 0.20
     Davidson diagonalization with overlap
     ethr =  1.19E-07,  avg # of iterations =  3.5

     negative rho (up, down):  8.717E-03 0.000E+00

     total cpu time spent up to now is     5207.7 secs

     total energy              =  -27385.10703544 Ry
     estimated scf accuracy    <       0.00087170 Ry

     iteration #  6     ecut=    71.00 Ry     beta= 0.20
     Davidson diagonalization with overlap
     ethr =  6.56E-08,  avg # of iterations =  7.8

     negative rho (up, down):  8.541E-03 0.000E+00

     total cpu time spent up to now is     5246.7 secs

     total energy              =  -27385.10787145 Ry
     estimated scf accuracy    <       0.00097878 Ry

     iteration #  7     ecut=    71.00 Ry     beta= 0.20
     Davidson diagonalization with overlap
     ethr =  6.56E-08,  avg # of iterations =  2.0

     negative rho (up, down):  1.077E-02 0.000E+00

     total cpu time spent up to now is     5279.8 secs

     total energy              =  -27385.11109344 Ry
     estimated scf accuracy    <       0.00108604 Ry

     iteration #  8     ecut=    71.00 Ry     beta= 0.20
     Davidson diagonalization with overlap
     ethr =  6.56E-08,  avg # of iterations =  6.5

     negative rho (up, down):  1.283E-02 0.000E+00

     total cpu time spent up to now is     5316.3 secs

     total energy              =  -27385.11240214 Ry
     estimated scf accuracy    <       0.00039991 Ry

     iteration #  9     ecut=    71.00 Ry     beta= 0.20
     Davidson diagonalization with overlap
     ethr =  3.01E-08,  avg # of iterations =  9.5

     negative rho (up, down):  1.086E-02 0.000E+00

     total cpu time spent up to now is     5356.5 secs

     total energy              =  -27385.11276352 Ry
     estimated scf accuracy    <       0.00019373 Ry

     iteration # 10     ecut=    71.00 Ry     beta= 0.20
     Davidson diagonalization with overlap
     ethr =  1.46E-08,  avg # of iterations =  9.0

     negative rho (up, down):  9.121E-03 0.000E+00

     total cpu time spent up to now is     5393.8 secs

     total energy              =  -27385.11283602 Ry
     estimated scf accuracy    <       0.00008679 Ry

     iteration # 11     ecut=    71.00 Ry     beta= 0.20
     Davidson diagonalization with overlap
     ethr =  6.53E-09,  avg # of iterations =  6.3

     negative rho (up, down):  9.043E-03 0.000E+00

     total cpu time spent up to now is     5430.0 secs

     total energy              =  -27385.11286654 Ry
     estimated scf accuracy    <       0.00006936 Ry

     iteration # 12     ecut=    71.00 Ry     beta= 0.20
     Davidson diagonalization with overlap
     ethr =  5.22E-09,  avg # of iterations =  1.5

     negative rho (up, down):  8.697E-03 0.000E+00

     total cpu time spent up to now is     5462.6 secs

     total energy              =  -27385.11284820 Ry
     estimated scf accuracy    <       0.00007450 Ry

     iteration # 13     ecut=    71.00 Ry     beta= 0.20
     Davidson diagonalization with overlap
     ethr =  5.22E-09,  avg # of iterations =  2.8

     negative rho (up, down):  8.307E-03 0.000E+00

     total cpu time spent up to now is     5496.6 secs

     total energy              =  -27385.11286689 Ry
     estimated scf accuracy    <       0.00006850 Ry

     iteration # 14     ecut=    71.00 Ry     beta= 0.20
     Davidson diagonalization with overlap
     ethr =  5.15E-09,  avg # of iterations =  2.0

     negative rho (up, down):  8.384E-03 0.000E+00

     total cpu time spent up to now is     5530.4 secs

     total energy              =  -27385.11280291 Ry
     estimated scf accuracy    <       0.00004171 Ry

     iteration # 15     ecut=    71.00 Ry     beta= 0.20
     Davidson diagonalization with overlap
     ethr =  3.14E-09,  avg # of iterations =  7.0

     negative rho (up, down):  8.163E-03 0.000E+00

     total cpu time spent up to now is     5567.7 secs

     total energy              =  -27385.11284385 Ry
     estimated scf accuracy    <       0.00004218 Ry

     iteration # 16     ecut=    71.00 Ry     beta= 0.20
     Davidson diagonalization with overlap
     ethr =  3.14E-09,  avg # of iterations =  2.0

     negative rho (up, down):  8.153E-03 0.000E+00

     total cpu time spent up to now is     5600.9 secs

     total energy              =  -27385.11286194 Ry
     estimated scf accuracy    <       0.00003694 Ry

     iteration # 17     ecut=    71.00 Ry     beta= 0.20
     Davidson diagonalization with overlap
     ethr =  2.78E-09,  avg # of iterations =  2.0

     negative rho (up, down):  8.530E-03 0.000E+00

     total cpu time spent up to now is     5634.1 secs

     total energy              =  -27385.11283782 Ry
     estimated scf accuracy    <       0.00003400 Ry

     iteration # 18     ecut=    71.00 Ry     beta= 0.20
     Davidson diagonalization with overlap
     ethr =  2.56E-09,  avg # of iterations =  4.0

     negative rho (up, down):  8.495E-03 0.000E+00

     total cpu time spent up to now is     5667.8 secs

     total energy              =  -27385.11286151 Ry
     estimated scf accuracy    <       0.00002136 Ry

     iteration # 19     ecut=    71.00 Ry     beta= 0.20
     Davidson diagonalization with overlap
     ethr =  1.61E-09,  avg # of iterations =  5.0

     negative rho (up, down):  8.457E-03 0.000E+00

     total cpu time spent up to now is     5704.3 secs

     total energy              =  -27385.11286825 Ry
     estimated scf accuracy    <       0.00001416 Ry

     iteration # 20     ecut=    71.00 Ry     beta= 0.20
     Davidson diagonalization with overlap
     ethr =  1.07E-09,  avg # of iterations =  2.0

     negative rho (up, down):  8.198E-03 0.000E+00

     total cpu time spent up to now is     5737.5 secs

     total energy              =  -27385.11286604 Ry
     estimated scf accuracy    <       0.00001200 Ry

     iteration # 21     ecut=    71.00 Ry     beta= 0.20
     Davidson diagonalization with overlap
     ethr =  9.03E-10,  avg # of iterations =  7.3

     negative rho (up, down):  8.015E-03 0.000E+00

     total cpu time spent up to now is     5773.2 secs

     total energy              =  -27385.11286773 Ry
     estimated scf accuracy    <       0.00000895 Ry

     iteration # 22     ecut=    71.00 Ry     beta= 0.20
     Davidson diagonalization with overlap
     ethr =  6.73E-10,  avg # of iterations =  6.8

     negative rho (up, down):  8.000E-03 0.000E+00

     total cpu time spent up to now is     5810.1 secs

     total energy              =  -27385.11285966 Ry
     estimated scf accuracy    <       0.00000617 Ry

     iteration # 23     ecut=    71.00 Ry     beta= 0.20
     Davidson diagonalization with overlap
     ethr =  4.64E-10,  avg # of iterations =  8.3

     negative rho (up, down):  8.111E-03 0.000E+00

     total cpu time spent up to now is     5849.2 secs

     total energy              =  -27385.11285928 Ry
     estimated scf accuracy    <       0.00000651 Ry

     iteration # 24     ecut=    71.00 Ry     beta= 0.20
     Davidson diagonalization with overlap
     ethr =  4.64E-10,  avg # of iterations =  7.0

     negative rho (up, down):  8.201E-03 0.000E+00

     total cpu time spent up to now is     5888.2 secs

     total energy              =  -27385.11286620 Ry
     estimated scf accuracy    <       0.00000353 Ry

     iteration # 25     ecut=    71.00 Ry     beta= 0.20
     Davidson diagonalization with overlap
     ethr =  2.65E-10,  avg # of iterations =  5.8

     negative rho (up, down):  8.120E-03 0.000E+00

     total cpu time spent up to now is     5923.0 secs

     total energy              =  -27385.11286996 Ry
     estimated scf accuracy    <       0.00000201 Ry

     iteration # 26     ecut=    71.00 Ry     beta= 0.20
     Davidson diagonalization with overlap
     ethr =  1.51E-10,  avg # of iterations =  9.0

     negative rho (up, down):  8.124E-03 0.000E+00

     total cpu time spent up to now is     5963.9 secs

     total energy              =  -27385.11287116 Ry
     estimated scf accuracy    <       0.00000187 Ry

     iteration # 27     ecut=    71.00 Ry     beta= 0.20
     Davidson diagonalization with overlap
     ethr =  1.41E-10,  avg # of iterations =  2.0

     negative rho (up, down):  8.108E-03 0.000E+00

     total cpu time spent up to now is     5998.0 secs

     total energy              =  -27385.11287124 Ry
     estimated scf accuracy    <       0.00000116 Ry

     iteration # 28     ecut=    71.00 Ry     beta= 0.20
     Davidson diagonalization with overlap
     ethr =  8.69E-11,  avg # of iterations =  5.0

     negative rho (up, down):  8.098E-03 0.000E+00

     total cpu time spent up to now is     6033.2 secs

     total energy              =  -27385.11287106 Ry
     estimated scf accuracy    <       0.00000052 Ry

     iteration # 29     ecut=    71.00 Ry     beta= 0.20
     Davidson diagonalization with overlap
     ethr =  3.88E-11,  avg # of iterations =  7.8

     negative rho (up, down):  8.057E-03 0.000E+00

     total cpu time spent up to now is     6072.6 secs

     total energy              =  -27385.11287159 Ry
     estimated scf accuracy    <       0.00000042 Ry

     iteration # 30     ecut=    71.00 Ry     beta= 0.20
     Davidson diagonalization with overlap
     ethr =  3.17E-11,  avg # of iterations =  5.3

     negative rho (up, down):  8.053E-03 0.000E+00

     total cpu time spent up to now is     6108.6 secs

     total energy              =  -27385.11287134 Ry
     estimated scf accuracy    <       0.00000026 Ry

     iteration # 31     ecut=    71.00 Ry     beta= 0.20
     Davidson diagonalization with overlap
     ethr =  1.93E-11,  avg # of iterations =  7.3

     negative rho (up, down):  8.071E-03 0.000E+00

     total cpu time spent up to now is     6146.3 secs

     total energy              =  -27385.11287158 Ry
     estimated scf accuracy    <       0.00000019 Ry

     iteration # 32     ecut=    71.00 Ry     beta= 0.20
     Davidson diagonalization with overlap
     ethr =  1.41E-11,  avg # of iterations =  3.3

     negative rho (up, down):  8.097E-03 0.000E+00

     total cpu time spent up to now is     6180.5 secs

     total energy              =  -27385.11287155 Ry
     estimated scf accuracy    <       0.00000015 Ry

     iteration # 33     ecut=    71.00 Ry     beta= 0.20
     Davidson diagonalization with overlap
     ethr =  1.14E-11,  avg # of iterations =  5.8

     negative rho (up, down):  8.117E-03 0.000E+00

     total cpu time spent up to now is     6218.0 secs

     total energy              =  -27385.11287157 Ry
     estimated scf accuracy    <       0.00000012 Ry

     iteration # 34     ecut=    71.00 Ry     beta= 0.20
     Davidson diagonalization with overlap
     ethr =  9.36E-12,  avg # of iterations =  2.0

     negative rho (up, down):  8.144E-03 0.000E+00

     total cpu time spent up to now is     6251.2 secs

     total energy              =  -27385.11287155 Ry
     estimated scf accuracy    <       0.00000009 Ry

     iteration # 35     ecut=    71.00 Ry     beta= 0.20
     Davidson diagonalization with overlap
     ethr =  6.77E-12,  avg # of iterations =  7.3

     negative rho (up, down):  8.157E-03 0.000E+00

     total cpu time spent up to now is     6288.2 secs

     total energy              =  -27385.11287159 Ry
     estimated scf accuracy    <       0.00000007 Ry

     iteration # 36     ecut=    71.00 Ry     beta= 0.20
     Davidson diagonalization with overlap
     ethr =  5.50E-12,  avg # of iterations =  2.0

     negative rho (up, down):  8.191E-03 0.000E+00

     total cpu time spent up to now is     6321.7 secs

     total energy              =  -27385.11287156 Ry
     estimated scf accuracy    <       0.00000005 Ry

     iteration # 37     ecut=    71.00 Ry     beta= 0.20
     Davidson diagonalization with overlap
     ethr =  3.67E-12,  avg # of iterations =  3.0

     negative rho (up, down):  8.199E-03 0.000E+00

     total cpu time spent up to now is     6356.3 secs

     total energy              =  -27385.11287157 Ry
     estimated scf accuracy    <       0.00000004 Ry

     iteration # 38     ecut=    71.00 Ry     beta= 0.20
     Davidson diagonalization with overlap
     ethr =  2.64E-12,  avg # of iterations =  2.0

     negative rho (up, down):  8.197E-03 0.000E+00

     total cpu time spent up to now is     6389.8 secs

     total energy              =  -27385.11287156 Ry
     estimated scf accuracy    <       0.00000003 Ry

     iteration # 39     ecut=    71.00 Ry     beta= 0.20
     Davidson diagonalization with overlap
     ethr =  2.37E-12,  avg # of iterations =  4.3

     negative rho (up, down):  8.225E-03 0.000E+00

     total cpu time spent up to now is     6424.4 secs

     total energy              =  -27385.11287157 Ry
     estimated scf accuracy    <       0.00000003 Ry

     iteration # 40     ecut=    71.00 Ry     beta= 0.20
     Davidson diagonalization with overlap
     ethr =  2.19E-12,  avg # of iterations =  7.5

     negative rho (up, down):  8.264E-03 0.000E+00

     total cpu time spent up to now is     6461.0 secs

     total energy              =  -27385.11287153 Ry
     estimated scf accuracy    <       0.00000002 Ry

     iteration # 41     ecut=    71.00 Ry     beta= 0.20
     Davidson diagonalization with overlap
     ethr =  1.31E-12,  avg # of iterations =  8.5

     negative rho (up, down):  8.271E-03 0.000E+00

     total cpu time spent up to now is     6497.5 secs

     total energy              =  -27385.11287150 Ry
     estimated scf accuracy    <       0.00000002 Ry

     iteration # 42     ecut=    71.00 Ry     beta= 0.20
     Davidson diagonalization with overlap
     ethr =  1.31E-12,  avg # of iterations =  2.0

     negative rho (up, down):  8.272E-03 0.000E+00

     total cpu time spent up to now is     6531.3 secs

     total energy              =  -27385.11287150 Ry
     estimated scf accuracy    <       0.00000001 Ry

     iteration # 43     ecut=    71.00 Ry     beta= 0.20
     Davidson diagonalization with overlap
     ethr =  9.75E-13,  avg # of iterations =  5.8

     negative rho (up, down):  8.276E-03 0.000E+00

     total cpu time spent up to now is     6567.2 secs

     total energy              =  -27385.11287152 Ry
     estimated scf accuracy    <          7.6E-09 Ry

     iteration # 44     ecut=    71.00 Ry     beta= 0.20
     Davidson diagonalization with overlap
     ethr =  5.70E-13,  avg # of iterations =  5.3

     negative rho (up, down):  8.310E-03 0.000E+00

     total cpu time spent up to now is     6602.7 secs

     total energy              =  -27385.11287149 Ry
     estimated scf accuracy    <          6.4E-09 Ry

     iteration # 45     ecut=    71.00 Ry     beta= 0.20
     Davidson diagonalization with overlap
     ethr =  4.83E-13,  avg # of iterations =  7.3

     negative rho (up, down):  8.329E-03 0.000E+00

     total cpu time spent up to now is     6641.8 secs

     total energy              =  -27385.11287151 Ry
     estimated scf accuracy    <          2.9E-09 Ry

     iteration # 46     ecut=    71.00 Ry     beta= 0.20
     Davidson diagonalization with overlap
     ethr =  2.18E-13,  avg # of iterations =  5.0

     negative rho (up, down):  8.332E-03 0.000E+00

     total cpu time spent up to now is     6676.4 secs

     total energy              =  -27385.11287151 Ry
     estimated scf accuracy    <          1.4E-09 Ry

     iteration # 47     ecut=    71.00 Ry     beta= 0.20
     Davidson diagonalization with overlap
     ethr =  1.03E-13,  avg # of iterations =  8.5

     negative rho (up, down):  8.329E-03 0.000E+00

     total cpu time spent up to now is     6713.1 secs

     total energy              =  -27385.11287152 Ry
     estimated scf accuracy    <          1.1E-09 Ry

     iteration # 48     ecut=    71.00 Ry     beta= 0.20
     Davidson diagonalization with overlap
     ethr =  1.00E-13,  avg # of iterations =  2.0

     negative rho (up, down):  8.334E-03 0.000E+00

     total cpu time spent up to now is     6746.4 secs

     total energy              =  -27385.11287152 Ry
     estimated scf accuracy    <          9.4E-10 Ry

     iteration # 49     ecut=    71.00 Ry     beta= 0.20
     Davidson diagonalization with overlap
     ethr =  1.00E-13,  avg # of iterations =  6.8

     negative rho (up, down):  8.332E-03 0.000E+00

     total cpu time spent up to now is     6782.3 secs

     total energy              =  -27385.11287148 Ry
     estimated scf accuracy    <          1.6E-09 Ry

     iteration # 50     ecut=    71.00 Ry     beta= 0.20
     Davidson diagonalization with overlap
     ethr =  1.00E-13,  avg # of iterations =  4.0

     negative rho (up, down):  8.336E-03 0.000E+00

     total cpu time spent up to now is     6817.0 secs

     End of self-consistent calculation

          k = 0.0000 0.0000 0.0000 (327585 PWs)   bands (ev):

   -74.3734 -38.6059 -38.4754 -38.2901 -18.1928 -18.1928 -18.0777 -18.0777
   -18.0493 -18.0492 -18.0016 -18.0016 -17.8488 -17.8488 -17.7885 -17.7844
   -17.7844 -17.7564 -17.7564 -17.7009 -17.7008 -17.6994 -17.6994 -17.6732
   -17.6732 -17.6121 -17.6121 -17.6033 -17.6033 -17.3670 -17.3524 -17.3260
   -17.2709 -17.1658 -17.1086 -17.0989 -17.0922 -17.0455 -17.0134 -16.9923
   -16.9802 -16.9666 -16.9506 -16.9412 -16.9142 -16.9104 -16.9095 -16.8909
   -16.8745 -16.8503 -16.8352 -16.8195 -16.8158 -16.8132 -16.7881 -16.7791
   -16.7680 -16.7518 -16.7453 -16.7449 -16.7163 -16.6704 -16.6694 -16.6634
   -16.6552 -16.6415 -16.6318 -16.6272 -16.6178 -16.6132 -16.5990 -16.5985
   -16.5860 -16.5790 -16.5709 -16.5684 -16.5643 -16.5503 -16.5422 -16.5340
   -16.5219 -16.5059 -16.4910 -16.4823 -16.4532 -16.4525 -16.4483 -16.4453
   -16.4249 -16.4183 -16.4004 -16.3982 -16.3890 -16.3879 -16.3863 -16.3556
   -16.3215 -16.3208 -16.2587 -16.2527 -12.5859 -12.5837 -12.5626 -12.5577
   -12.5539 -12.5477 -12.5460 -12.5338 -12.5301 -12.5266 -12.5249 -12.5165
   -12.5127 -12.5076 -12.5059 -12.5039 -12.4995 -12.4939 -12.4879 -12.4844
   -12.4792 -12.4767 -12.4682 -12.4608 -12.4591 -12.4522 -12.4522 -12.4483
   -12.4454 -12.4431 -12.4404 -12.4308 -12.4252 -12.4222 -12.4168 -12.4166
   -12.4091 -12.4070 -12.4017 -12.4008 -12.3946 -12.3867 -12.3861 -12.3825
   -12.3795 -12.3732 -12.3732 -12.3682 -12.3621 -12.3600 -12.3572 -12.3537
   -12.3530 -12.3488 -12.3469 -12.3431 -12.3375 -12.3313 -12.3283 -12.3276
   -12.3234 -12.3226 -12.3164 -12.3142 -12.3129 -12.3087 -12.3061 -12.3054
   -12.3040 -12.2990 -12.2984 -12.2950 -12.2932 -12.2927 -12.2913 -12.2904
   -12.2901 -12.2832 -12.2825 -12.2783 -12.2760 -12.2752 -12.2749 -12.2739
   -12.2710 -12.2658 -12.2626 -12.2620 -12.2612 -12.2576 -12.2559 -12.2542
   -12.2482 -12.2463 -12.2454 -12.2437 -12.2406 -12.2395 -12.2393 -12.2358
   -12.2333 -12.2316 -12.2295 -12.2267 -12.2209 -12.2195 -12.2167 -12.2167
   -12.2141 -12.2118 -12.2087 -12.2030 -12.2020 -12.2011 -12.2008 -12.1995
   -12.1983 -12.1955 -12.1945 -12.1932 -12.1913 -12.1883 -12.1845 -12.1835
   -12.1822 -12.1814 -12.1768 -12.1760 -12.1743 -12.1707 -12.1645 -12.1644
   -12.1640 -12.1638 -12.1575 -12.1544 -12.1509 -12.1495 -12.1419 -12.1415
   -12.1406 -12.1387 -12.1382 -12.1348 -12.1327 -12.1297 -12.1292 -12.1269
   -12.1243 -12.1234 -12.1208 -12.1175 -12.1165 -12.1117 -12.1113 -12.1111
   -12.1101 -12.1056 -12.1047 -12.1038 -12.1017 -12.0999 -12.0975 -12.0951
   -12.0939 -12.0918 -12.0889 -12.0815 -12.0806 -12.0794 -12.0763 -12.0748
   -12.0741 -12.0737 -12.0679 -12.0667 -12.0648 -12.0621 -12.0613 -12.0571
   -12.0554 -12.0549 -12.0504 -12.0473 -12.0439 -12.0435 -12.0391 -12.0377
   -12.0345 -12.0314 -12.0301 -12.0277 -12.0248 -12.0221 -12.0217 -12.0188
   -12.0171 -12.0150 -12.0149 -12.0109 -12.0070 -12.0037 -12.0027 -11.9977
   -11.9965 -11.9947 -11.9920 -11.9906 -11.9848 -11.9833 -11.9774 -11.9707
   -11.9692 -11.9688 -11.9609 -11.9580 -11.9559 -11.9537 -11.9533 -11.9528
   -11.9446 -11.9431 -11.9400 -11.9371 -11.9262 -11.9246 -11.9155 -11.9110
   -11.9053 -11.9023 -11.8993 -11.8909 -11.8770 -11.8750 -11.8650 -11.8510
   -11.8328 -11.8099 -11.7634 -11.7494 -11.7321 -11.7201 -11.7012 -11.6997
   -11.6573 -11.6488 -11.6287 -11.6134 -11.5907 -11.5839 -11.5650 -11.5460
   -11.5255 -11.4935 -11.4914 -11.4682 -11.4532 -11.4338 -11.4213 -11.4161
   -11.3988 -11.3930 -11.3674 -11.3549 -11.3328 -11.3060 -11.3053 -11.2988
   -11.2967 -11.1977 -11.1769 -11.1568 -11.1465 -11.1293 -11.1145  -5.7792
    -5.7789  -5.6113  -5.6093  -5.6010  -5.5971  -5.5966  -5.5889  -5.4605
    -5.4539  -5.4279  -5.3906  -5.3853  -5.3684  -5.3169  -5.3159  -5.3091
    -5.2824  -5.2033  -5.1995  -5.1795  -5.1431  -5.1386  -5.0486  -4.9714
    -4.9454  -4.9129  -4.9012  -4.8687  -4.8653  -4.7767  -4.7501  -4.7105
    -4.7001  -4.6868  -4.6496  -4.6494  -4.6301  -4.5954  -4.5799  -4.5784
    -4.5481  -4.5334  -4.5118  -4.4965  -4.4357  -4.4101  -4.3736  -4.3536
    -4.3511  -4.3077  -4.2888  -4.2497  -4.1932  -4.1809  -4.1269  -4.1201
    -4.1025  -4.0727  -4.0473  -4.0187  -3.9844  -3.8878  -3.8822  -3.8733
    -3.8493  -3.7936  -3.7811  -3.7343  -3.6887  -3.6756  -3.6620  -3.6260
    -3.6164  -3.5968  -3.5910  -3.5667  -3.5493  -3.5316  -3.4986  -3.4945
    -3.4516  -3.4417  -3.4031  -3.3655  -3.3429  -3.3177  -3.3116  -3.2683
    -3.2451  -3.2136  -3.1734  -3.1534  -3.0980  -3.0835  -3.0519  -3.0441
    -3.0316  -3.0306  -3.0027  -2.9739  -2.9402  -2.9166  -2.8676  -2.8581
    -2.8207  -2.8045  -2.7953  -2.7836  -2.7424  -2.7118  -2.6852  -2.6711
    -2.6484  -2.6271  -2.6000  -2.5774  -2.5586  -2.5276  -2.5272  -2.5082
    -2.4744  -2.4710  -2.4234  -2.3946  -2.3927  -2.3695  -2.3483  -2.3369
    -2.2909  -2.2737  -2.2696  -2.1989  -2.1838  -2.1550  -2.1444  -2.1171
    -2.0799  -2.0737  -2.0576  -2.0481  -2.0432  -2.0332  -1.9967  -1.9816
    -1.9558  -1.9289  -1.9193  -1.9143  -1.8813  -1.8747  -1.8640  -1.8386
    -1.8237  -1.8164  -1.8000  -1.7904  -1.7697  -1.7542  -1.7373  -1.7369
    -1.7321  -1.7297  -1.7287  -1.7101  -1.6798  -1.6776  -1.6655  -1.6643
    -1.6454  -1.6422  -1.6135  -1.5941  -1.5917  -1.5696  -1.5632  -1.5493
    -1.5384  -1.5314  -1.5241  -1.5010  -1.4691  -1.4589  -1.4429  -1.4396
    -1.3923  -1.3857  -1.3830  -1.3485  -1.3451  -1.3287  -1.3041  -1.2981
    -1.2800  -1.2678  -1.2400  -1.2300  -1.1964  -1.1956  -1.1741  -1.1638
    -1.1538  -1.1112  -1.0679  -1.0354  -1.0171  -1.0072  -1.0054  -0.9914
    -0.9857  -0.9786  -0.9436  -0.9041  -0.8915  -0.8895  -0.8807  -0.8474
    -0.8426  -0.8297  -0.8225  -0.8195  -0.8044  -0.7923  -0.7829  -0.7436
    -0.7218  -0.7154  -0.6676  -0.6492  -0.6341  -0.6264  -0.6179  -0.6031
    -0.5805  -0.5709  -0.5538  -0.5359  -0.5358  -0.5300  -0.5107  -0.4891
    -0.4776  -0.4681  -0.4606  -0.4550  -0.4526  -0.4475  -0.4348  -0.4286
    -0.4193  -0.4095  -0.4022  -0.3904  -0.3845  -0.3674  -0.3673  -0.3582
    -0.3519  -0.3401  -0.3400  -0.3340  -0.3220  -0.3155  -0.3124  -0.2910
    -0.2796  -0.2755  -0.2653  -0.2510  -0.2434  -0.2158  -0.2113  -0.1932
    -0.1912  -0.1842  -0.1807  -0.1807  -0.1706  -0.1702  -0.1359  -0.1290
    -0.1137  -0.0832  -0.0772  -0.0015   0.0031   0.0078   0.0120   1.1765
     1.9155   2.1189   2.1850   2.6194   2.7688   3.5278   3.8186   3.8434
     3.8897   3.9605   4.1757   4.2249   4.2660

          k = 0.0000 0.3336 0.0000 (327620 PWs)   bands (ev):

   -74.3734 -38.6059 -38.4754 -38.2901 -18.1650 -18.1649 -18.0967 -18.0967
   -18.0619 -18.0619 -18.0246 -18.0246 -17.8128 -17.8128 -17.7765 -17.7716
   -17.7715 -17.7615 -17.7614 -17.7183 -17.7182 -17.6895 -17.6895 -17.6765
   -17.6765 -17.6138 -17.6138 -17.6087 -17.6087 -17.4071 -17.3404 -17.2767
   -17.2743 -17.1812 -17.1803 -17.1202 -17.0728 -17.0656 -17.0361 -16.9923
   -16.9864 -16.9653 -16.9454 -16.9296 -16.9146 -16.8902 -16.8901 -16.8757
   -16.8714 -16.8377 -16.8267 -16.8129 -16.8039 -16.8025 -16.7892 -16.7613
   -16.7508 -16.7483 -16.7359 -16.7257 -16.7165 -16.6790 -16.6729 -16.6565
   -16.6501 -16.6461 -16.6394 -16.6292 -16.6123 -16.6116 -16.6020 -16.6008
   -16.5903 -16.5803 -16.5777 -16.5756 -16.5589 -16.5513 -16.5388 -16.5370
   -16.5080 -16.5014 -16.4985 -16.4821 -16.4805 -16.4728 -16.4597 -16.4574
   -16.4160 -16.4086 -16.4050 -16.4038 -16.3982 -16.3939 -16.3897 -16.3646
   -16.2984 -16.2977 -16.2689 -16.2651 -12.5780 -12.5700 -12.5635 -12.5534
   -12.5509 -12.5493 -12.5411 -12.5397 -12.5305 -12.5267 -12.5225 -12.5214
   -12.5103 -12.5082 -12.5025 -12.5023 -12.4959 -12.4914 -12.4890 -12.4845
   -12.4711 -12.4705 -12.4652 -12.4631 -12.4600 -12.4533 -12.4513 -12.4498
   -12.4446 -12.4421 -12.4374 -12.4306 -12.4295 -12.4260 -12.4222 -12.4139
   -12.4097 -12.4093 -12.4003 -12.3990 -12.3979 -12.3938 -12.3910 -12.3858
   -12.3849 -12.3816 -12.3784 -12.3749 -12.3679 -12.3626 -12.3620 -12.3563
   -12.3550 -12.3527 -12.3459 -12.3422 -12.3390 -12.3375 -12.3351 -12.3292
   -12.3279 -12.3203 -12.3200 -12.3163 -12.3122 -12.3091 -12.3081 -12.3066
   -12.3034 -12.3009 -12.2959 -12.2941 -12.2924 -12.2907 -12.2874 -12.2868
   -12.2836 -12.2831 -12.2818 -12.2752 -12.2741 -12.2724 -12.2689 -12.2675
   -12.2670 -12.2598 -12.2596 -12.2561 -12.2560 -12.2524 -12.2514 -12.2496
   -12.2490 -12.2451 -12.2448 -12.2386 -12.2350 -12.2343 -12.2322 -12.2305
   -12.2286 -12.2264 -12.2219 -12.2212 -12.2187 -12.2183 -12.2163 -12.2133
   -12.2107 -12.2105 -12.2077 -12.2064 -12.2046 -12.2024 -12.1996 -12.1981
   -12.1956 -12.1936 -12.1920 -12.1913 -12.1870 -12.1865 -12.1852 -12.1841
   -12.1818 -12.1795 -12.1786 -12.1746 -12.1732 -12.1722 -12.1720 -12.1670
   -12.1669 -12.1649 -12.1648 -12.1620 -12.1576 -12.1546 -12.1521 -12.1501
   -12.1477 -12.1458 -12.1443 -12.1393 -12.1386 -12.1361 -12.1340 -12.1313
   -12.1296 -12.1254 -12.1228 -12.1216 -12.1200 -12.1181 -12.1169 -12.1152
   -12.1140 -12.1096 -12.1050 -12.1035 -12.1035 -12.1003 -12.0975 -12.0972
   -12.0953 -12.0931 -12.0913 -12.0890 -12.0844 -12.0830 -12.0816 -12.0778
   -12.0766 -12.0759 -12.0739 -12.0727 -12.0692 -12.0622 -12.0586 -12.0578
   -12.0526 -12.0510 -12.0484 -12.0466 -12.0450 -12.0411 -12.0398 -12.0350
   -12.0345 -12.0314 -12.0274 -12.0259 -12.0218 -12.0212 -12.0132 -12.0125
   -12.0108 -12.0088 -12.0039 -12.0036 -12.0020 -12.0019 -11.9969 -11.9968
   -11.9933 -11.9910 -11.9854 -11.9851 -11.9818 -11.9809 -11.9777 -11.9772
   -11.9751 -11.9731 -11.9676 -11.9652 -11.9632 -11.9599 -11.9578 -11.9569
   -11.9514 -11.9489 -11.9450 -11.9401 -11.9334 -11.9327 -11.9238 -11.9237
   -11.9064 -11.8980 -11.8830 -11.8749 -11.8667 -11.8562 -11.8383 -11.8274
   -11.8244 -11.7972 -11.7858 -11.7604 -11.7598 -11.7322 -11.7227 -11.6872
   -11.6720 -11.6414 -11.6318 -11.5796 -11.5770 -11.5552 -11.5369 -11.5125
   -11.5057 -11.4963 -11.4853 -11.4707 -11.4578 -11.4493 -11.4395 -11.4254
   -11.3992 -11.3946 -11.3875 -11.3708 -11.3423 -11.3285 -11.2992 -11.2438
   -11.2384 -11.1994 -11.1856 -11.1840 -11.1670 -11.1548 -11.1392  -5.7543
    -5.7537  -5.6862  -5.6835  -5.6042  -5.6041  -5.5952  -5.5930  -5.4512
    -5.4403  -5.4239  -5.4122  -5.3966  -5.3086  -5.2496  -5.2487  -5.2442
    -5.2395  -5.1494  -5.1481  -5.1048  -5.0806  -5.0535  -5.0416  -4.9921
    -4.9812  -4.9366  -4.8954  -4.8679  -4.8284  -4.8029  -4.8010  -4.7975
    -4.7777  -4.7256  -4.6975  -4.6805  -4.6599  -4.6401  -4.6298  -4.6063
    -4.5652  -4.5320  -4.5165  -4.5037  -4.4739  -4.4205  -4.4200  -4.3954
    -4.3698  -4.3645  -4.3171  -4.2952  -4.2637  -4.2319  -4.2299  -4.2086
    -4.2075  -4.0755  -4.0453  -4.0163  -3.9683  -3.9233  -3.8569  -3.8378
    -3.7769  -3.7739  -3.7487  -3.7270  -3.7053  -3.6711  -3.6593  -3.6392
    -3.6258  -3.5824  -3.5694  -3.5584  -3.5245  -3.5153  -3.4469  -3.4217
    -3.4046  -3.3723  -3.3255  -3.3169  -3.2691  -3.2690  -3.2373  -3.2136
    -3.1494  -3.1428  -3.1380  -3.1076  -3.0796  -3.0547  -3.0511  -3.0277
    -2.9915  -2.9564  -2.9470  -2.9442  -2.9196  -2.8758  -2.8682  -2.8518
    -2.8170  -2.8154  -2.7640  -2.7446  -2.7216  -2.6889  -2.6692  -2.6481
    -2.6256  -2.6015  -2.5895  -2.5589  -2.5350  -2.5234  -2.5106  -2.4763
    -2.4549  -2.4485  -2.4223  -2.3743  -2.3655  -2.3380  -2.3250  -2.3133
    -2.3097  -2.2905  -2.2777  -2.2602  -2.2408  -2.2221  -2.2180  -2.1828
    -2.1797  -2.1451  -2.1411  -2.1213  -2.1149  -2.0688  -2.0628  -2.0560
    -2.0221  -2.0157  -2.0081  -2.0077  -1.9602  -1.9509  -1.9307  -1.8959
    -1.8766  -1.8599  -1.8529  -1.8334  -1.8279  -1.7999  -1.7911  -1.7499
    -1.7466  -1.7355  -1.6950  -1.6938  -1.6704  -1.6691  -1.6509  -1.6291
    -1.6253  -1.6186  -1.5834  -1.5742  -1.5555  -1.5486  -1.5114  -1.4814
    -1.4718  -1.4518  -1.4439  -1.4248  -1.4148  -1.4037  -1.3993  -1.3945
    -1.3616  -1.3578  -1.3411  -1.3097  -1.3072  -1.2916  -1.2849  -1.2645
    -1.2601  -1.2376  -1.2305  -1.1861  -1.1857  -1.1586  -1.1423  -1.1318
    -1.1067  -1.0885  -1.0757  -1.0509  -1.0408  -1.0210  -0.9918  -0.9873
    -0.9652  -0.9570  -0.9404  -0.9377  -0.9110  -0.8926  -0.8828  -0.8646
    -0.8482  -0.8460  -0.8291  -0.8224  -0.7982  -0.7968  -0.7736  -0.7705
    -0.7468  -0.7340  -0.7249  -0.7197  -0.6942  -0.6873  -0.6607  -0.6511
    -0.6329  -0.6255  -0.5999  -0.5836  -0.5719  -0.5680  -0.5532  -0.5341
    -0.5329  -0.5007  -0.4962  -0.4913  -0.4907  -0.4713  -0.4522  -0.4296
    -0.4186  -0.4172  -0.4032  -0.4025  -0.3867  -0.3866  -0.3699  -0.3648
    -0.3517  -0.3437  -0.3428  -0.3275  -0.3258  -0.3049  -0.2949  -0.2887
    -0.2810  -0.2694  -0.2575  -0.2551  -0.2490  -0.2431  -0.2330  -0.2276
    -0.2155  -0.1986  -0.1944  -0.1403  -0.1269  -0.1179  -0.1020  -0.0956
    -0.0852  -0.0757  -0.0627  -0.0338  -0.0272  -0.0214  -0.0173   1.7275
     2.1318   2.1955   2.3347   2.6329   2.8356   3.0871   3.2865   3.7744
     3.8161   4.0319   4.1457   4.2856   4.3352

          k = 0.3333 0.0000 0.0000 (327628 PWs)   bands (ev):

   -74.3734 -38.6059 -38.4754 -38.2901 -18.1692 -18.1692 -18.1133 -18.1133
   -18.0382 -18.0382 -18.0135 -18.0135 -17.8319 -17.8319 -17.8011 -17.8011
   -17.7762 -17.7342 -17.7342 -17.6981 -17.6980 -17.6914 -17.6914 -17.6868
   -17.6867 -17.6137 -17.6137 -17.6088 -17.6088 -17.3932 -17.3461 -17.3322
   -17.2327 -17.1819 -17.1654 -17.1297 -17.0650 -17.0354 -17.0297 -16.9999
   -16.9777 -16.9680 -16.9467 -16.9422 -16.9287 -16.9035 -16.8968 -16.8871
   -16.8678 -16.8587 -16.8324 -16.8174 -16.8132 -16.8029 -16.7846 -16.7773
   -16.7550 -16.7436 -16.7278 -16.7124 -16.7095 -16.6742 -16.6609 -16.6575
   -16.6517 -16.6380 -16.6320 -16.6236 -16.6219 -16.6095 -16.6049 -16.6025
   -16.5872 -16.5752 -16.5725 -16.5596 -16.5513 -16.5423 -16.5400 -16.5299
   -16.5197 -16.5067 -16.4998 -16.4871 -16.4603 -16.4576 -16.4547 -16.4427
   -16.4392 -16.4377 -16.4220 -16.4133 -16.4000 -16.3961 -16.3853 -16.3670
   -16.2968 -16.2954 -16.2660 -16.2620 -12.5800 -12.5738 -12.5652 -12.5580
   -12.5526 -12.5439 -12.5368 -12.5354 -12.5317 -12.5282 -12.5235 -12.5170
   -12.5126 -12.5052 -12.5041 -12.5017 -12.4962 -12.4913 -12.4852 -12.4826
   -12.4771 -12.4742 -12.4689 -12.4609 -12.4564 -12.4528 -12.4496 -12.4469
   -12.4438 -12.4414 -12.4345 -12.4339 -12.4287 -12.4234 -12.4217 -12.4179
   -12.4148 -12.4084 -12.4049 -12.4017 -12.3999 -12.3972 -12.3917 -12.3876
   -12.3831 -12.3798 -12.3773 -12.3737 -12.3694 -12.3662 -12.3612 -12.3573
   -12.3547 -12.3480 -12.3461 -12.3433 -12.3430 -12.3387 -12.3355 -12.3338
   -12.3255 -12.3235 -12.3217 -12.3150 -12.3116 -12.3088 -12.3065 -12.3010
   -12.2996 -12.2979 -12.2939 -12.2931 -12.2884 -12.2879 -12.2870 -12.2850
   -12.2829 -12.2781 -12.2771 -12.2745 -12.2713 -12.2694 -12.2665 -12.2652
   -12.2622 -12.2621 -12.2601 -12.2584 -12.2580 -12.2557 -12.2540 -12.2526
   -12.2493 -12.2465 -12.2453 -12.2422 -12.2397 -12.2359 -12.2342 -12.2324
   -12.2317 -12.2310 -12.2271 -12.2246 -12.2229 -12.2199 -12.2185 -12.2171
   -12.2143 -12.2133 -12.2090 -12.2079 -12.2046 -12.2037 -12.2020 -12.1993
   -12.1990 -12.1959 -12.1950 -12.1920 -12.1910 -12.1892 -12.1873 -12.1857
   -12.1828 -12.1806 -12.1767 -12.1752 -12.1725 -12.1716 -12.1692 -12.1661
   -12.1632 -12.1609 -12.1594 -12.1574 -12.1553 -12.1514 -12.1508 -12.1461
   -12.1447 -12.1415 -12.1394 -12.1368 -12.1360 -12.1327 -12.1301 -12.1290
   -12.1262 -12.1238 -12.1201 -12.1179 -12.1172 -12.1149 -12.1131 -12.1122
   -12.1117 -12.1081 -12.1063 -12.1053 -12.1028 -12.1001 -12.0981 -12.0963
   -12.0939 -12.0913 -12.0897 -12.0889 -12.0869 -12.0835 -12.0812 -12.0781
   -12.0751 -12.0721 -12.0712 -12.0689 -12.0668 -12.0636 -12.0600 -12.0573
   -12.0553 -12.0534 -12.0505 -12.0474 -12.0447 -12.0422 -12.0398 -12.0372
   -12.0322 -12.0299 -12.0277 -12.0257 -12.0240 -12.0214 -12.0144 -12.0137
   -12.0066 -12.0051 -12.0022 -12.0002 -11.9996 -11.9981 -11.9943 -11.9915
   -11.9894 -11.9870 -11.9856 -11.9833 -11.9827 -11.9796 -11.9794 -11.9766
   -11.9745 -11.9723 -11.9713 -11.9692 -11.9642 -11.9607 -11.9577 -11.9532
   -11.9521 -11.9506 -11.9450 -11.9412 -11.9323 -11.9295 -11.9246 -11.9147
   -11.9108 -11.8984 -11.8887 -11.8703 -11.8600 -11.8568 -11.8469 -11.8340
   -11.8275 -11.8203 -11.8014 -11.7913 -11.7852 -11.7202 -11.7145 -11.6875
   -11.6789 -11.6543 -11.6122 -11.5982 -11.5812 -11.5595 -11.5428 -11.5287
   -11.5208 -11.4975 -11.4889 -11.4661 -11.4635 -11.4476 -11.4124 -11.4102
   -11.3808 -11.3748 -11.3554 -11.3384 -11.3308 -11.3176 -11.2807 -11.2637
   -11.2600 -11.2133 -11.2014 -11.1806 -11.1721 -11.1624 -11.1490  -5.7469
    -5.7458  -5.6655  -5.6627  -5.6089  -5.6065  -5.5944  -5.5900  -5.4733
    -5.4642  -5.4378  -5.4278  -5.3798  -5.2806  -5.2568  -5.2552  -5.2399
    -5.2303  -5.2065  -5.1598  -5.1056  -5.0544  -5.0340  -4.9750  -4.9713
    -4.9532  -4.9324  -4.8993  -4.8912  -4.8725  -4.8392  -4.8156  -4.7632
    -4.7389  -4.7256  -4.6830  -4.6777  -4.6624  -4.6552  -4.6391  -4.6073
    -4.5860  -4.5589  -4.5494  -4.5331  -4.5002  -4.4948  -4.4860  -4.3881
    -4.3484  -4.3079  -4.2678  -4.2516  -4.2313  -4.1943  -4.1636  -4.1489
    -4.1069  -4.0692  -4.0424  -4.0111  -3.9941  -3.9590  -3.9540  -3.9369
    -3.8864  -3.8532  -3.8336  -3.8102  -3.7362  -3.6833  -3.6405  -3.5981
    -3.5735  -3.5565  -3.5384  -3.5144  -3.5052  -3.4881  -3.4560  -3.4144
    -3.3864  -3.3668  -3.3249  -3.2868  -3.2751  -3.2626  -3.2264  -3.1992
    -3.1894  -3.1610  -3.1232  -3.1083  -3.0763  -3.0571  -3.0309  -3.0010
    -2.9790  -2.9645  -2.9240  -2.9124  -2.8976  -2.8706  -2.8521  -2.8396
    -2.8267  -2.7983  -2.7499  -2.7284  -2.7156  -2.7052  -2.6652  -2.6415
    -2.6282  -2.6229  -2.6060  -2.5811  -2.5548  -2.5410  -2.5269  -2.5092
    -2.4903  -2.4671  -2.4510  -2.4114  -2.3872  -2.3766  -2.3469  -2.3390
    -2.3230  -2.2998  -2.2874  -2.2664  -2.2439  -2.2061  -2.1928  -2.1758
    -2.1706  -2.0929  -2.0743  -2.0539  -2.0476  -2.0381  -2.0208  -2.0095
    -1.9926  -1.9676  -1.9634  -1.9265  -1.9145  -1.9104  -1.8971  -1.8940
    -1.8760  -1.8404  -1.8351  -1.8309  -1.8067  -1.7853  -1.7843  -1.7605
    -1.7395  -1.7156  -1.7073  -1.6948  -1.6770  -1.6699  -1.6610  -1.6498
    -1.6287  -1.6206  -1.5932  -1.5836  -1.5607  -1.5557  -1.5381  -1.5311
    -1.5122  -1.4990  -1.4939  -1.4672  -1.4594  -1.4442  -1.4348  -1.4149
    -1.3931  -1.3665  -1.3588  -1.3407  -1.3338  -1.3087  -1.3061  -1.2796
    -1.2619  -1.2320  -1.2245  -1.1911  -1.1806  -1.1718  -1.1483  -1.1243
    -1.0952  -1.0901  -1.0848  -1.0647  -1.0604  -1.0407  -1.0166  -1.0056
    -0.9910  -0.9686  -0.9560  -0.9308  -0.9081  -0.8951  -0.8869  -0.8755
    -0.8700  -0.8429  -0.8195  -0.8049  -0.8013  -0.7666  -0.7556  -0.7452
    -0.7236  -0.7209  -0.6959  -0.6835  -0.6635  -0.6621  -0.6458  -0.6340
    -0.6140  -0.5995  -0.5911  -0.5770  -0.5704  -0.5567  -0.5484  -0.5458
    -0.5224  -0.5137  -0.4973  -0.4826  -0.4654  -0.4622  -0.4605  -0.4386
    -0.4273  -0.4225  -0.4112  -0.4045  -0.3994  -0.3961  -0.3904  -0.3719
    -0.3671  -0.3531  -0.3486  -0.3415  -0.3293  -0.3246  -0.3122  -0.3016
    -0.2889  -0.2804  -0.2713  -0.2560  -0.2467  -0.2338  -0.2217  -0.2183
    -0.2117  -0.1855  -0.1633  -0.1602  -0.1471  -0.1339  -0.1124  -0.0903
    -0.0882  -0.0688  -0.0602  -0.0110  -0.0097  -0.0006   0.0032   1.7366
     2.1431   2.1838   2.3484   2.6018   2.8590   3.0878   3.2699   3.7543
     3.8286   4.0154   4.1047   4.3206   4.3743

          k = 0.3333 0.3336 0.0000 (327656 PWs)   bands (ev):

   -74.3734 -38.6059 -38.4754 -38.2901 -18.1436 -18.1435 -18.0933 -18.0933
   -18.0809 -18.0808 -18.0449 -18.0448 -17.7963 -17.7961 -17.7716 -17.7712
   -17.7673 -17.7492 -17.7491 -17.7204 -17.7203 -17.6911 -17.6910 -17.6859
   -17.6857 -17.6143 -17.6136 -17.6109 -17.6103 -17.3884 -17.3545 -17.3192
   -17.2320 -17.2074 -17.1732 -17.1252 -17.1030 -17.0566 -17.0453 -17.0294
   -16.9880 -16.9736 -16.9481 -16.9298 -16.9107 -16.8895 -16.8763 -16.8618
   -16.8533 -16.8439 -16.8193 -16.8153 -16.7951 -16.7800 -16.7659 -16.7584
   -16.7513 -16.7402 -16.7238 -16.7139 -16.7006 -16.6847 -16.6713 -16.6609
   -16.6546 -16.6446 -16.6363 -16.6291 -16.6240 -16.6124 -16.6081 -16.6033
   -16.5924 -16.5807 -16.5731 -16.5615 -16.5551 -16.5465 -16.5324 -16.5254
   -16.5168 -16.5107 -16.4999 -16.4926 -16.4792 -16.4690 -16.4650 -16.4545
   -16.4372 -16.4351 -16.4304 -16.4206 -16.3888 -16.3800 -16.3756 -16.3634
   -16.2918 -16.2902 -16.2745 -16.2720 -12.5784 -12.5680 -12.5671 -12.5577
   -12.5509 -12.5450 -12.5395 -12.5385 -12.5343 -12.5270 -12.5260 -12.5205
   -12.5165 -12.5113 -12.5038 -12.5011 -12.4994 -12.4922 -12.4831 -12.4787
   -12.4742 -12.4713 -12.4677 -12.4625 -12.4564 -12.4529 -12.4501 -12.4452
   -12.4398 -12.4385 -12.4367 -12.4327 -12.4315 -12.4254 -12.4223 -12.4167
   -12.4162 -12.4121 -12.4049 -12.4025 -12.3994 -12.3961 -12.3929 -12.3879
   -12.3868 -12.3819 -12.3781 -12.3714 -12.3693 -12.3672 -12.3602 -12.3570
   -12.3539 -12.3514 -12.3478 -12.3431 -12.3411 -12.3356 -12.3317 -12.3297
   -12.3271 -12.3243 -12.3203 -12.3195 -12.3159 -12.3145 -12.3104 -12.3064
   -12.3016 -12.3005 -12.2970 -12.2948 -12.2933 -12.2892 -12.2881 -12.2841
   -12.2828 -12.2810 -12.2794 -12.2754 -12.2744 -12.2715 -12.2700 -12.2686
   -12.2658 -12.2626 -12.2615 -12.2585 -12.2541 -12.2529 -12.2506 -12.2488
   -12.2466 -12.2443 -12.2428 -12.2397 -12.2385 -12.2364 -12.2331 -12.2320
   -12.2284 -12.2279 -12.2253 -12.2220 -12.2212 -12.2176 -12.2166 -12.2140
   -12.2120 -12.2105 -12.2094 -12.2071 -12.2045 -12.2037 -12.2017 -12.2007
   -12.1983 -12.1962 -12.1947 -12.1930 -12.1905 -12.1889 -12.1865 -12.1850
   -12.1839 -12.1820 -12.1787 -12.1773 -12.1770 -12.1729 -12.1701 -12.1686
   -12.1666 -12.1628 -12.1601 -12.1559 -12.1550 -12.1523 -12.1511 -12.1485
   -12.1453 -12.1433 -12.1388 -12.1361 -12.1337 -12.1319 -12.1290 -12.1276
   -12.1251 -12.1238 -12.1202 -12.1184 -12.1160 -12.1136 -12.1101 -12.1090
   -12.1071 -12.1055 -12.1024 -12.1014 -12.0987 -12.0971 -12.0967 -12.0927
   -12.0907 -12.0903 -12.0877 -12.0851 -12.0839 -12.0800 -12.0783 -12.0759
   -12.0734 -12.0718 -12.0703 -12.0678 -12.0643 -12.0633 -12.0600 -12.0579
   -12.0556 -12.0527 -12.0473 -12.0443 -12.0413 -12.0373 -12.0319 -12.0288
   -12.0274 -12.0256 -12.0237 -12.0206 -12.0186 -12.0153 -12.0142 -12.0124
   -12.0089 -12.0078 -12.0038 -12.0010 -11.9998 -11.9982 -11.9971 -11.9963
   -11.9915 -11.9891 -11.9854 -11.9830 -11.9813 -11.9772 -11.9758 -11.9739
   -11.9703 -11.9694 -11.9682 -11.9663 -11.9635 -11.9618 -11.9589 -11.9558
   -11.9528 -11.9486 -11.9418 -11.9407 -11.9373 -11.9310 -11.9189 -11.9146
   -11.9063 -11.8930 -11.8789 -11.8680 -11.8636 -11.8567 -11.8434 -11.8363
   -11.8255 -11.8166 -11.8026 -11.7926 -11.7777 -11.7665 -11.7584 -11.7424
   -11.7033 -11.6822 -11.6623 -11.6390 -11.6015 -11.5545 -11.5259 -11.5021
   -11.4907 -11.4841 -11.4665 -11.4554 -11.4327 -11.4240 -11.4058 -11.3752
   -11.3671 -11.3563 -11.3357 -11.3212 -11.3085 -11.2969 -11.2810 -11.2698
   -11.2626 -11.2302 -11.2262 -11.2072 -11.1963 -11.1893 -11.1731  -5.7308
    -5.7301  -5.6896  -5.6872  -5.6290  -5.6285  -5.6159  -5.6146  -5.4468
    -5.4377  -5.4262  -5.4244  -5.3438  -5.2516  -5.2173  -5.2157  -5.2114
    -5.2048  -5.1521  -5.1069  -5.0566  -5.0089  -4.9878  -4.9655  -4.9572
    -4.9314  -4.9207  -4.8947  -4.8697  -4.8551  -4.8372  -4.8259  -4.7775
    -4.7543  -4.7406  -4.7151  -4.6862  -4.6726  -4.6461  -4.6400  -4.6323
    -4.6145  -4.6002  -4.5736  -4.5591  -4.5430  -4.5285  -4.5070  -4.4880
    -4.4600  -4.4169  -4.3842  -4.3613  -4.3546  -4.2421  -4.2349  -4.1946
    -4.1427  -4.1159  -4.0830  -4.0664  -4.0471  -4.0131  -3.9940  -3.9571
    -3.8900  -3.8567  -3.8037  -3.7151  -3.6793  -3.6698  -3.5948  -3.5706
    -3.5445  -3.5161  -3.4908  -3.4536  -3.4347  -3.3947  -3.3724  -3.3406
    -3.3357  -3.2795  -3.2715  -3.2521  -3.2182  -3.2074  -3.1766  -3.1666
    -3.1310  -3.0976  -3.0557  -3.0477  -3.0085  -2.9951  -2.9865  -2.9721
    -2.9604  -2.9336  -2.9135  -2.8931  -2.8622  -2.8448  -2.8411  -2.8174
    -2.7976  -2.7760  -2.7482  -2.7383  -2.7183  -2.6896  -2.6771  -2.6579
    -2.6239  -2.6093  -2.6043  -2.5813  -2.5643  -2.5503  -2.5361  -2.4996
    -2.4811  -2.4670  -2.4359  -2.4260  -2.4075  -2.3920  -2.3730  -2.3584
    -2.3363  -2.3248  -2.2710  -2.2593  -2.2418  -2.2355  -2.2049  -2.1815
    -2.1634  -2.1467  -2.1291  -2.1174  -2.1045  -2.0929  -2.0684  -2.0410
    -2.0381  -2.0226  -1.9964  -1.9742  -1.9615  -1.9504  -1.9369  -1.9093
    -1.8935  -1.8774  -1.8652  -1.8508  -1.8250  -1.8116  -1.8049  -1.7821
    -1.7616  -1.7409  -1.7337  -1.7206  -1.6972  -1.6904  -1.6497  -1.6412
    -1.6352  -1.6117  -1.6004  -1.5878  -1.5465  -1.5279  -1.5035  -1.4965
    -1.4773  -1.4551  -1.4310  -1.4110  -1.3975  -1.3847  -1.3687  -1.3560
    -1.3442  -1.3302  -1.3213  -1.3010  -1.2928  -1.2728  -1.2530  -1.2517
    -1.2401  -1.2132  -1.1965  -1.1918  -1.1662  -1.1521  -1.1392  -1.1219
    -1.1076  -1.0957  -1.0741  -1.0658  -1.0438  -1.0305  -1.0211  -1.0055
    -0.9921  -0.9789  -0.9730  -0.9590  -0.9430  -0.9312  -0.9210  -0.9066
    -0.8953  -0.8806  -0.8641  -0.8488  -0.8275  -0.8167  -0.8006  -0.7953
    -0.7811  -0.7731  -0.7519  -0.7406  -0.7264  -0.7087  -0.6919  -0.6697
    -0.6499  -0.6464  -0.6208  -0.6162  -0.5982  -0.5959  -0.5800  -0.5690
    -0.5620  -0.5525  -0.5331  -0.5262  -0.5091  -0.4978  -0.4873  -0.4779
    -0.4484  -0.4405  -0.4328  -0.4121  -0.3977  -0.3822  -0.3670  -0.3581
    -0.3527  -0.3460  -0.3411  -0.3377  -0.3247  -0.3210  -0.3027  -0.2897
    -0.2820  -0.2662  -0.2543  -0.2471  -0.2338  -0.2227  -0.2031  -0.1822
    -0.1728  -0.1683  -0.1408  -0.1184  -0.1114  -0.0933  -0.0884  -0.0598
    -0.0565  -0.0494  -0.0463  -0.0236  -0.0227  -0.0023  -0.0005   2.0947
     2.1606   2.2575   2.5472   2.7700   3.0987   3.1440   3.3626   3.5178
     3.5460   3.7764   3.9815   4.0043   4.0445

     the Fermi energy is     2.1432 ev

!    total energy              =  -27385.11287151 Ry
     total all-electron energy =   -693758.075205 Ry
     estimated scf accuracy    <          3.4E-10 Ry
     smearing contrib. (-TS)   =      -0.00619317 Ry
     internal energy E=F+TS    =  -27385.10667835 Ry

     The total energy is F=E-TS. E is the sum of the following terms:
     one-electron contribution = -273309.26166544 Ry
     hartree contribution      =  137437.87822888 Ry
     xc contribution           =   -3322.93438642 Ry
     ewald contribution        =  128330.37450533 Ry
     one-center paw contrib.   =  -16521.16336069 Ry

     convergence has been achieved in  50 iterations

     negative rho (up, down):  8.336E-03 0.000E+00

     Forces acting on atoms (cartesian axes, Ry/au):

     atom    1 type  1   force =     0.00010294    0.00038199   -0.00097028
     atom    2 type  1   force =    -0.00009072   -0.00030806   -0.00100135
     atom    3 type  1   force =    -0.00080458    0.00134215   -0.00314000
     atom    4 type  1   force =    -0.00020706    0.00005465   -0.00101686
     atom    5 type  1   force =    -0.00044798    0.00184270   -0.00277837
     atom    6 type  1   force =     0.00008340    0.00015999   -0.00087407
     atom    7 type  1   force =     0.00003285    0.00076509   -0.00386541
     atom    8 type  1   force =    -0.00034098   -0.00038123   -0.00321811
     atom    9 type  1   force =    -0.00049497   -0.00072733   -0.00166635
     atom   10 type  1   force =     0.00205526   -0.00342339   -0.00095273
     atom   11 type  1   force =    -0.00006775    0.00016119   -0.00104612
     atom   12 type  1   force =     0.00039924   -0.00018508   -0.00245876
     atom   13 type  2   force =    -0.00059067   -0.00038406    0.00039941
     atom   14 type  2   force =     0.00051233    0.00027434    0.00063608
     atom   15 type  2   force =    -0.00414159   -0.00091869    0.00344477
     atom   16 type  2   force =     0.00264398   -0.00116625    0.00070227
     atom   17 type  2   force =     0.00033225   -0.00041786   -0.00029334
     atom   18 type  2   force =     0.00003301   -0.00021514   -0.00035073
     atom   19 type  2   force =    -0.00034126    0.00014633   -0.00008183
     atom   20 type  2   force =    -0.00059299   -0.00040827    0.00191210
     atom   21 type  2   force =    -0.00011164   -0.00068535    0.00062508
     atom   22 type  2   force =     0.00040562    0.00022100    0.00048648
     atom   23 type  2   force =     0.00071099   -0.00067077    0.00044790
     atom   24 type  2   force =    -0.00076884   -0.00152426   -0.00008959
     atom   25 type  2   force =    -0.00034428   -0.00037451    0.00072417
     atom   26 type  2   force =     0.00030725    0.00038969    0.00089856
     atom   27 type  2   force =     0.00203307   -0.00154811   -0.00275819
     atom   28 type  2   force =     0.02974717   -0.02350314    0.03015814
     atom   29 type  2   force =    -0.00010945    0.00002049    0.00045287
     atom   30 type  2   force =    -0.00025092   -0.00030758   -0.00022975
     atom   31 type  2   force =     0.00006899    0.00013173    0.00049309
     atom   32 type  2   force =     0.00030335    0.00023790   -0.00020240
     atom   33 type  2   force =    -0.00075333   -0.00060541    0.00069400
     atom   34 type  2   force =    -0.00974969    0.00005376   -0.00106827
     atom   35 type  2   force =     0.00051141   -0.00068713    0.00051402
     atom   36 type  2   force =     0.00164976   -0.00091498   -0.00074870
     atom   37 type  1   force =     0.00219045   -0.00392728   -0.00557271
     atom   38 type  1   force =    -0.00003961   -0.00155985   -0.00245682
     atom   39 type  1   force =     0.00038282   -0.00046769   -0.00102351
     atom   40 type  1   force =    -0.00321478    0.00568168   -0.00506760
     atom   41 type  1   force =     0.00022780   -0.00008866   -0.00086969
     atom   42 type  1   force =    -0.00401326    0.00022376   -0.00963794
     atom   43 type  1   force =     0.00299153    0.00524026    0.00204182
     atom   44 type  1   force =     0.00100668   -0.00029166   -0.00298676
     atom   45 type  1   force =    -0.00032387   -0.00009947   -0.00101199
     atom   46 type  1   force =     0.00180809    0.00038256   -0.00148598
     atom   47 type  1   force =    -0.00009118   -0.00039197   -0.00177622
     atom   48 type  1   force =     0.00129366    0.00079674   -0.00218890
     atom   49 type  1   force =    -0.00147767    0.00149996   -0.00388005
     atom   50 type  1   force =    -0.00625596   -0.00609808    0.00313153
     atom   51 type  2   force =    -0.00193232    0.00149481    0.00133969
     atom   52 type  2   force =     0.00210883    0.00073922    0.00013640
     atom   53 type  2   force =    -0.00028498    0.00041275    0.00080171
     atom   54 type  2   force =     0.00029541   -0.00035773    0.00078403
     atom   55 type  2   force =    -0.00012042    0.00407700    0.00498695
     atom   56 type  2   force =    -0.04713814   -0.03503860    0.05446742
     atom   57 type  2   force =     0.00034059   -0.00029116    0.00061977
     atom   58 type  2   force =     0.00178169    0.00081980   -0.00033951
     atom   59 type  2   force =     0.03817012    0.04292254    0.04030210
     atom   60 type  2   force =    -0.00080131    0.00066763    0.00086178
     atom   61 type  2   force =    -0.00030641    0.00027526    0.00472438
     atom   62 type  2   force =    -0.00013213    0.00109583    0.00047618
     atom   63 type  2   force =     0.00110137   -0.00005794    0.00909144
     atom   64 type  2   force =     0.00152228    0.00043861    0.00028483
     atom   65 type  2   force =    -0.00039088   -0.00008170    0.00110038
     atom   66 type  2   force =     0.00057412   -0.00025536   -0.00038511
     atom   67 type  2   force =     0.00026531    0.01122178    0.00056477
     atom   68 type  2   force =    -0.00166572    0.00214911    0.00217431
     atom   69 type  2   force =     0.01025405   -0.00178261    0.00218760
     atom   70 type  2   force =    -0.00296600    0.00209553    0.00039165
     atom   71 type  2   force =     0.00131677   -0.00222799   -0.00152678
     atom   72 type  2   force =    -0.00019919    0.00106590    0.00086292
     atom   73 type  2   force =     0.00205922   -0.00486927   -0.00078735
     atom   74 type  2   force =     0.00067702    0.00072366    0.00069706
     atom   75 type  1   force =     0.00080458    0.00134215    0.00314000
     atom   76 type  1   force =     0.00321478    0.00568168    0.00506760
     atom   77 type  1   force =    -0.00010294    0.00038199    0.00097028
     atom   78 type  1   force =     0.00003961   -0.00155985    0.00245682
     atom   79 type  1   force =    -0.00008340    0.00015999    0.00087407
     atom   80 type  1   force =     0.00044798    0.00184270    0.00277837
     atom   81 type  1   force =    -0.00003285    0.00076509    0.00386541
     atom   82 type  1   force =     0.00034098   -0.00038123    0.00321811
     atom   83 type  1   force =    -0.00100668   -0.00029166    0.00298676
     atom   84 type  1   force =    -0.00299153    0.00524026   -0.00204182
     atom   85 type  1   force =     0.00006775    0.00016119    0.00104612
     atom   86 type  1   force =    -0.00205526   -0.00342339    0.00095273
     atom   87 type  3   force =     0.00000000    0.01329270    0.00000000
     atom   88 type  1   force =     0.00000000    0.00133104    0.00000000
     atom   89 type  1   force =     0.00625596   -0.00609808   -0.00313153
     atom   90 type  1   force =     0.00147767    0.00149996    0.00388005
     atom   91 type  2   force =     0.00414159   -0.00091869   -0.00344477
     atom   92 type  2   force =    -0.00264398   -0.00116625   -0.00070227
     atom   93 type  2   force =     0.00059067   -0.00038406   -0.00039941
     atom   94 type  2   force =    -0.00051233    0.00027434   -0.00063608
     atom   95 type  2   force =    -0.00178169    0.00081980    0.00033951
     atom   96 type  2   force =    -0.00034059   -0.00029116   -0.00061977
     atom   97 type  2   force =     0.04713814   -0.03503860   -0.05446742
     atom   98 type  2   force =     0.00012042    0.00407700   -0.00498695
     atom   99 type  2   force =    -0.00040562    0.00022100   -0.00048648
     atom  100 type  2   force =     0.00011164   -0.00068535   -0.00062508
     atom  101 type  2   force =     0.00076884   -0.00152426    0.00008959
     atom  102 type  2   force =    -0.00071099   -0.00067077   -0.00044790
     atom  103 type  2   force =    -0.00203307   -0.00154811    0.00275819
     atom  104 type  2   force =    -0.02974717   -0.02350314   -0.03015814
     atom  105 type  2   force =     0.00034428   -0.00037451   -0.00072417
     atom  106 type  2   force =    -0.00030725    0.00038969   -0.00089856
     atom  107 type  2   force =     0.00296600    0.00209553   -0.00039165
     atom  108 type  2   force =    -0.01025405   -0.00178261   -0.00218760
     atom  109 type  2   force =     0.00166572    0.00214911   -0.00217431
     atom  110 type  2   force =    -0.00026531    0.01122178   -0.00056477
     atom  111 type  2   force =     0.00974969    0.00005376    0.00106827
     atom  112 type  2   force =     0.00075333   -0.00060541   -0.00069400
     atom  113 type  2   force =    -0.00164976   -0.00091498    0.00074870
     atom  114 type  2   force =    -0.00051141   -0.00068713   -0.00051402
     atom  115 type  1   force =    -0.00038282   -0.00046769    0.00102351
     atom  116 type  1   force =     0.00020706    0.00005465    0.00101686
     atom  117 type  1   force =    -0.00219045   -0.00392728    0.00557271
     atom  118 type  1   force =     0.00009072   -0.00030806    0.00100135
     atom  119 type  1   force =     0.00401326    0.00022376    0.00963794
     atom  120 type  1   force =    -0.00022780   -0.00008866    0.00086969
     atom  121 type  1   force =     0.00000000    0.00016105    0.00000000
     atom  122 type  1   force =     0.00000000   -0.00066765    0.00000000
     atom  123 type  1   force =     0.00049497   -0.00072733    0.00166635
     atom  124 type  1   force =    -0.00180809    0.00038256    0.00148598
     atom  125 type  1   force =     0.00032387   -0.00009947    0.00101199
     atom  126 type  1   force =     0.00009118   -0.00039197    0.00177622
     atom  127 type  1   force =    -0.00129366    0.00079674    0.00218890
     atom  128 type  1   force =    -0.00039924   -0.00018508    0.00245876
     atom  129 type  2   force =     0.00028498    0.00041275   -0.00080171
     atom  130 type  2   force =    -0.00029541   -0.00035773   -0.00078403
     atom  131 type  2   force =     0.00193232    0.00149481   -0.00133969
     atom  132 type  2   force =    -0.00210883    0.00073922   -0.00013640
     atom  133 type  2   force =     0.00059299   -0.00040827   -0.00191210
     atom  134 type  2   force =     0.00034126    0.00014633    0.00008183
     atom  135 type  2   force =    -0.00003301   -0.00021514    0.00035073
     atom  136 type  2   force =    -0.00033225   -0.00041786    0.00029334
     atom  137 type  2   force =     0.00080131    0.00066763   -0.00086178
     atom  138 type  2   force =    -0.03817012    0.04292254   -0.04030210
     atom  139 type  2   force =     0.00013213    0.00109583   -0.00047618
     atom  140 type  2   force =     0.00030641    0.00027526   -0.00472438
     atom  141 type  2   force =     0.00039088   -0.00008170   -0.00110038
     atom  142 type  2   force =    -0.00057412   -0.00025536    0.00038511
     atom  143 type  2   force =    -0.00110137   -0.00005794   -0.00909144
     atom  144 type  2   force =    -0.00152228    0.00043861   -0.00028483
     atom  145 type  2   force =    -0.00030335    0.00023790    0.00020240
     atom  146 type  2   force =    -0.00006899    0.00013173   -0.00049309
     atom  147 type  2   force =     0.00025092   -0.00030758    0.00022975
     atom  148 type  2   force =     0.00010945    0.00002049   -0.00045287
     atom  149 type  2   force =     0.00019919    0.00106590   -0.00086292
     atom  150 type  2   force =    -0.00131677   -0.00222799    0.00152678
     atom  151 type  2   force =    -0.00067702    0.00072366   -0.00069706
     atom  152 type  2   force =    -0.00205922   -0.00486927    0.00078735
     atom  153 type  4   force =    -0.00006624    0.00006258   -0.00016852
     atom  154 type  4   force =     0.00005915   -0.00003370   -0.00021447
     atom  155 type  4   force =    -0.00010854   -0.00018891   -0.00065163
     atom  156 type  4   force =     0.00001823    0.00012797   -0.00074664
     atom  157 type  4   force =    -0.00004717   -0.00013320   -0.00078398
     atom  158 type  4   force =     0.00005226    0.00004809   -0.00019670
     atom  159 type  4   force =    -0.00002971   -0.00003792   -0.00019264
     atom  160 type  4   force =     0.00011649   -0.00013476   -0.00065111
     atom  161 type  4   force =     0.00005401   -0.00009984   -0.00076168
     atom  162 type  4   force =     0.00000676    0.00010331   -0.00071060
     atom  163 type  4   force =     0.00015163    0.00010603   -0.00067706
     atom  164 type  4   force =    -0.00016756    0.00015805   -0.00067463
     atom  165 type  4   force =     0.00010854   -0.00018891    0.00065163
     atom  166 type  4   force =    -0.00001823    0.00012797    0.00074664
     atom  167 type  4   force =     0.00004717   -0.00013320    0.00078398
     atom  168 type  4   force =    -0.00011649   -0.00013476    0.00065111
     atom  169 type  4   force =    -0.00005401   -0.00009984    0.00076168
     atom  170 type  4   force =    -0.00000676    0.00010331    0.00071060
     atom  171 type  4   force =    -0.00005915   -0.00003370    0.00021447
     atom  172 type  4   force =     0.00006624    0.00006258    0.00016852
     atom  173 type  4   force =    -0.00015163    0.00010603    0.00067706
     atom  174 type  4   force =     0.00002971   -0.00003792    0.00019264
     atom  175 type  4   force =    -0.00005226    0.00004809    0.00019670
     atom  176 type  4   force =     0.00016756    0.00015805    0.00067463

     Total force =     0.172775     Total SCF correction =     0.000079


     Computing stress (Cartesian axis) and pressure


     negative rho (up, down):  8.336E-03 0.000E+00
          total   stress  (Ry/bohr**3)                   (kbar)     P=       -0.11
   0.00000103   0.00000000  -0.00000107            0.15        0.00       -0.16
   0.00000000   0.00000640   0.00000000            0.00        0.94        0.00
  -0.00000107   0.00000000  -0.00000971           -0.16        0.00       -1.43

     Energy error            =      5.6E-02 Ry
     Gradient error          =      5.4E-02 Ry/Bohr

     number of scf cycles    =   3
     number of bfgs steps    =   2

     energy             old  =  -27385.0564895374 Ry
     energy             new  =  -27385.1128715130 Ry

     CASE: energy            _new < energy            _old

     new trust radius        =       0.1834620127 bohr
     new conv_thr            =       0.0000000005 Ry


ATOMIC_POSITIONS (crystal)
In               0.2475723173        0.2526409132        0.3285494472
In               0.7524148101        0.2474467995        0.3285395203
In               0.2503266666        0.2506038612        0.4426692919
In               0.2523986435        0.7525122282        0.3285542677
In               0.4661054216        0.5002048239        0.4426430447
In               0.0359520841        0.5024695847        0.3288215092
In               0.7511652454        0.4656623075        0.3854981565
In               0.2488039020        0.0343447528        0.3855142456
In               0.4996595570        0.7496535579        0.3780954216
In               0.0357998546       -0.0020099255        0.4424689181
In               0.4640284360        0.0024581946        0.3288044892
In               0.0001126590        0.2500752789        0.3780609220
O                0.3890369084        0.1564896621        0.3584141754
O                0.6109988093        0.3434274968        0.3584227535
O                0.1093864221        0.1546069437        0.4131662565
O                0.8899760827        0.3446351951        0.4130619577
O                0.3811189338        0.3938532192        0.3068842288
O                0.3837703665        0.6103859715        0.3508921582
O                0.6188832029        0.1060988716        0.3068952622
O                0.6162112336        0.8895550454        0.3510056366
O                0.1548329848        0.3832251203        0.3610032170
O                0.3462297866        0.3822622649        0.4110487193
O                0.1838813124        0.6028545193        0.2984501304
O                0.3456990661        0.6177038575        0.4748451774
O                0.0990404548        0.3425749191        0.3005889714
O                0.9009434649        0.1574147497        0.3005972651
O                0.3906359825        0.3448607683        0.4730603278
O                0.6190336496        0.1471091482        0.4749772634
O                0.1162323093        0.1104055459        0.3509392657
O                0.1188820756        0.8938827424        0.3068879232
O                0.8837227840        0.3895889615        0.3509404004
O                0.8811060370        0.6061256238        0.3068890940
O                0.3161201067        0.1028659583        0.2984594150
O                0.1521278826        0.1177698198        0.4748206619
O                0.3452260167        0.8833057613        0.3610056893
O                0.1539974261        0.8823238985        0.4110233762
In               0.7514896312        0.7476049086        0.4422543348
In               0.2495715648        0.7493822826        0.4426836188
In               0.7476240625        0.7473234942        0.3285376325
In               0.7489214710        0.2530933846        0.4421525272
In               0.9641742449       -0.0024404464        0.3288069723
In               0.5309922552        0.0001250226        0.4419116713
In               0.0026781740        0.2530175039        0.4923425671
In               0.0004143293        0.7496787379        0.3930812369
In               0.5358087925        0.4975802911        0.3288134935
In               0.9671816486        0.5003092063        0.4426604655
In               0.2511725501        0.5344845032        0.3856131643
In               0.7490930415        0.9655397951        0.3854561245
In               0.4994931866        0.2504809870        0.3930350196
In               0.4971974614        0.7474534736        0.4925351775
O                0.8892576686        0.6551483196        0.4732186470
O                0.1100560945        0.8459626646        0.4731570605
O                0.5990599735        0.6574321311        0.3005923945
O                0.4009589886        0.8425900331        0.3005925141
O                0.8821127678        0.8907771895        0.4210897107
O                0.8688608778        0.1018939008        0.4680561583
O                0.1176599396        0.6102955899        0.4208028886
O                0.1178580209        0.3899322638        0.4647878138
O                0.6647686142        0.8955945125        0.4774097542
O                0.8161141422        0.8971369935        0.2984653102
O                0.6540308740        0.1176125654        0.4113589650
O                0.8450396253        0.1167352653        0.3610261511
O                0.6107532496        0.8453510365        0.4134585506
O                0.3900154146        0.6550490198        0.4129736299
O                0.8890077029        0.8434551643        0.3584537168
O                0.1109645248        0.6565480379        0.3583668774
O                0.6181523309        0.6122986497        0.4648409827
O                0.6175847737        0.3897377140        0.4209212398
O                0.3845687395        0.8900452189        0.4648992193
O                0.3821415861        0.1105221107        0.4208505365
O                0.8462065489        0.6174651716        0.4110088590
O                0.6548724443        0.6168038104        0.3610202578
O                0.8458922357        0.3806393745        0.4748317226
O                0.6838729785        0.3971435132        0.2984592030
In               0.2496733334        0.2506038612        0.5573307084
In               0.7510785290        0.2530933846        0.5578474731
In               0.2524276827        0.2526409132        0.6714505528
In               0.2504284352        0.7493822826        0.5573163815
In               0.4640479159        0.5024695847        0.6711784908
In               0.0338945784        0.5002048239        0.5573569555
In               0.7488347546        0.4656623075        0.6145018435
In               0.2511960980        0.0343447528        0.6144857544
In               0.4995856707        0.7496787379        0.6069187631
In               0.4973218260        0.2530175039        0.5076574329
In               0.0359715640        0.0024581946        0.6711955108
In               0.4642001454       -0.0020099255        0.5575310821
W                0.7500000000        0.0349178762        0.5000000001
In               0.2500000000        0.4669274018        0.5000000001
In               0.0028025386        0.7474534736        0.5074648225
In               0.0005068134        0.2504809870        0.6069649804
O                0.3906135789        0.1546069437        0.5868337437
O                0.6100239183        0.3446351951        0.5869380425
O                0.1109630916        0.1564896621        0.6415858246
O                0.8890011907        0.3434274968        0.6415772465
O                0.3821419791        0.3899322638        0.5352121862
O                0.3823400613        0.6102955899        0.5791971114
O                0.6311391222        0.1018939008        0.5319438417
O                0.6178872331        0.8907771895        0.5789102893
O                0.1537702134        0.3822622649        0.5889512807
O                0.3451670152        0.3832251203        0.6389967830
O                0.1543009339        0.6177038575        0.5251548226
O                0.3161186876        0.6028545193        0.7015498698
O                0.1093640185        0.3448607683        0.5269396727
O                0.8809663514        0.1471091482        0.5250227371
O                0.4009595461        0.3425749191        0.6994110286
O                0.5990565360        0.1574147497        0.6994027349
O                0.1178584148        0.1105221107        0.5791494635
O                0.1154312605        0.8900452189        0.5351007807
O                0.8824152272        0.3897377140        0.5790787602
O                0.8818476691        0.6122986497        0.5351590173
O                0.3478721174        0.1177698198        0.5251793381
O                0.1838798933        0.1028659583        0.7015405852
O                0.3460025739        0.8823238985        0.5889766238
O                0.1547739833        0.8833057613        0.6389943107
In               0.7523759375        0.7473234942        0.6714623675
In               0.2476013565        0.7525122282        0.6714457323
In               0.7485103688        0.7476049086        0.5577456655
In               0.7475851899        0.2474467995        0.6714604797
In               0.9690077448        0.0001250226        0.5580883289
In               0.5358257541       -0.0024404464        0.6711930277
In               0.2500000000        0.9662665299        0.5000000001
In               0.7500000000        0.5334697377        0.5000000001
In               0.0003404430        0.7496535579        0.6219045784
In               0.5328183514        0.5003092063        0.5573395347
In               0.9641912065        0.4975802911        0.6711865065
In               0.2488274499        0.5344845032        0.6143868357
In               0.7509069585        0.9655397951        0.6145438755
In               0.4998873410        0.2500752789        0.6219390780
O                0.9009400274        0.6574321311        0.6994076055
O                0.0990410123        0.8425900331        0.6994074859
O                0.6107423324        0.6551483196        0.5267813535
O                0.3899439065        0.8459626646        0.5268429400
O                0.8837887664        0.8895550454        0.6489943634
O                0.8811167971        0.1060988716        0.6931047378
O                0.1162296335        0.6103859715        0.6491078418
O                0.1188810662        0.3938532192        0.6931157712
O                0.6838858578        0.8971369935        0.7015346900
O                0.8352313858        0.8955945125        0.5225902458
O                0.6549603747        0.1167352653        0.6389738489
O                0.8459691260        0.1176125654        0.5886410350
O                0.6109922971        0.8434551643        0.6415462832
O                0.3890354752        0.6565480379        0.6416331226
O                0.8892467514        0.8453510365        0.5865414496
O                0.1099845864        0.6550490198        0.5870263703
O                0.6188939630        0.6061256238        0.6931109060
O                0.6162772160        0.3895889615        0.6490595996
O                0.3811179244        0.8938827424        0.6931120768
O                0.3837676907        0.1104055459        0.6490607343
O                0.8451275557        0.6168038104        0.6389797422
O                0.6537934511        0.6174651716        0.5889911410
O                0.8161270215        0.3971435132        0.7015407972
O                0.6541077643        0.3806393745        0.5251682774
H                0.3223063827        0.4635605924        0.3002896187
H                0.6776989274        0.0364404305        0.3002857252
H                0.1357364960        0.6468883309        0.2828212402
H                0.1377338188        0.3798916139        0.2828722143
H                0.8622659510        0.1201124595        0.2828731534
H                0.1776943999        0.9635628221        0.3002873358
H                0.8223050478        0.5364419035        0.3002873826
H                0.3642586162        0.1468945995        0.2828231969
H                0.6377393724        0.6201166093        0.2828722150
H                0.3622708391        0.8798893473        0.2828729082
H                0.8642599960        0.8531062643        0.2828245095
H                0.6357320202        0.3531124264        0.2828227346
H                0.3642635040        0.6468883309        0.7171787598
H                0.3622661812        0.3798916139        0.7171277857
H                0.6377340490        0.1201124595        0.7171268466
H                0.1357413838        0.1468945995        0.7171768031
H                0.8622606276        0.6201166093        0.7171277850
H                0.1377291609        0.8798893473        0.7171270918
H                0.8223010716        0.0364404305        0.6997142748
H                0.1776936163        0.4635605924        0.6997103813
H                0.6357400030        0.8531062643        0.7171754905
H                0.6776949512        0.5364419035        0.6997126174
H                0.3223055991        0.9635628221        0.6997126642
H                0.8642679788        0.3531124264        0.7171772654



     Writing config-only to output data dir ./tmp/rel.save/ :
     XML data file
     NEW-OLD atomic charge density approx. for the potential

     negative rho (up, down):  8.085E-03 0.000E+00

     total cpu time spent up to now is     7057.1 secs

     Self-consistent Calculation

     iteration #  1     ecut=    71.00 Ry     beta= 0.20
     Davidson diagonalization with overlap
     c_bands:  1 eigenvalues not converged
     c_bands:  1 eigenvalues not converged
     c_bands:  2 eigenvalues not converged
     ethr =  1.00E-06,  avg # of iterations = 19.3

     negative rho (up, down):  2.356E-02 0.000E+00

     total cpu time spent up to now is     7132.9 secs

     total energy              =  -27385.09924523 Ry
     estimated scf accuracy    <       0.31183755 Ry

     iteration #  2     ecut=    71.00 Ry     beta= 0.20
     Davidson diagonalization with overlap
     ethr =  2.35E-05,  avg # of iterations =  1.0

     negative rho (up, down):  1.975E-01 0.000E+00

     total cpu time spent up to now is     7165.0 secs

     total energy              =  -27385.10205376 Ry
     estimated scf accuracy    <       0.20371214 Ry

     iteration #  3     ecut=    71.00 Ry     beta= 0.20
     Davidson diagonalization with overlap
     ethr =  1.53E-05,  avg # of iterations =  4.3

     negative rho (up, down):  1.354E-01 0.000E+00

     total cpu time spent up to now is     7199.8 secs

     total energy              =  -27385.13821498 Ry
     estimated scf accuracy    <       0.01127417 Ry

     iteration #  4     ecut=    71.00 Ry     beta= 0.20
     Davidson diagonalization with overlap
     ethr =  8.48E-07,  avg # of iterations = 12.5

     negative rho (up, down):  1.080E-01 0.000E+00

     total cpu time spent up to now is     7239.1 secs

     total energy              =  -27385.14445890 Ry
     estimated scf accuracy    <       0.01128810 Ry

     iteration #  5     ecut=    71.00 Ry     beta= 0.20
     Davidson diagonalization with overlap
     ethr =  8.48E-07,  avg # of iterations =  2.0

     negative rho (up, down):  4.577E-02 0.000E+00

     total cpu time spent up to now is     7272.1 secs

     total energy              =  -27385.15101213 Ry
     estimated scf accuracy    <       0.00583988 Ry

     iteration #  6     ecut=    71.00 Ry     beta= 0.20
     Davidson diagonalization with overlap
     ethr =  4.39E-07,  avg # of iterations =  9.0

     negative rho (up, down):  4.808E-02 0.000E+00

     total cpu time spent up to now is     7308.1 secs

     total energy              =  -27385.15265323 Ry
     estimated scf accuracy    <       0.00413459 Ry

     iteration #  7     ecut=    71.00 Ry     beta= 0.20
     Davidson diagonalization with overlap
     ethr =  3.11E-07,  avg # of iterations =  1.0

     negative rho (up, down):  2.030E-02 0.000E+00

     total cpu time spent up to now is     7340.3 secs

     total energy              =  -27385.16048671 Ry
     estimated scf accuracy    <       0.00495057 Ry

     iteration #  8     ecut=    71.00 Ry     beta= 0.20
     Davidson diagonalization with overlap
     ethr =  3.11E-07,  avg # of iterations =  7.5

     negative rho (up, down):  1.916E-02 0.000E+00

     total cpu time spent up to now is     7377.0 secs

     total energy              =  -27385.16444040 Ry
     estimated scf accuracy    <       0.00301307 Ry

     iteration #  9     ecut=    71.00 Ry     beta= 0.20
     Davidson diagonalization with overlap
     ethr =  2.27E-07,  avg # of iterations =  5.0

     negative rho (up, down):  2.031E-02 0.000E+00

     total cpu time spent up to now is     7411.2 secs

     total energy              =  -27385.16643307 Ry
     estimated scf accuracy    <       0.00251910 Ry

     iteration # 10     ecut=    71.00 Ry     beta= 0.20
     Davidson diagonalization with overlap
     ethr =  1.90E-07,  avg # of iterations =  4.0

     negative rho (up, down):  1.986E-02 0.000E+00

     total cpu time spent up to now is     7445.5 secs

     total energy              =  -27385.16742370 Ry
     estimated scf accuracy    <       0.00121151 Ry

     iteration # 11     ecut=    71.00 Ry     beta= 0.20
     Davidson diagonalization with overlap
     ethr =  9.12E-08,  avg # of iterations =  9.5

     negative rho (up, down):  2.113E-02 0.000E+00

     total cpu time spent up to now is     7483.3 secs

     total energy              =  -27385.16778945 Ry
     estimated scf accuracy    <       0.00011708 Ry

     iteration # 12     ecut=    71.00 Ry     beta= 0.20
     Davidson diagonalization with overlap
     ethr =  8.81E-09,  avg # of iterations = 12.5

     negative rho (up, down):  2.002E-02 0.000E+00

     total cpu time spent up to now is     7530.2 secs

     total energy              =  -27385.16791860 Ry
     estimated scf accuracy    <       0.00020479 Ry

     iteration # 13     ecut=    71.00 Ry     beta= 0.20
     Davidson diagonalization with overlap
     ethr =  8.81E-09,  avg # of iterations =  1.5

     negative rho (up, down):  1.688E-02 0.000E+00

     total cpu time spent up to now is     7563.0 secs

     total energy              =  -27385.16775609 Ry
     estimated scf accuracy    <       0.00016668 Ry

     iteration # 14     ecut=    71.00 Ry     beta= 0.20
     Davidson diagonalization with overlap
     ethr =  8.81E-09,  avg # of iterations = 12.5

     negative rho (up, down):  1.712E-02 0.000E+00

     total cpu time spent up to now is     7608.7 secs

     total energy              =  -27385.16792337 Ry
     estimated scf accuracy    <       0.00010878 Ry

     iteration # 15     ecut=    71.00 Ry     beta= 0.20
     Davidson diagonalization with overlap
     ethr =  8.19E-09,  avg # of iterations =  2.0

     negative rho (up, down):  1.688E-02 0.000E+00

     total cpu time spent up to now is     7642.3 secs

     total energy              =  -27385.16793595 Ry
     estimated scf accuracy    <       0.00004488 Ry

     iteration # 16     ecut=    71.00 Ry     beta= 0.20
     Davidson diagonalization with overlap
     ethr =  3.38E-09,  avg # of iterations =  8.0

     negative rho (up, down):  1.660E-02 0.000E+00

     total cpu time spent up to now is     7679.7 secs

     total energy              =  -27385.16794788 Ry
     estimated scf accuracy    <       0.00001668 Ry

     iteration # 17     ecut=    71.00 Ry     beta= 0.20
     Davidson diagonalization with overlap
     ethr =  1.26E-09,  avg # of iterations =  3.5

     negative rho (up, down):  1.655E-02 0.000E+00

     total cpu time spent up to now is     7713.6 secs

     total energy              =  -27385.16795338 Ry
     estimated scf accuracy    <       0.00001150 Ry

     iteration # 18     ecut=    71.00 Ry     beta= 0.20
     Davidson diagonalization with overlap
     ethr =  8.65E-10,  avg # of iterations =  3.0

     negative rho (up, down):  1.651E-02 0.000E+00

     total cpu time spent up to now is     7747.2 secs

     total energy              =  -27385.16795472 Ry
     estimated scf accuracy    <       0.00000396 Ry

     iteration # 19     ecut=    71.00 Ry     beta= 0.20
     Davidson diagonalization with overlap
     ethr =  2.98E-10,  avg # of iterations =  9.0

     negative rho (up, down):  1.647E-02 0.000E+00

     total cpu time spent up to now is     7788.1 secs

     total energy              =  -27385.16795784 Ry
     estimated scf accuracy    <       0.00000156 Ry

     iteration # 20     ecut=    71.00 Ry     beta= 0.20
     Davidson diagonalization with overlap
     ethr =  1.17E-10,  avg # of iterations =  3.5

     negative rho (up, down):  1.650E-02 0.000E+00

     total cpu time spent up to now is     7822.2 secs

     total energy              =  -27385.16795774 Ry
     estimated scf accuracy    <       0.00000120 Ry

     iteration # 21     ecut=    71.00 Ry     beta= 0.20
     Davidson diagonalization with overlap
     ethr =  8.99E-11,  avg # of iterations = 12.0

     negative rho (up, down):  1.640E-02 0.000E+00

     total cpu time spent up to now is     7863.2 secs

     total energy              =  -27385.16795806 Ry
     estimated scf accuracy    <       0.00000279 Ry

     iteration # 22     ecut=    71.00 Ry     beta= 0.20
     Davidson diagonalization with overlap
     ethr =  8.99E-11,  avg # of iterations =  7.0

     negative rho (up, down):  1.644E-02 0.000E+00

     total cpu time spent up to now is     7902.5 secs

     total energy              =  -27385.16795843 Ry
     estimated scf accuracy    <       0.00000046 Ry

     iteration # 23     ecut=    71.00 Ry     beta= 0.20
     Davidson diagonalization with overlap
     ethr =  3.49E-11,  avg # of iterations =  5.8

     negative rho (up, down):  1.643E-02 0.000E+00

     total cpu time spent up to now is     7938.0 secs

     total energy              =  -27385.16795881 Ry
     estimated scf accuracy    <       0.00000059 Ry

     iteration # 24     ecut=    71.00 Ry     beta= 0.20
     Davidson diagonalization with overlap
     ethr =  3.49E-11,  avg # of iterations =  4.0

     negative rho (up, down):  1.636E-02 0.000E+00

     total cpu time spent up to now is     7972.1 secs

     total energy              =  -27385.16795853 Ry
     estimated scf accuracy    <       0.00000053 Ry

     iteration # 25     ecut=    71.00 Ry     beta= 0.20
     Davidson diagonalization with overlap
     ethr =  3.49E-11,  avg # of iterations = 10.3

     negative rho (up, down):  1.635E-02 0.000E+00

     total cpu time spent up to now is     8015.2 secs

     total energy              =  -27385.16795884 Ry
     estimated scf accuracy    <       0.00000045 Ry

     iteration # 26     ecut=    71.00 Ry     beta= 0.20
     Davidson diagonalization with overlap
     ethr =  3.39E-11,  avg # of iterations =  2.0

     negative rho (up, down):  1.634E-02 0.000E+00

     total cpu time spent up to now is     8048.3 secs

     total energy              =  -27385.16795888 Ry
     estimated scf accuracy    <       0.00000044 Ry

     iteration # 27     ecut=    71.00 Ry     beta= 0.20
     Davidson diagonalization with overlap
     ethr =  3.30E-11,  avg # of iterations =  2.0

     negative rho (up, down):  1.635E-02 0.000E+00

     total cpu time spent up to now is     8081.5 secs

     total energy              =  -27385.16795904 Ry
     estimated scf accuracy    <       0.00000043 Ry

     iteration # 28     ecut=    71.00 Ry     beta= 0.20
     Davidson diagonalization with overlap
     ethr =  3.23E-11,  avg # of iterations =  2.5

     negative rho (up, down):  1.637E-02 0.000E+00

     total cpu time spent up to now is     8115.4 secs

     total energy              =  -27385.16795909 Ry
     estimated scf accuracy    <       0.00000035 Ry

     iteration # 29     ecut=    71.00 Ry     beta= 0.20
     Davidson diagonalization with overlap
     ethr =  2.61E-11,  avg # of iterations =  5.5

     negative rho (up, down):  1.637E-02 0.000E+00

     total cpu time spent up to now is     8149.6 secs

     total energy              =  -27385.16795911 Ry
     estimated scf accuracy    <       0.00000011 Ry

     iteration # 30     ecut=    71.00 Ry     beta= 0.20
     Davidson diagonalization with overlap
     ethr =  8.46E-12,  avg # of iterations =  8.0

     negative rho (up, down):  1.637E-02 0.000E+00

     total cpu time spent up to now is     8186.0 secs

     total energy              =  -27385.16795913 Ry
     estimated scf accuracy    <       0.00000006 Ry

     iteration # 31     ecut=    71.00 Ry     beta= 0.20
     Davidson diagonalization with overlap
     ethr =  4.44E-12,  avg # of iterations =  6.0

     negative rho (up, down):  1.637E-02 0.000E+00

     total cpu time spent up to now is     8220.5 secs

     total energy              =  -27385.16795918 Ry
     estimated scf accuracy    <       0.00000004 Ry

     iteration # 32     ecut=    71.00 Ry     beta= 0.20
     Davidson diagonalization with overlap
     ethr =  2.69E-12,  avg # of iterations = 13.3

     negative rho (up, down):  1.636E-02 0.000E+00

     total cpu time spent up to now is     8262.2 secs

     total energy              =  -27385.16795919 Ry
     estimated scf accuracy    <       0.00000008 Ry

     iteration # 33     ecut=    71.00 Ry     beta= 0.20
     Davidson diagonalization with overlap
     ethr =  2.69E-12,  avg # of iterations =  8.0

     negative rho (up, down):  1.636E-02 0.000E+00

     total cpu time spent up to now is     8297.7 secs

     total energy              =  -27385.16795921 Ry
     estimated scf accuracy    <       0.00000004 Ry

     iteration # 34     ecut=    71.00 Ry     beta= 0.20
     Davidson diagonalization with overlap
     ethr =  2.69E-12,  avg # of iterations =  7.5

     negative rho (up, down):  1.636E-02 0.000E+00

     total cpu time spent up to now is     8336.2 secs

     total energy              =  -27385.16795922 Ry
     estimated scf accuracy    <       0.00000002 Ry

     iteration # 35     ecut=    71.00 Ry     beta= 0.20
     Davidson diagonalization with overlap
     ethr =  1.47E-12,  avg # of iterations =  7.0

     negative rho (up, down):  1.635E-02 0.000E+00

     total cpu time spent up to now is     8375.6 secs

     total energy              =  -27385.16795916 Ry
     estimated scf accuracy    <       0.00000001 Ry

     iteration # 36     ecut=    71.00 Ry     beta= 0.20
     Davidson diagonalization with overlap
     ethr =  7.64E-13,  avg # of iterations =  8.5

     negative rho (up, down):  1.635E-02 0.000E+00

     total cpu time spent up to now is     8412.6 secs

     total energy              =  -27385.16795918 Ry
     estimated scf accuracy    <          6.8E-09 Ry

     iteration # 37     ecut=    71.00 Ry     beta= 0.20
     Davidson diagonalization with overlap
     ethr =  5.11E-13,  avg # of iterations =  7.3

     negative rho (up, down):  1.634E-02 0.000E+00

     total cpu time spent up to now is     8448.8 secs

     total energy              =  -27385.16795920 Ry
     estimated scf accuracy    <          3.6E-09 Ry

     iteration # 38     ecut=    71.00 Ry     beta= 0.20
     Davidson diagonalization with overlap
     ethr =  2.72E-13,  avg # of iterations = 11.5

     negative rho (up, down):  1.635E-02 0.000E+00

     total cpu time spent up to now is     8489.3 secs

     total energy              =  -27385.16795921 Ry
     estimated scf accuracy    <          4.4E-09 Ry

     iteration # 39     ecut=    71.00 Ry     beta= 0.20
     Davidson diagonalization with overlap
     ethr =  2.72E-13,  avg # of iterations =  6.3

     negative rho (up, down):  1.634E-02 0.000E+00

     total cpu time spent up to now is     8524.1 secs

     total energy              =  -27385.16795921 Ry
     estimated scf accuracy    <          2.1E-09 Ry

     iteration # 40     ecut=    71.00 Ry     beta= 0.20
     Davidson diagonalization with overlap
     ethr =  1.58E-13,  avg # of iterations =  4.0

     negative rho (up, down):  1.633E-02 0.000E+00

     total cpu time spent up to now is     8557.9 secs

     total energy              =  -27385.16795923 Ry
     estimated scf accuracy    <          1.8E-09 Ry

     iteration # 41     ecut=    71.00 Ry     beta= 0.20
     Davidson diagonalization with overlap
     ethr =  1.36E-13,  avg # of iterations =  8.8

     negative rho (up, down):  1.633E-02 0.000E+00

     total cpu time spent up to now is     8595.1 secs

     total energy              =  -27385.16795916 Ry
     estimated scf accuracy    <          2.1E-09 Ry

     iteration # 42     ecut=    71.00 Ry     beta= 0.20
     Davidson diagonalization with overlap
     ethr =  1.36E-13,  avg # of iterations =  2.0

     negative rho (up, down):  1.633E-02 0.000E+00

     total cpu time spent up to now is     8628.3 secs

     total energy              =  -27385.16795919 Ry
     estimated scf accuracy    <          1.4E-09 Ry

     iteration # 43     ecut=    71.00 Ry     beta= 0.20
     Davidson diagonalization with overlap
     ethr =  1.02E-13,  avg # of iterations =  2.0

     negative rho (up, down):  1.633E-02 0.000E+00

     total cpu time spent up to now is     8661.5 secs

     total energy              =  -27385.16795919 Ry
     estimated scf accuracy    <          1.3E-09 Ry

     iteration # 44     ecut=    71.00 Ry     beta= 0.20
     Davidson diagonalization with overlap
     ethr =  1.00E-13,  avg # of iterations =  2.0

     negative rho (up, down):  1.633E-02 0.000E+00

     total cpu time spent up to now is     8694.8 secs

     total energy              =  -27385.16795918 Ry
     estimated scf accuracy    <          1.0E-09 Ry

     iteration # 45     ecut=    71.00 Ry     beta= 0.20
     Davidson diagonalization with overlap
     ethr =  1.00E-13,  avg # of iterations =  2.0

     negative rho (up, down):  1.633E-02 0.000E+00

     total cpu time spent up to now is     8728.0 secs

     total energy              =  -27385.16795921 Ry
     estimated scf accuracy    <          9.1E-10 Ry

     iteration # 46     ecut=    71.00 Ry     beta= 0.20
     Davidson diagonalization with overlap
     ethr =  1.00E-13,  avg # of iterations =  7.0

     negative rho (up, down):  1.632E-02 0.000E+00

     total cpu time spent up to now is     8764.0 secs

     total energy              =  -27385.16795920 Ry
     estimated scf accuracy    <          9.0E-10 Ry

     iteration # 47     ecut=    71.00 Ry     beta= 0.20
     Davidson diagonalization with overlap
     ethr =  1.00E-13,  avg # of iterations =  6.0

     negative rho (up, down):  1.631E-02 0.000E+00

     total cpu time spent up to now is     8797.9 secs

     End of self-consistent calculation

          k = 0.0000 0.0000 0.0000 (327585 PWs)   bands (ev):

   -74.6441 -38.8593 -38.7707 -38.6613 -18.1882 -18.1881 -18.0726 -18.0726
   -18.0445 -18.0445 -17.9959 -17.9959 -17.9181 -17.8445 -17.8445 -17.7796
   -17.7796 -17.7528 -17.7528 -17.6952 -17.6952 -17.6940 -17.6940 -17.6696
   -17.6696 -17.6056 -17.6056 -17.5974 -17.5974 -17.3827 -17.3527 -17.3337
   -17.2444 -17.1736 -17.1082 -17.1033 -17.0871 -17.0532 -17.0228 -17.0062
   -16.9886 -16.9773 -16.9558 -16.9425 -16.9295 -16.9223 -16.9217 -16.9030
   -16.8641 -16.8536 -16.8370 -16.8230 -16.8215 -16.8061 -16.7971 -16.7775
   -16.7765 -16.7644 -16.7601 -16.7549 -16.7268 -16.6793 -16.6788 -16.6680
   -16.6656 -16.6539 -16.6398 -16.6342 -16.6252 -16.6220 -16.6071 -16.6055
   -16.5956 -16.5862 -16.5834 -16.5784 -16.5741 -16.5528 -16.5445 -16.5401
   -16.5262 -16.5141 -16.4977 -16.4884 -16.4559 -16.4555 -16.4525 -16.4471
   -16.4287 -16.4228 -16.4043 -16.4024 -16.3939 -16.3898 -16.3891 -16.3628
   -16.3218 -16.3213 -16.2609 -16.2559 -12.5957 -12.5954 -12.5721 -12.5685
   -12.5674 -12.5596 -12.5560 -12.5477 -12.5473 -12.5391 -12.5391 -12.5299
   -12.5252 -12.5222 -12.5205 -12.5160 -12.5116 -12.5089 -12.5024 -12.4985
   -12.4927 -12.4847 -12.4805 -12.4729 -12.4727 -12.4702 -12.4677 -12.4626
   -12.4589 -12.4565 -12.4510 -12.4442 -12.4414 -12.4355 -12.4340 -12.4294
   -12.4194 -12.4191 -12.4178 -12.4150 -12.4065 -12.4005 -12.3996 -12.3962
   -12.3957 -12.3908 -12.3861 -12.3821 -12.3818 -12.3676 -12.3648 -12.3599
   -12.3582 -12.3569 -12.3516 -12.3448 -12.3446 -12.3354 -12.3349 -12.3324
   -12.3298 -12.3228 -12.3178 -12.3162 -12.3162 -12.3089 -12.3080 -12.3040
   -12.3035 -12.2991 -12.2981 -12.2952 -12.2937 -12.2931 -12.2916 -12.2901
   -12.2888 -12.2852 -12.2817 -12.2784 -12.2763 -12.2754 -12.2729 -12.2716
   -12.2705 -12.2686 -12.2655 -12.2609 -12.2600 -12.2584 -12.2548 -12.2525
   -12.2486 -12.2468 -12.2448 -12.2437 -12.2393 -12.2366 -12.2358 -12.2346
   -12.2337 -12.2303 -12.2270 -12.2263 -12.2206 -12.2201 -12.2154 -12.2138
   -12.2128 -12.2103 -12.2078 -12.2066 -12.2015 -12.1998 -12.1985 -12.1970
   -12.1959 -12.1947 -12.1942 -12.1928 -12.1908 -12.1857 -12.1815 -12.1809
   -12.1796 -12.1796 -12.1749 -12.1724 -12.1720 -12.1685 -12.1656 -12.1649
   -12.1612 -12.1606 -12.1546 -12.1520 -12.1503 -12.1491 -12.1429 -12.1413
   -12.1375 -12.1355 -12.1351 -12.1340 -12.1301 -12.1273 -12.1270 -12.1262
   -12.1221 -12.1220 -12.1184 -12.1157 -12.1134 -12.1081 -12.1077 -12.1071
   -12.1060 -12.1024 -12.1011 -12.1001 -12.0980 -12.0980 -12.0950 -12.0917
   -12.0903 -12.0876 -12.0864 -12.0829 -12.0791 -12.0774 -12.0739 -12.0714
   -12.0705 -12.0700 -12.0648 -12.0640 -12.0618 -12.0594 -12.0571 -12.0534
   -12.0530 -12.0519 -12.0476 -12.0442 -12.0427 -12.0398 -12.0359 -12.0325
   -12.0316 -12.0286 -12.0249 -12.0243 -12.0223 -12.0183 -12.0178 -12.0153
   -12.0141 -12.0114 -12.0087 -12.0081 -12.0042 -12.0009 -11.9980 -11.9957
   -11.9951 -11.9904 -11.9878 -11.9850 -11.9813 -11.9775 -11.9720 -11.9683
   -11.9662 -11.9648 -11.9576 -11.9544 -11.9510 -11.9501 -11.9484 -11.9478
   -11.9408 -11.9382 -11.9351 -11.9348 -11.9251 -11.9249 -11.9148 -11.9070
   -11.9055 -11.8984 -11.8967 -11.8964 -11.8802 -11.8732 -11.8634 -11.8483
   -11.8336 -11.8130 -11.7682 -11.7564 -11.7315 -11.7198 -11.7074 -11.7005
   -11.6663 -11.6462 -11.6297 -11.6141 -11.5981 -11.5879 -11.5636 -11.5462
   -11.5273 -11.4890 -11.4868 -11.4707 -11.4551 -11.4331 -11.4201 -11.4153
   -11.3991 -11.3923 -11.3633 -11.3521 -11.3333 -11.3012 -11.2997 -11.2925
   -11.2897 -11.1957 -11.1757 -11.1576 -11.1453 -11.1311 -11.1142  -5.7763
    -5.7761  -5.6124  -5.6057  -5.5999  -5.5935  -5.5928  -5.5848  -5.5114
    -5.4522  -5.4521  -5.4100  -5.3869  -5.3763  -5.3188  -5.3134  -5.3067
    -5.3001  -5.2447  -5.2077  -5.1936  -5.1609  -5.1601  -5.0851  -5.0320
    -4.9572  -4.9530  -4.9175  -4.8744  -4.8678  -4.8099  -4.7720  -4.7473
    -4.6956  -4.6859  -4.6490  -4.6476  -4.6424  -4.5986  -4.5912  -4.5867
    -4.5643  -4.5356  -4.5325  -4.5217  -4.4535  -4.4128  -4.3790  -4.3567
    -4.3468  -4.3297  -4.3184  -4.2953  -4.2288  -4.1929  -4.1810  -4.1564
    -4.1334  -4.0902  -4.0745  -4.0290  -4.0103  -3.9192  -3.9083  -3.8986
    -3.8725  -3.8065  -3.8028  -3.7390  -3.7113  -3.6975  -3.6850  -3.6405
    -3.6249  -3.5946  -3.5815  -3.5709  -3.5578  -3.5415  -3.5037  -3.4969
    -3.4625  -3.4480  -3.4184  -3.3747  -3.3586  -3.3250  -3.3084  -3.2671
    -3.2467  -3.2407  -3.1768  -3.1572  -3.1248  -3.0861  -3.0568  -3.0555
    -3.0456  -3.0434  -2.9986  -2.9922  -2.9526  -2.9246  -2.8791  -2.8566
    -2.8217  -2.8135  -2.8080  -2.7863  -2.7565  -2.7259  -2.6989  -2.6792
    -2.6655  -2.6408  -2.6104  -2.5871  -2.5713  -2.5442  -2.5352  -2.5097
    -2.4833  -2.4687  -2.4347  -2.4168  -2.4060  -2.3736  -2.3520  -2.3458
    -2.3072  -2.2895  -2.2798  -2.1994  -2.1968  -2.1647  -2.1528  -2.1242
    -2.0824  -2.0816  -2.0687  -2.0676  -2.0522  -2.0425  -2.0015  -1.9877
    -1.9608  -1.9331  -1.9305  -1.9221  -1.8832  -1.8787  -1.8748  -1.8456
    -1.8264  -1.8194  -1.7918  -1.7912  -1.7785  -1.7676  -1.7551  -1.7379
    -1.7338  -1.7294  -1.7288  -1.7192  -1.6733  -1.6694  -1.6606  -1.6579
    -1.6498  -1.6447  -1.6167  -1.6124  -1.5985  -1.5649  -1.5587  -1.5514
    -1.5379  -1.5349  -1.5248  -1.5101  -1.4694  -1.4663  -1.4488  -1.4421
    -1.4138  -1.3866  -1.3861  -1.3556  -1.3532  -1.3206  -1.3141  -1.3074
    -1.2862  -1.2594  -1.2409  -1.2240  -1.2012  -1.1964  -1.1796  -1.1667
    -1.1639  -1.1253  -1.0853  -1.0368  -1.0239  -1.0098  -1.0077  -0.9878
    -0.9865  -0.9815  -0.9522  -0.9144  -0.8935  -0.8932  -0.8836  -0.8549
    -0.8497  -0.8377  -0.8228  -0.8221  -0.8082  -0.7912  -0.7868  -0.7521
    -0.7317  -0.7281  -0.6754  -0.6745  -0.6370  -0.6347  -0.6302  -0.6063
    -0.5929  -0.5759  -0.5657  -0.5472  -0.5470  -0.5370  -0.5186  -0.4967
    -0.4821  -0.4753  -0.4747  -0.4680  -0.4559  -0.4555  -0.4413  -0.4379
    -0.4279  -0.4216  -0.4103  -0.3950  -0.3908  -0.3784  -0.3732  -0.3650
    -0.3579  -0.3483  -0.3407  -0.3404  -0.3252  -0.3242  -0.3137  -0.2913
    -0.2863  -0.2821  -0.2673  -0.2530  -0.2475  -0.2190  -0.2120  -0.1952
    -0.1925  -0.1861  -0.1826  -0.1818  -0.1696  -0.1691  -0.1369  -0.1324
    -0.1169  -0.0848  -0.0817  -0.0014   0.0032   0.0069   0.0114   1.1677
     1.9025   2.2490   2.3327   2.7819   2.9449   3.5233   3.8054   3.8394
     3.8978   3.9849   4.1768   4.2166   4.2549

          k = 0.0000 0.3336 0.0000 (327620 PWs)   bands (ev):

   -74.6441 -38.8593 -38.7707 -38.6613 -18.1603 -18.1603 -18.0920 -18.0920
   -18.0567 -18.0567 -18.0191 -18.0191 -17.9117 -17.8090 -17.8089 -17.7679
   -17.7679 -17.7563 -17.7563 -17.7123 -17.7123 -17.6848 -17.6848 -17.6725
   -17.6725 -17.6075 -17.6075 -17.6028 -17.6027 -17.4094 -17.3252 -17.2955
   -17.2480 -17.2058 -17.1812 -17.1237 -17.0836 -17.0609 -17.0478 -16.9999
   -16.9965 -16.9666 -16.9524 -16.9342 -16.9259 -16.9029 -16.8905 -16.8847
   -16.8672 -16.8398 -16.8358 -16.8118 -16.8116 -16.8027 -16.7938 -16.7734
   -16.7631 -16.7595 -16.7405 -16.7341 -16.7281 -16.6872 -16.6822 -16.6660
   -16.6594 -16.6554 -16.6481 -16.6397 -16.6222 -16.6203 -16.6119 -16.6078
   -16.5970 -16.5872 -16.5830 -16.5803 -16.5665 -16.5586 -16.5422 -16.5409
   -16.5164 -16.5080 -16.5031 -16.4872 -16.4847 -16.4789 -16.4618 -16.4590
   -16.4225 -16.4131 -16.4090 -16.4080 -16.4011 -16.3980 -16.3922 -16.3701
   -16.2995 -16.2990 -16.2706 -16.2674 -12.5908 -12.5801 -12.5762 -12.5673
   -12.5631 -12.5592 -12.5551 -12.5500 -12.5458 -12.5407 -12.5339 -12.5331
   -12.5239 -12.5225 -12.5146 -12.5145 -12.5134 -12.5027 -12.5013 -12.4991
   -12.4869 -12.4844 -12.4799 -12.4770 -12.4706 -12.4692 -12.4676 -12.4628
   -12.4574 -12.4538 -12.4494 -12.4477 -12.4425 -12.4421 -12.4332 -12.4244
   -12.4221 -12.4198 -12.4139 -12.4118 -12.4101 -12.4089 -12.4033 -12.4009
   -12.3992 -12.3966 -12.3913 -12.3889 -12.3763 -12.3718 -12.3710 -12.3667
   -12.3595 -12.3573 -12.3558 -12.3492 -12.3486 -12.3440 -12.3429 -12.3365
   -12.3287 -12.3246 -12.3219 -12.3166 -12.3163 -12.3093 -12.3092 -12.3065
   -12.3022 -12.3005 -12.2955 -12.2932 -12.2917 -12.2901 -12.2890 -12.2854
   -12.2847 -12.2838 -12.2816 -12.2751 -12.2742 -12.2710 -12.2704 -12.2691
   -12.2677 -12.2620 -12.2579 -12.2574 -12.2554 -12.2542 -12.2510 -12.2490
   -12.2478 -12.2450 -12.2442 -12.2393 -12.2363 -12.2339 -12.2315 -12.2293
   -12.2262 -12.2258 -12.2221 -12.2197 -12.2163 -12.2157 -12.2137 -12.2121
   -12.2110 -12.2107 -12.2073 -12.2051 -12.2039 -12.2016 -12.1986 -12.1977
   -12.1938 -12.1929 -12.1885 -12.1882 -12.1874 -12.1847 -12.1833 -12.1812
   -12.1801 -12.1774 -12.1760 -12.1714 -12.1696 -12.1695 -12.1692 -12.1662
   -12.1657 -12.1629 -12.1624 -12.1592 -12.1558 -12.1527 -12.1501 -12.1482
   -12.1458 -12.1439 -12.1423 -12.1365 -12.1361 -12.1345 -12.1318 -12.1277
   -12.1268 -12.1226 -12.1203 -12.1193 -12.1164 -12.1155 -12.1143 -12.1115
   -12.1093 -12.1066 -12.1036 -12.1015 -12.0998 -12.0990 -12.0951 -12.0944
   -12.0937 -12.0898 -12.0883 -12.0873 -12.0826 -12.0802 -12.0782 -12.0742
   -12.0737 -12.0729 -12.0705 -12.0697 -12.0658 -12.0604 -12.0568 -12.0557
   -12.0506 -12.0492 -12.0455 -12.0433 -12.0429 -12.0366 -12.0356 -12.0341
   -12.0303 -12.0295 -12.0237 -12.0220 -12.0184 -12.0172 -12.0116 -12.0091
   -12.0078 -12.0063 -12.0013 -11.9991 -11.9985 -11.9970 -11.9943 -11.9925
   -11.9888 -11.9871 -11.9830 -11.9804 -11.9771 -11.9762 -11.9748 -11.9730
   -11.9692 -11.9683 -11.9618 -11.9615 -11.9575 -11.9551 -11.9526 -11.9519
   -11.9461 -11.9455 -11.9400 -11.9354 -11.9291 -11.9285 -11.9226 -11.9210
   -11.9071 -11.9039 -11.8829 -11.8750 -11.8671 -11.8549 -11.8409 -11.8277
   -11.8267 -11.7986 -11.7869 -11.7641 -11.7612 -11.7308 -11.7242 -11.6901
   -11.6762 -11.6438 -11.6379 -11.5852 -11.5812 -11.5524 -11.5380 -11.5122
   -11.5037 -11.4952 -11.4850 -11.4700 -11.4591 -11.4499 -11.4399 -11.4253
   -11.3992 -11.3911 -11.3859 -11.3680 -11.3407 -11.3228 -11.3000 -11.2403
   -11.2357 -11.1986 -11.1833 -11.1814 -11.1651 -11.1519 -11.1380  -5.7515
    -5.7508  -5.6839  -5.6802  -5.6010  -5.6005  -5.5923  -5.5892  -5.4916
    -5.4512  -5.4379  -5.4268  -5.4091  -5.3592  -5.2659  -5.2475  -5.2452
    -5.2411  -5.2035  -5.2026  -5.1206  -5.0877  -5.0707  -5.0501  -5.0465
    -5.0056  -4.9345  -4.9058  -4.8742  -4.8311  -4.8132  -4.8077  -4.7986
    -4.7826  -4.7403  -4.7006  -4.6951  -4.6615  -4.6485  -4.6356  -4.6121
    -4.5716  -4.5434  -4.5181  -4.5027  -4.4851  -4.4333  -4.4252  -4.4014
    -4.3816  -4.3694  -4.3300  -4.3194  -4.2748  -4.2624  -4.2392  -4.2388
    -4.2135  -4.1769  -4.1227  -4.0593  -4.0402  -3.9433  -3.8666  -3.8558
    -3.8052  -3.7864  -3.7508  -3.7336  -3.7155  -3.6856  -3.6768  -3.6438
    -3.6414  -3.6084  -3.6008  -3.5719  -3.5297  -3.5229  -3.4806  -3.4340
    -3.4085  -3.3920  -3.3491  -3.3172  -3.2828  -3.2704  -3.2560  -3.2223
    -3.1618  -3.1587  -3.1415  -3.1120  -3.0837  -3.0630  -3.0505  -3.0343
    -2.9946  -2.9691  -2.9618  -2.9579  -2.9303  -2.8784  -2.8783  -2.8567
    -2.8204  -2.8189  -2.7682  -2.7535  -2.7299  -2.6959  -2.6777  -2.6544
    -2.6281  -2.6087  -2.5954  -2.5629  -2.5508  -2.5348  -2.5209  -2.4875
    -2.4581  -2.4483  -2.4305  -2.3816  -2.3727  -2.3414  -2.3273  -2.3225
    -2.3181  -2.2933  -2.2812  -2.2695  -2.2473  -2.2317  -2.2255  -2.1910
    -2.1791  -2.1597  -2.1471  -2.1303  -2.1152  -2.0737  -2.0712  -2.0628
    -2.0310  -2.0226  -2.0139  -2.0111  -1.9654  -1.9598  -1.9336  -1.9028
    -1.8795  -1.8608  -1.8509  -1.8364  -1.8356  -1.8059  -1.7932  -1.7581
    -1.7567  -1.7392  -1.7056  -1.6910  -1.6778  -1.6746  -1.6543  -1.6348
    -1.6319  -1.6283  -1.5887  -1.5751  -1.5590  -1.5501  -1.5085  -1.4819
    -1.4808  -1.4623  -1.4592  -1.4314  -1.4171  -1.4083  -1.4022  -1.4008
    -1.3735  -1.3674  -1.3334  -1.3107  -1.3089  -1.3038  -1.2874  -1.2652
    -1.2636  -1.2393  -1.2337  -1.1914  -1.1912  -1.1617  -1.1503  -1.1320
    -1.1149  -1.0830  -1.0814  -1.0587  -1.0499  -1.0239  -0.9981  -0.9951
    -0.9720  -0.9623  -0.9468  -0.9434  -0.9186  -0.9041  -0.8874  -0.8674
    -0.8539  -0.8532  -0.8328  -0.8173  -0.8071  -0.8028  -0.7792  -0.7756
    -0.7516  -0.7477  -0.7331  -0.7235  -0.7022  -0.6943  -0.6753  -0.6558
    -0.6370  -0.6320  -0.6051  -0.5884  -0.5786  -0.5724  -0.5602  -0.5413
    -0.5392  -0.5129  -0.5078  -0.5013  -0.4974  -0.4798  -0.4580  -0.4371
    -0.4321  -0.4284  -0.4192  -0.4109  -0.3956  -0.3932  -0.3740  -0.3672
    -0.3610  -0.3498  -0.3460  -0.3350  -0.3301  -0.3079  -0.3012  -0.2910
    -0.2876  -0.2726  -0.2604  -0.2582  -0.2528  -0.2446  -0.2330  -0.2304
    -0.2201  -0.1997  -0.1965  -0.1433  -0.1281  -0.1200  -0.1051  -0.0989
    -0.0868  -0.0772  -0.0651  -0.0333  -0.0273  -0.0214  -0.0174   1.7145
     2.2718   2.3273   2.3311   2.8611   2.9282   3.0896   3.2988   3.7650
     3.8124   4.0249   4.1483   4.3093   4.3236

          k = 0.3333 0.0000 0.0000 (327628 PWs)   bands (ev):

   -74.6441 -38.8593 -38.7707 -38.6613 -18.1646 -18.1645 -18.1083 -18.1083
   -18.0335 -18.0335 -18.0080 -18.0080 -17.9115 -17.8274 -17.8274 -17.7961
   -17.7961 -17.7306 -17.7306 -17.6931 -17.6931 -17.6864 -17.6864 -17.6822
   -17.6822 -17.6074 -17.6074 -17.6028 -17.6028 -17.3949 -17.3475 -17.3182
   -17.2370 -17.1915 -17.1697 -17.1310 -17.0758 -17.0394 -17.0227 -16.9998
   -16.9878 -16.9761 -16.9586 -16.9516 -16.9350 -16.9190 -16.9065 -16.8818
   -16.8735 -16.8588 -16.8386 -16.8266 -16.8206 -16.7974 -16.7898 -16.7881
   -16.7654 -16.7515 -16.7386 -16.7285 -16.7183 -16.6790 -16.6713 -16.6693
   -16.6575 -16.6477 -16.6389 -16.6311 -16.6294 -16.6188 -16.6128 -16.6094
   -16.5930 -16.5821 -16.5783 -16.5729 -16.5649 -16.5449 -16.5446 -16.5343
   -16.5288 -16.5105 -16.5053 -16.4935 -16.4636 -16.4593 -16.4568 -16.4480
   -16.4406 -16.4387 -16.4266 -16.4183 -16.4046 -16.3998 -16.3884 -16.3733
   -16.2986 -16.2973 -16.2676 -16.2641 -12.5908 -12.5863 -12.5773 -12.5707
   -12.5658 -12.5571 -12.5534 -12.5481 -12.5431 -12.5411 -12.5336 -12.5313
   -12.5273 -12.5213 -12.5182 -12.5127 -12.5074 -12.5018 -12.4996 -12.4954
   -12.4924 -12.4855 -12.4823 -12.4745 -12.4708 -12.4669 -12.4648 -12.4607
   -12.4573 -12.4546 -12.4511 -12.4469 -12.4423 -12.4363 -12.4350 -12.4295
   -12.4252 -12.4223 -12.4170 -12.4146 -12.4097 -12.4085 -12.4062 -12.4039
   -12.3965 -12.3932 -12.3910 -12.3847 -12.3806 -12.3735 -12.3695 -12.3662
   -12.3635 -12.3586 -12.3577 -12.3536 -12.3526 -12.3429 -12.3401 -12.3348
   -12.3291 -12.3243 -12.3234 -12.3178 -12.3125 -12.3112 -12.3077 -12.3017
   -12.3006 -12.2975 -12.2939 -12.2917 -12.2895 -12.2878 -12.2846 -12.2841
   -12.2821 -12.2784 -12.2768 -12.2734 -12.2705 -12.2699 -12.2676 -12.2657
   -12.2623 -12.2610 -12.2598 -12.2576 -12.2566 -12.2557 -12.2548 -12.2521
   -12.2483 -12.2457 -12.2449 -12.2407 -12.2378 -12.2360 -12.2340 -12.2327
   -12.2305 -12.2300 -12.2275 -12.2251 -12.2217 -12.2189 -12.2188 -12.2156
   -12.2135 -12.2118 -12.2091 -12.2063 -12.2029 -12.2018 -12.2006 -12.1987
   -12.1971 -12.1954 -12.1942 -12.1903 -12.1893 -12.1860 -12.1836 -12.1818
   -12.1813 -12.1777 -12.1755 -12.1748 -12.1718 -12.1695 -12.1661 -12.1641
   -12.1615 -12.1593 -12.1580 -12.1563 -12.1536 -12.1499 -12.1473 -12.1430
   -12.1414 -12.1405 -12.1364 -12.1351 -12.1332 -12.1308 -12.1288 -12.1277
   -12.1261 -12.1230 -12.1213 -12.1177 -12.1145 -12.1136 -12.1116 -12.1110
   -12.1084 -12.1069 -12.1029 -12.1021 -12.0992 -12.0965 -12.0937 -12.0931
   -12.0914 -12.0881 -12.0866 -12.0856 -12.0841 -12.0801 -12.0781 -12.0764
   -12.0719 -12.0704 -12.0690 -12.0662 -12.0631 -12.0607 -12.0563 -12.0532
   -12.0518 -12.0503 -12.0491 -12.0459 -12.0417 -12.0379 -12.0361 -12.0327
   -12.0298 -12.0271 -12.0250 -12.0237 -12.0203 -12.0187 -12.0125 -12.0095
   -12.0050 -12.0034 -11.9987 -11.9970 -11.9954 -11.9943 -11.9904 -11.9889
   -11.9863 -11.9825 -11.9816 -11.9805 -11.9771 -11.9752 -11.9743 -11.9733
   -11.9711 -11.9674 -11.9659 -11.9635 -11.9581 -11.9555 -11.9531 -11.9488
   -11.9464 -11.9451 -11.9408 -11.9378 -11.9295 -11.9284 -11.9207 -11.9141
   -11.9064 -11.8966 -11.8908 -11.8719 -11.8625 -11.8584 -11.8465 -11.8321
   -11.8275 -11.8190 -11.8031 -11.7947 -11.7862 -11.7229 -11.7184 -11.6897
   -11.6823 -11.6594 -11.6159 -11.6004 -11.5813 -11.5628 -11.5450 -11.5268
   -11.5203 -11.4963 -11.4887 -11.4658 -11.4645 -11.4477 -11.4149 -11.4097
   -11.3800 -11.3726 -11.3547 -11.3352 -11.3280 -11.3141 -11.2824 -11.2583
   -11.2552 -11.2123 -11.2006 -11.1771 -11.1711 -11.1602 -11.1464  -5.7442
    -5.7429  -5.6633  -5.6593  -5.6073  -5.6031  -5.5916  -5.5863  -5.4974
    -5.4621  -5.4516  -5.4263  -5.4199  -5.3332  -5.2617  -5.2526  -5.2520
    -5.2373  -5.2255  -5.1914  -5.1450  -5.1031  -5.0714  -5.0258  -4.9672
    -4.9596  -4.9296  -4.9068  -4.8989  -4.8912  -4.8483  -4.8302  -4.8082
    -4.7569  -4.7337  -4.6954  -4.6847  -4.6662  -4.6548  -4.6451  -4.6088
    -4.5870  -4.5669  -4.5618  -4.5359  -4.5009  -4.4943  -4.4875  -4.4075
    -4.3740  -4.3200  -4.3000  -4.2762  -4.2564  -4.2516  -4.1861  -4.1645
    -4.1228  -4.0922  -4.0593  -4.0359  -4.0036  -3.9767  -3.9640  -3.9458
    -3.9234  -3.8832  -3.8556  -3.8266  -3.7655  -3.7182  -3.6753  -3.6091
    -3.6010  -3.5708  -3.5441  -3.5195  -3.5096  -3.4992  -3.4621  -3.4267
    -3.4001  -3.3794  -3.3311  -3.3110  -3.2877  -3.2735  -3.2407  -3.2154
    -3.2049  -3.1813  -3.1325  -3.1268  -3.0819  -3.0678  -3.0343  -3.0007
    -2.9869  -2.9680  -2.9364  -2.9238  -2.9003  -2.8816  -2.8655  -2.8421
    -2.8274  -2.8077  -2.7600  -2.7441  -2.7236  -2.7100  -2.6837  -2.6446
    -2.6310  -2.6261  -2.6142  -2.5877  -2.5579  -2.5453  -2.5328  -2.5130
    -2.4951  -2.4739  -2.4588  -2.4168  -2.3976  -2.3901  -2.3565  -2.3468
    -2.3358  -2.3032  -2.2895  -2.2699  -2.2561  -2.2120  -2.1985  -2.1856
    -2.1743  -2.1017  -2.0835  -2.0635  -2.0502  -2.0436  -2.0249  -2.0108
    -1.9910  -1.9769  -1.9646  -1.9354  -1.9175  -1.9063  -1.9008  -1.8996
    -1.8733  -1.8509  -1.8392  -1.8375  -1.8103  -1.7893  -1.7867  -1.7615
    -1.7392  -1.7234  -1.7120  -1.7092  -1.6878  -1.6768  -1.6697  -1.6543
    -1.6359  -1.6245  -1.5987  -1.5895  -1.5614  -1.5592  -1.5482  -1.5283
    -1.5147  -1.5060  -1.4962  -1.4691  -1.4644  -1.4412  -1.4360  -1.4265
    -1.4043  -1.3725  -1.3690  -1.3511  -1.3383  -1.3114  -1.3108  -1.2871
    -1.2650  -1.2413  -1.2280  -1.1968  -1.1868  -1.1768  -1.1563  -1.1302
    -1.0981  -1.0956  -1.0799  -1.0674  -1.0665  -1.0437  -1.0230  -1.0117
    -0.9942  -0.9789  -0.9598  -0.9414  -0.9155  -0.9006  -0.8810  -0.8767
    -0.8755  -0.8486  -0.8265  -0.8121  -0.8076  -0.7708  -0.7645  -0.7500
    -0.7314  -0.7234  -0.7020  -0.6944  -0.6751  -0.6625  -0.6562  -0.6467
    -0.6288  -0.6111  -0.5939  -0.5867  -0.5816  -0.5723  -0.5585  -0.5504
    -0.5303  -0.5182  -0.5028  -0.4916  -0.4723  -0.4655  -0.4635  -0.4432
    -0.4328  -0.4276  -0.4197  -0.4119  -0.4075  -0.4023  -0.3951  -0.3781
    -0.3719  -0.3547  -0.3536  -0.3495  -0.3341  -0.3287  -0.3192  -0.3095
    -0.2941  -0.2830  -0.2745  -0.2621  -0.2499  -0.2375  -0.2237  -0.2218
    -0.2160  -0.1910  -0.1637  -0.1608  -0.1494  -0.1371  -0.1158  -0.0907
    -0.0885  -0.0694  -0.0621  -0.0111  -0.0098  -0.0007   0.0029   1.7253
     2.2763   2.2992   2.3863   2.7589   3.0145   3.0948   3.2703   3.7479
     3.8196   3.9997   4.1240   4.3236   4.3636

          k = 0.3333 0.3336 0.0000 (327656 PWs)   bands (ev):

   -74.6441 -38.8593 -38.7707 -38.6613 -18.1389 -18.1389 -18.0883 -18.0882
   -18.0762 -18.0760 -18.0395 -18.0395 -17.9067 -17.7921 -17.7919 -17.7664
   -17.7660 -17.7454 -17.7453 -17.7152 -17.7150 -17.6864 -17.6863 -17.6812
   -17.6811 -17.6083 -17.6073 -17.6050 -17.6041 -17.3888 -17.3484 -17.2995
   -17.2306 -17.2166 -17.1801 -17.1356 -17.1136 -17.0671 -17.0613 -17.0350
   -16.9915 -16.9777 -16.9505 -16.9233 -16.9116 -16.8964 -16.8771 -16.8740
   -16.8615 -16.8445 -16.8275 -16.8178 -16.8021 -16.7916 -16.7729 -16.7702
   -16.7608 -16.7525 -16.7322 -16.7257 -16.7096 -16.6941 -16.6779 -16.6711
   -16.6655 -16.6532 -16.6441 -16.6364 -16.6318 -16.6194 -16.6137 -16.6108
   -16.5985 -16.5886 -16.5778 -16.5659 -16.5624 -16.5515 -16.5388 -16.5333
   -16.5223 -16.5165 -16.5058 -16.4952 -16.4848 -16.4738 -16.4696 -16.4603
   -16.4398 -16.4376 -16.4331 -16.4242 -16.3951 -16.3868 -16.3784 -16.3674
   -16.2931 -16.2917 -16.2756 -16.2735 -12.5905 -12.5818 -12.5791 -12.5700
   -12.5665 -12.5589 -12.5513 -12.5493 -12.5462 -12.5400 -12.5360 -12.5322
   -12.5284 -12.5242 -12.5191 -12.5176 -12.5097 -12.5076 -12.4940 -12.4928
   -12.4880 -12.4841 -12.4813 -12.4767 -12.4696 -12.4667 -12.4621 -12.4608
   -12.4563 -12.4530 -12.4503 -12.4443 -12.4418 -12.4402 -12.4349 -12.4289
   -12.4272 -12.4245 -12.4189 -12.4185 -12.4138 -12.4102 -12.4056 -12.4020
   -12.3986 -12.3943 -12.3918 -12.3832 -12.3801 -12.3768 -12.3668 -12.3664
   -12.3624 -12.3579 -12.3538 -12.3501 -12.3476 -12.3432 -12.3385 -12.3332
   -12.3317 -12.3282 -12.3232 -12.3217 -12.3195 -12.3171 -12.3102 -12.3061
   -12.3018 -12.2993 -12.2971 -12.2948 -12.2928 -12.2900 -12.2882 -12.2829
   -12.2806 -12.2796 -12.2773 -12.2765 -12.2733 -12.2718 -12.2701 -12.2688
   -12.2662 -12.2627 -12.2612 -12.2577 -12.2557 -12.2535 -12.2515 -12.2477
   -12.2455 -12.2432 -12.2411 -12.2402 -12.2381 -12.2355 -12.2324 -12.2310
   -12.2279 -12.2257 -12.2244 -12.2219 -12.2209 -12.2170 -12.2157 -12.2133
   -12.2107 -12.2089 -12.2068 -12.2052 -12.2036 -12.2015 -12.2005 -12.1984
   -12.1972 -12.1951 -12.1936 -12.1899 -12.1879 -12.1865 -12.1847 -12.1830
   -12.1823 -12.1806 -12.1778 -12.1758 -12.1739 -12.1722 -12.1687 -12.1667
   -12.1643 -12.1605 -12.1587 -12.1549 -12.1540 -12.1504 -12.1494 -12.1477
   -12.1435 -12.1414 -12.1379 -12.1345 -12.1314 -12.1301 -12.1273 -12.1263
   -12.1236 -12.1214 -12.1182 -12.1168 -12.1149 -12.1140 -12.1088 -12.1065
   -12.1039 -12.1027 -12.1009 -12.0985 -12.0957 -12.0943 -12.0931 -12.0908
   -12.0885 -12.0873 -12.0857 -12.0825 -12.0817 -12.0772 -12.0756 -12.0730
   -12.0706 -12.0690 -12.0666 -12.0657 -12.0624 -12.0600 -12.0571 -12.0548
   -12.0513 -12.0506 -12.0449 -12.0421 -12.0382 -12.0354 -12.0290 -12.0259
   -12.0239 -12.0230 -12.0212 -12.0177 -12.0156 -12.0119 -12.0107 -12.0093
   -12.0055 -12.0040 -12.0003 -11.9983 -11.9955 -11.9938 -11.9930 -11.9922
   -11.9886 -11.9857 -11.9817 -11.9791 -11.9772 -11.9741 -11.9717 -11.9693
   -11.9663 -11.9645 -11.9623 -11.9609 -11.9585 -11.9562 -11.9541 -11.9511
   -11.9483 -11.9440 -11.9392 -11.9365 -11.9330 -11.9262 -11.9168 -11.9135
   -11.9061 -11.8904 -11.8788 -11.8679 -11.8621 -11.8566 -11.8430 -11.8349
   -11.8249 -11.8152 -11.8035 -11.7931 -11.7770 -11.7681 -11.7617 -11.7465
   -11.7081 -11.6832 -11.6658 -11.6411 -11.6091 -11.5544 -11.5266 -11.5038
   -11.4915 -11.4825 -11.4686 -11.4582 -11.4352 -11.4259 -11.4049 -11.3755
   -11.3658 -11.3562 -11.3334 -11.3216 -11.3065 -11.2931 -11.2791 -11.2664
   -11.2601 -11.2282 -11.2237 -11.2038 -11.1934 -11.1851 -11.1697  -5.7282
    -5.7271  -5.6874  -5.6841  -5.6257  -5.6251  -5.6125  -5.6111  -5.4732
    -5.4352  -5.4288  -5.4230  -5.4118  -5.3221  -5.2374  -5.2147  -5.2131
    -5.2098  -5.2059  -5.1553  -5.1091  -5.0505  -5.0000  -4.9728  -4.9608
    -4.9346  -4.9274  -4.9109  -4.8717  -4.8589  -4.8440  -4.8284  -4.7839
    -4.7744  -4.7572  -4.7307  -4.6926  -4.6750  -4.6467  -4.6440  -4.6329
    -4.6142  -4.6091  -4.5769  -4.5611  -4.5453  -4.5305  -4.5096  -4.4859
    -4.4620  -4.4187  -4.3906  -4.3657  -4.3567  -4.2596  -4.2438  -4.2129
    -4.1987  -4.1776  -4.1288  -4.0947  -4.0772  -4.0438  -4.0086  -3.9719
    -3.9384  -3.8991  -3.8673  -3.7641  -3.7233  -3.6844  -3.6211  -3.6030
    -3.5511  -3.5386  -3.5009  -3.4560  -3.4453  -3.4142  -3.3877  -3.3477
    -3.3397  -3.3031  -3.2787  -3.2593  -3.2240  -3.2202  -3.1902  -3.1736
    -3.1541  -3.1042  -3.0673  -3.0597  -3.0212  -3.0066  -2.9937  -2.9802
    -2.9637  -2.9346  -2.9187  -2.8986  -2.8713  -2.8541  -2.8470  -2.8210
    -2.8041  -2.7826  -2.7557  -2.7443  -2.7183  -2.6957  -2.6777  -2.6636
    -2.6291  -2.6158  -2.6114  -2.5822  -2.5668  -2.5560  -2.5378  -2.5062
    -2.4809  -2.4689  -2.4457  -2.4306  -2.4157  -2.3980  -2.3767  -2.3645
    -2.3464  -2.3305  -2.2805  -2.2704  -2.2469  -2.2405  -2.2119  -2.1883
    -2.1697  -2.1518  -2.1319  -2.1190  -2.1115  -2.0931  -2.0690  -2.0530
    -2.0413  -2.0262  -2.0063  -1.9826  -1.9608  -1.9509  -1.9400  -1.9139
    -1.9008  -1.8826  -1.8730  -1.8546  -1.8302  -1.8155  -1.8140  -1.7899
    -1.7673  -1.7430  -1.7372  -1.7252  -1.7066  -1.6957  -1.6566  -1.6462
    -1.6399  -1.6159  -1.6074  -1.5931  -1.5564  -1.5378  -1.5063  -1.5014
    -1.4850  -1.4627  -1.4423  -1.4178  -1.4037  -1.3895  -1.3717  -1.3596
    -1.3485  -1.3378  -1.3215  -1.3061  -1.2950  -1.2828  -1.2599  -1.2553
    -1.2468  -1.2156  -1.2045  -1.1955  -1.1687  -1.1508  -1.1447  -1.1252
    -1.1180  -1.0961  -1.0812  -1.0713  -1.0490  -1.0348  -1.0265  -1.0114
    -1.0010  -0.9809  -0.9777  -0.9644  -0.9511  -0.9341  -0.9262  -0.9143
    -0.9003  -0.8883  -0.8695  -0.8537  -0.8307  -0.8252  -0.8066  -0.7995
    -0.7890  -0.7778  -0.7607  -0.7495  -0.7336  -0.7138  -0.7008  -0.6786
    -0.6575  -0.6511  -0.6310  -0.6224  -0.6077  -0.6045  -0.5831  -0.5787
    -0.5700  -0.5557  -0.5391  -0.5321  -0.5146  -0.5037  -0.4918  -0.4847
    -0.4557  -0.4452  -0.4378  -0.4196  -0.4123  -0.3920  -0.3746  -0.3655
    -0.3548  -0.3495  -0.3444  -0.3400  -0.3327  -0.3256  -0.3086  -0.2944
    -0.2872  -0.2728  -0.2575  -0.2515  -0.2388  -0.2268  -0.2087  -0.1862
    -0.1768  -0.1719  -0.1446  -0.1207  -0.1152  -0.0961  -0.0914  -0.0617
    -0.0569  -0.0502  -0.0467  -0.0232  -0.0228  -0.0018  -0.0000   2.1205
     2.2978   2.3801   2.6650   2.8830   3.1343   3.1629   3.3626   3.5142
     3.5437   3.7702   3.9767   3.9931   4.0500

     the Fermi energy is     2.2496 ev

!    total energy              =  -27385.16795919 Ry
     total all-electron energy =   -693758.130293 Ry
     estimated scf accuracy    <          5.4E-10 Ry
     smearing contrib. (-TS)   =      -0.00437082 Ry
     internal energy E=F+TS    =  -27385.16358837 Ry

     The total energy is F=E-TS. E is the sum of the following terms:
     one-electron contribution = -273273.89363732 Ry
     hartree contribution      =  137419.90629300 Ry
     xc contribution           =   -3322.97980578 Ry
     ewald contribution        =  128312.98146601 Ry
     one-center paw contrib.   =  -16521.17790429 Ry

     convergence has been achieved in  47 iterations

     negative rho (up, down):  1.631E-02 0.000E+00

     Forces acting on atoms (cartesian axes, Ry/au):

     atom    1 type  1   force =    -0.00005000    0.00047349   -0.00028767
     atom    2 type  1   force =     0.00004044   -0.00023391   -0.00036315
     atom    3 type  1   force =    -0.00205827    0.00126689   -0.00219438
     atom    4 type  1   force =    -0.00006430    0.00003845   -0.00029594
     atom    5 type  1   force =     0.00002602    0.00274615   -0.00135618
     atom    6 type  1   force =     0.00012650    0.00006860   -0.00013349
     atom    7 type  1   force =     0.00060043    0.00063779   -0.00280805
     atom    8 type  1   force =    -0.00129037   -0.00037273   -0.00185360
     atom    9 type  1   force =    -0.00008729   -0.00036651    0.00018769
     atom   10 type  1   force =    -0.00120826   -0.00187540    0.00194367
     atom   11 type  1   force =    -0.00010362   -0.00003860   -0.00028040
     atom   12 type  1   force =     0.00066611   -0.00042696   -0.00067478
     atom   13 type  2   force =    -0.00072564   -0.00063417   -0.00065832
     atom   14 type  2   force =     0.00071066    0.00053509   -0.00022127
     atom   15 type  2   force =    -0.00423912   -0.00081505    0.00198648
     atom   16 type  2   force =     0.00227674   -0.00140808   -0.00010159
     atom   17 type  2   force =    -0.00034283    0.00016153   -0.00093685
     atom   18 type  2   force =    -0.00004148   -0.00044645   -0.00097641
     atom   19 type  2   force =     0.00022028   -0.00039470   -0.00055245
     atom   20 type  2   force =    -0.00049743   -0.00024458    0.00200730
     atom   21 type  2   force =     0.00002624   -0.00080300   -0.00022657
     atom   22 type  2   force =     0.00029939    0.00067158   -0.00098601
     atom   23 type  2   force =    -0.00063440    0.00036305   -0.00190000
     atom   24 type  2   force =    -0.00158692   -0.00202836   -0.00087506
     atom   25 type  2   force =     0.00065948    0.00069169   -0.00202664
     atom   26 type  2   force =    -0.00082784   -0.00082564   -0.00209396
     atom   27 type  2   force =     0.00182003   -0.00124197   -0.00424504
     atom   28 type  2   force =     0.00868832   -0.00564290    0.01453101
     atom   29 type  2   force =    -0.00011255   -0.00012979   -0.00034265
     atom   30 type  2   force =     0.00030521    0.00021794   -0.00077053
     atom   31 type  2   force =     0.00002915    0.00023487   -0.00034196
     atom   32 type  2   force =    -0.00025631   -0.00023889   -0.00073122
     atom   33 type  2   force =     0.00075825    0.00061918   -0.00178607
     atom   34 type  2   force =    -0.01083832    0.00008619   -0.00089763
     atom   35 type  2   force =     0.00060809   -0.00083153   -0.00037266
     atom   36 type  2   force =     0.00213259   -0.00134853   -0.00205557
     atom   37 type  1   force =     0.00144919   -0.00030942   -0.00081601
     atom   38 type  1   force =     0.00063175   -0.00100129   -0.00134929
     atom   39 type  1   force =     0.00029680   -0.00048218   -0.00015974
     atom   40 type  1   force =    -0.00311996    0.00106334    0.00133570
     atom   41 type  1   force =     0.00028456   -0.00009285   -0.00011470
     atom   42 type  1   force =     0.00023221    0.00021552   -0.00260566
     atom   43 type  1   force =    -0.00148810    0.00090764    0.00389641
     atom   44 type  1   force =     0.00112776    0.00005535   -0.00142722
     atom   45 type  1   force =    -0.00041490    0.00007923   -0.00039194
     atom   46 type  1   force =     0.00181257    0.00024755   -0.00041242
     atom   47 type  1   force =     0.00010651   -0.00049159   -0.00086009
     atom   48 type  1   force =     0.00137888    0.00065926   -0.00001545
     atom   49 type  1   force =    -0.00189146    0.00194973   -0.00242982
     atom   50 type  1   force =    -0.00294889   -0.00321173    0.00316990
     atom   51 type  2   force =    -0.00153514    0.00009055   -0.00012394
     atom   52 type  2   force =     0.00414181    0.00012974   -0.00094959
     atom   53 type  2   force =     0.00080275   -0.00069298   -0.00200359
     atom   54 type  2   force =    -0.00068075    0.00071366   -0.00193015
     atom   55 type  2   force =    -0.00024110    0.00379225    0.00343357
     atom   56 type  2   force =    -0.02573270   -0.02877042    0.03344611
     atom   57 type  2   force =     0.00073923   -0.00018502   -0.00070542
     atom   58 type  2   force =     0.00242083    0.00155786   -0.00053348
     atom   59 type  2   force =     0.02291857    0.01725614    0.02195985
     atom   60 type  2   force =     0.00087364   -0.00069408   -0.00181146
     atom   61 type  2   force =    -0.00035361    0.00115902    0.00411520
     atom   62 type  2   force =    -0.00043081    0.00116122   -0.00029591
     atom   63 type  2   force =     0.00088904   -0.00022614    0.00757751
     atom   64 type  2   force =     0.00153866    0.00059285   -0.00096958
     atom   65 type  2   force =    -0.00062252    0.00023364    0.00027238
     atom   66 type  2   force =     0.00081734   -0.00054097   -0.00138292
     atom   67 type  2   force =    -0.00045011    0.01148483    0.00007323
     atom   68 type  2   force =    -0.00156817    0.00267486    0.00065941
     atom   69 type  2   force =     0.01122975   -0.00196462    0.00196388
     atom   70 type  2   force =    -0.00353275    0.00251892   -0.00111645
     atom   71 type  2   force =     0.00199022   -0.00248563   -0.00317151
     atom   72 type  2   force =    -0.00030775    0.00137127    0.00001721
     atom   73 type  2   force =     0.00187975   -0.00546718   -0.00168766
     atom   74 type  2   force =    -0.00090198   -0.00054690   -0.00179521
     atom   75 type  1   force =     0.00205827    0.00126689    0.00219438
     atom   76 type  1   force =     0.00311996    0.00106334   -0.00133570
     atom   77 type  1   force =     0.00005000    0.00047349    0.00028767
     atom   78 type  1   force =    -0.00063175   -0.00100129    0.00134929
     atom   79 type  1   force =    -0.00012650    0.00006860    0.00013349
     atom   80 type  1   force =    -0.00002602    0.00274615    0.00135618
     atom   81 type  1   force =    -0.00060043    0.00063779    0.00280805
     atom   82 type  1   force =     0.00129037   -0.00037273    0.00185360
     atom   83 type  1   force =    -0.00112776    0.00005535    0.00142722
     atom   84 type  1   force =     0.00148810    0.00090764   -0.00389641
     atom   85 type  1   force =     0.00010362   -0.00003860    0.00028040
     atom   86 type  1   force =     0.00120826   -0.00187540   -0.00194367
     atom   87 type  3   force =     0.00000000    0.01487784    0.00000000
     atom   88 type  1   force =     0.00000000    0.00072533    0.00000000
     atom   89 type  1   force =     0.00294889   -0.00321173   -0.00316990
     atom   90 type  1   force =     0.00189146    0.00194973    0.00242982
     atom   91 type  2   force =     0.00423912   -0.00081505   -0.00198648
     atom   92 type  2   force =    -0.00227674   -0.00140808    0.00010159
     atom   93 type  2   force =     0.00072564   -0.00063417    0.00065832
     atom   94 type  2   force =    -0.00071066    0.00053509    0.00022127
     atom   95 type  2   force =    -0.00242083    0.00155786    0.00053348
     atom   96 type  2   force =    -0.00073923   -0.00018502    0.00070542
     atom   97 type  2   force =     0.02573270   -0.02877042   -0.03344611
     atom   98 type  2   force =     0.00024110    0.00379225   -0.00343357
     atom   99 type  2   force =    -0.00029939    0.00067158    0.00098601
     atom  100 type  2   force =    -0.00002624   -0.00080300    0.00022657
     atom  101 type  2   force =     0.00158692   -0.00202836    0.00087506
     atom  102 type  2   force =     0.00063440    0.00036305    0.00190000
     atom  103 type  2   force =    -0.00182003   -0.00124197    0.00424504
     atom  104 type  2   force =    -0.00868832   -0.00564290   -0.01453101
     atom  105 type  2   force =    -0.00065948    0.00069169    0.00202664
     atom  106 type  2   force =     0.00082784   -0.00082564    0.00209396
     atom  107 type  2   force =     0.00353275    0.00251892    0.00111645
     atom  108 type  2   force =    -0.01122975   -0.00196462   -0.00196388
     atom  109 type  2   force =     0.00156817    0.00267486   -0.00065941
     atom  110 type  2   force =     0.00045011    0.01148483   -0.00007323
     atom  111 type  2   force =     0.01083832    0.00008619    0.00089763
     atom  112 type  2   force =    -0.00075825    0.00061918    0.00178607
     atom  113 type  2   force =    -0.00213259   -0.00134853    0.00205557
     atom  114 type  2   force =    -0.00060809   -0.00083153    0.00037266
     atom  115 type  1   force =    -0.00029680   -0.00048218    0.00015974
     atom  116 type  1   force =     0.00006430    0.00003845    0.00029594
     atom  117 type  1   force =    -0.00144919   -0.00030942    0.00081601
     atom  118 type  1   force =    -0.00004044   -0.00023391    0.00036315
     atom  119 type  1   force =    -0.00023221    0.00021552    0.00260566
     atom  120 type  1   force =    -0.00028456   -0.00009285    0.00011470
     atom  121 type  1   force =     0.00000000    0.00126258    0.00000000
     atom  122 type  1   force =     0.00000000    0.00003749    0.00000000
     atom  123 type  1   force =     0.00008729   -0.00036651   -0.00018769
     atom  124 type  1   force =    -0.00181257    0.00024755    0.00041242
     atom  125 type  1   force =     0.00041490    0.00007923    0.00039194
     atom  126 type  1   force =    -0.00010651   -0.00049159    0.00086009
     atom  127 type  1   force =    -0.00137888    0.00065926    0.00001545
     atom  128 type  1   force =    -0.00066611   -0.00042696    0.00067478
     atom  129 type  2   force =    -0.00080275   -0.00069298    0.00200359
     atom  130 type  2   force =     0.00068075    0.00071366    0.00193015
     atom  131 type  2   force =     0.00153514    0.00009055    0.00012394
     atom  132 type  2   force =    -0.00414181    0.00012974    0.00094959
     atom  133 type  2   force =     0.00049743   -0.00024458   -0.00200730
     atom  134 type  2   force =    -0.00022028   -0.00039470    0.00055245
     atom  135 type  2   force =     0.00004148   -0.00044645    0.00097641
     atom  136 type  2   force =     0.00034283    0.00016153    0.00093685
     atom  137 type  2   force =    -0.00087364   -0.00069408    0.00181146
     atom  138 type  2   force =    -0.02291857    0.01725614   -0.02195985
     atom  139 type  2   force =     0.00043081    0.00116122    0.00029591
     atom  140 type  2   force =     0.00035361    0.00115902   -0.00411520
     atom  141 type  2   force =     0.00062252    0.00023364   -0.00027238
     atom  142 type  2   force =    -0.00081734   -0.00054097    0.00138292
     atom  143 type  2   force =    -0.00088904   -0.00022614   -0.00757751
     atom  144 type  2   force =    -0.00153866    0.00059285    0.00096958
     atom  145 type  2   force =     0.00025631   -0.00023889    0.00073122
     atom  146 type  2   force =    -0.00002915    0.00023487    0.00034196
     atom  147 type  2   force =    -0.00030521    0.00021794    0.00077053
     atom  148 type  2   force =     0.00011255   -0.00012979    0.00034265
     atom  149 type  2   force =     0.00030775    0.00137127   -0.00001721
     atom  150 type  2   force =    -0.00199022   -0.00248563    0.00317151
     atom  151 type  2   force =     0.00090198   -0.00054690    0.00179521
     atom  152 type  2   force =    -0.00187975   -0.00546718    0.00168766
     atom  153 type  4   force =     0.00046334   -0.00054776    0.00005035
     atom  154 type  4   force =    -0.00035145    0.00042563   -0.00007043
     atom  155 type  4   force =     0.00118872   -0.00139202    0.00107271
     atom  156 type  4   force =    -0.00110686   -0.00096092    0.00140849
     atom  157 type  4   force =     0.00120826    0.00108360    0.00162098
     atom  158 type  4   force =    -0.00037699   -0.00043957   -0.00003979
     atom  159 type  4   force =     0.00038675    0.00041118   -0.00004731
     atom  160 type  4   force =    -0.00135245   -0.00146205    0.00132917
     atom  161 type  4   force =    -0.00110356    0.00105407    0.00148647
     atom  162 type  4   force =     0.00111992   -0.00098064    0.00140749
     atom  163 type  4   force =    -0.00149312    0.00159943    0.00158402
     atom  164 type  4   force =     0.00131268    0.00154124    0.00136113
     atom  165 type  4   force =    -0.00118872   -0.00139202   -0.00107271
     atom  166 type  4   force =     0.00110686   -0.00096092   -0.00140849
     atom  167 type  4   force =    -0.00120826    0.00108360   -0.00162098
     atom  168 type  4   force =     0.00135245   -0.00146205   -0.00132917
     atom  169 type  4   force =     0.00110356    0.00105407   -0.00148647
     atom  170 type  4   force =    -0.00111992   -0.00098064   -0.00140749
     atom  171 type  4   force =     0.00035145    0.00042563    0.00007043
     atom  172 type  4   force =    -0.00046334   -0.00054776   -0.00005035
     atom  173 type  4   force =     0.00149312    0.00159943   -0.00158402
     atom  174 type  4   force =    -0.00038675    0.00041118    0.00004731
     atom  175 type  4   force =     0.00037699   -0.00043957    0.00003979
     atom  176 type  4   force =    -0.00131268    0.00154124   -0.00136113

     Total force =     0.102627     Total SCF correction =     0.000078


     Computing stress (Cartesian axis) and pressure


     negative rho (up, down):  1.631E-02 0.000E+00
          total   stress  (Ry/bohr**3)                   (kbar)     P=        1.13
   0.00000998   0.00000000  -0.00000050            1.47        0.00       -0.07
   0.00000000   0.00001525   0.00000000            0.00        2.24        0.00
  -0.00000050   0.00000000  -0.00000226           -0.07        0.00       -0.33

     Energy error            =      5.5E-02 Ry
     Gradient error          =      3.3E-02 Ry/Bohr

     number of scf cycles    =   4
     number of bfgs steps    =   3

     energy             old  =  -27385.1128715130 Ry
     energy             new  =  -27385.1679591945 Ry

     CASE: energy            _new < energy            _old

     new trust radius        =       0.2462436798 bohr
     new conv_thr            =       0.0000000003 Ry


ATOMIC_POSITIONS (crystal)
In               0.2475752016        0.2527260715        0.3285196107
In               0.7524073455        0.2474148475        0.3285048301
In               0.2500954515        0.2509212422        0.4425384973
In               0.2523733393        0.7525075231        0.3285255120
In               0.4659935588        0.5006208606        0.4425410375
In               0.0359781754        0.5024938280        0.3287986370
In               0.7512123033        0.4657996120        0.3853460865
In               0.2486652179        0.0342434181        0.3853935335
In               0.4995488323        0.7495064343        0.3780415032
In               0.0363210406       -0.0028052822        0.4424102325
In               0.4639997484        0.0024664903        0.3287725556
In               0.0002251452        0.2500450384        0.3779726208
O                0.3889371954        0.1564038742        0.3584172518
O                0.6111057865        0.3434777252        0.3584403396
O                0.1085787157        0.1544154527        0.4133002216
O                0.8903637070        0.3443368999        0.4131048274
O                0.3811120505        0.3938419581        0.3068574397
O                0.3837834577        0.6103313759        0.3508674205
O                0.6188777014        0.1060655179        0.3068820214
O                0.6161249847        0.8895064599        0.3510966668
O                0.1548170526        0.3830804379        0.3610162078
O                0.3463076260        0.3823236353        0.4110457222
O                0.1838616621        0.6028551647        0.2984096402
O                0.3455402944        0.6174321913        0.4748279250
O                0.0990992782        0.3426286655        0.3005492475
O                0.9008614933        0.1573438043        0.3005590390
O                0.3910854931        0.3445089318        0.4729359118
O                0.6228575604        0.1441377079        0.4759666870
O                0.1162015540        0.1103957547        0.3509463974
O                0.1188865971        0.8938888510        0.3068665833
O                0.8837309380        0.3896111907        0.3509479007
O                0.8811039778        0.6061184577        0.3068691328
O                0.3161525919        0.1028988758        0.2984255792
O                0.1501338276        0.1177800714        0.4747934374
O                0.3453359050        0.8831806603        0.3610152195
O                0.1542862077        0.8821579449        0.4109818660
In               0.7520210094        0.7468722991        0.4420380934
In               0.2496003608        0.7490658967        0.4425809345
In               0.7476843840        0.7472267722        0.3285077232
In               0.7483044706        0.2541484603        0.4419663928
In               0.9642340660       -0.0024585991        0.3287805022
In               0.5302761686        0.0001653807        0.4415562556
In               0.0032824284        0.2540183136        0.4924612125
In               0.0006711777        0.7495927191        0.3929717982
In               0.5357280364        0.4975880485        0.3287811915
In               0.9676018964        0.5004073737        0.4425914453
In               0.2511631741        0.5344096725        0.3855497957
In               0.7493608627        0.9656459055        0.3853701472
In               0.4991181696        0.2508556943        0.3928838457
In               0.4960068683        0.7463086488        0.4926916349
O                0.8888906994        0.6553685102        0.4732571141
O                0.1105320211        0.8461028809        0.4731536177
O                0.5991409895        0.6573808361        0.3005546078
O                0.4008969813        0.8426510079        0.3005564020
O                0.8820342787        0.8915746422        0.4212975141
O                0.8616463816        0.0959435493        0.4699953510
O                0.1177343287        0.6102539403        0.4208110281
O                0.1181635964        0.3900816107        0.4647793477
O                0.6707269295        0.9017959139        0.4788120006
O                0.8161562687        0.8970983344        0.2984333673
O                0.6540191550        0.1177324187        0.4115866479
O                0.8449710784        0.1169145316        0.3610432844
O                0.6109758963        0.8453992330        0.4138353385
O                0.3903161738        0.6551573832        0.4129680182
O                0.8889137881        0.8434746069        0.3584939619
O                0.1110748772        0.6564903867        0.3583357370
O                0.6181930711        0.6144093748        0.4648657000
O                0.6173502131        0.3900967901        0.4210021266
O                0.3866457628        0.8897907759        0.4649939713
O                0.3816593027        0.1108834075        0.4208604620
O                0.8464825504        0.6170956099        0.4109322062
O                0.6548281830        0.6170259062        0.3610449966
O                0.8462193159        0.3795150673        0.4747876218
O                0.6838215194        0.3971229887        0.2984251909
In               0.2499045485        0.2509212422        0.5574615030
In               0.7516955294        0.2541484603        0.5580336075
In               0.2524247984        0.2527260715        0.6714803893
In               0.2503996392        0.7490658967        0.5574190658
In               0.4640218246        0.5024938280        0.6712013630
In               0.0340064412        0.5006208606        0.5574589627
In               0.7487876967        0.4657996120        0.6146539135
In               0.2513347821        0.0342434181        0.6146064665
In               0.4993288223        0.7495927191        0.6070282018
In               0.4967175716        0.2540183136        0.5075387875
In               0.0360002516        0.0024664903        0.6712274444
In               0.4636789594       -0.0028052822        0.5575897677
W                0.7500000000        0.0372161724        0.5000000001
In               0.2500000000        0.4671282783        0.5000000001
In               0.0039931317        0.7463086488        0.5073083651
In               0.0008818304        0.2508556943        0.6071161543
O                0.3914212853        0.1544154527        0.5866997786
O                0.6096362940        0.3443368999        0.5868951728
O                0.1110628046        0.1564038742        0.6415827482
O                0.8888942135        0.3434777252        0.6415596604
O                0.3818364036        0.3900816107        0.5352206523
O                0.3822656722        0.6102539403        0.5791889719
O                0.6383536184        0.0959435493        0.5300046490
O                0.6179657222        0.8915746422        0.5787024859
O                0.1536923740        0.3823236353        0.5889542778
O                0.3451829474        0.3830804379        0.6389837922
O                0.1544597056        0.6174321913        0.5251720750
O                0.3161383379        0.6028551647        0.7015903600
O                0.1089145079        0.3445089318        0.5270640887
O                0.8771424406        0.1441377079        0.5240333135
O                0.4009007227        0.3426286655        0.6994507525
O                0.5991385076        0.1573438043        0.6994409610
O                0.1183406982        0.1108834075        0.5791395380
O                0.1133542372        0.8897907759        0.5350060287
O                0.8826497878        0.3900967901        0.5789978734
O                0.8818069289        0.6144093748        0.5351343000
O                0.3498661724        0.1177800714        0.5252065626
O                0.1838474081        0.1028988758        0.7015744210
O                0.3457137923        0.8821579449        0.5890181340
O                0.1546640950        0.8831806603        0.6389847805
In               0.7523156160        0.7472267722        0.6714922768
In               0.2476266607        0.7525075231        0.6714744880
In               0.7479789906        0.7468722991        0.5579619069
In               0.7475926545        0.2474148475        0.6714951699
In               0.9697238314        0.0001653807        0.5584437446
In               0.5357659330       -0.0024585991        0.6712194978
In               0.2500000000        0.9663285342        0.5000000001
In               0.7500000000        0.5334757743        0.5000000001
In               0.0004511677        0.7495064343        0.6219584968
In               0.5323981036        0.5004073737        0.5574085549
In               0.9642719626        0.4975880485        0.6712188085
In               0.2488368259        0.5344096725        0.6144502043
In               0.7506391373        0.9656459055        0.6146298528
In               0.4997748548        0.2500450384        0.6220273792
O                0.9008590114        0.6573808361        0.6994453922
O                0.0991030196        0.8426510079        0.6994435980
O                0.6111093016        0.6553685102        0.5267428864
O                0.3894679799        0.8461028809        0.5268463828
O                0.8838750153        0.8895064599        0.6489033332
O                0.8811222986        0.1060655179        0.6931179786
O                0.1162165423        0.6103313759        0.6491325795
O                0.1188879495        0.3938419581        0.6931425603
O                0.6838437313        0.8970983344        0.7015666329
O                0.8292730705        0.9017959139        0.5211879994
O                0.6550289216        0.1169145316        0.6389567156
O                0.8459808450        0.1177324187        0.5884133521
O                0.6110862119        0.8434746069        0.6415060381
O                0.3889251228        0.6564903867        0.6416642630
O                0.8890241047        0.8453992330        0.5861646617
O                0.1096838272        0.6551573832        0.5870319820
O                0.6188960222        0.6061184577        0.6931308672
O                0.6162690620        0.3896111907        0.6490520993
O                0.3811134029        0.8938888510        0.6931334167
O                0.3837984460        0.1103957547        0.6490536026
O                0.8451718170        0.6170259062        0.6389550034
O                0.6535174496        0.6170956099        0.5890677938
O                0.8161784806        0.3971229887        0.7015748093
O                0.6537806841        0.3795150673        0.5252123782
H                0.3223551979        0.4635013131        0.3002890754
H                0.6776632628        0.0364875948        0.3002809250
H                0.1358676269        0.6467119634        0.2828401549
H                0.1376052245        0.3797886615        0.2828989647
H                0.8624047542        0.1202295575        0.2829051454
H                0.1776546904        0.9635153208        0.3002838109
H                0.8223462549        0.5364878627        0.3002837153
H                0.3641086334        0.1467136853        0.2828489769
H                0.6376134581        0.6202325202        0.2829007975
H                0.3624026128        0.8797831070        0.2828999505
H                0.8640960527        0.8533016184        0.2828568109
H                0.6358739998        0.3533044386        0.2828490794
H                0.3641323731        0.6467119634        0.7171598451
H                0.3623947755        0.3797886615        0.7171010353
H                0.6375952458        0.1202295575        0.7170948546
H                0.1358913666        0.1467136853        0.7171510231
H                0.8623865419        0.6202325202        0.7170992025
H                0.1375973872        0.8797831070        0.7171000495
H                0.8223367362        0.0364875948        0.6997190750
H                0.1776448011        0.4635013131        0.6997109246
H                0.6359039463        0.8533016184        0.7171431891
H                0.6776537441        0.5364878627        0.6997162847
H                0.3223453086        0.9635153208        0.6997161891
H                0.8641259992        0.3533044386        0.7171509206



     Writing config-only to output data dir ./tmp/rel.save/ :
     XML data file
     NEW-OLD atomic charge density approx. for the potential

     negative rho (up, down):  1.589E-02 0.000E+00

     total cpu time spent up to now is     9037.8 secs

     Self-consistent Calculation

     iteration #  1     ecut=    71.00 Ry     beta= 0.20
     Davidson diagonalization with overlap
     c_bands:  2 eigenvalues not converged
     c_bands:  3 eigenvalues not converged
     c_bands:  2 eigenvalues not converged
     c_bands:  1 eigenvalues not converged
     ethr =  1.00E-06,  avg # of iterations = 20.0

     negative rho (up, down):  8.984E-02 0.000E+00

     total cpu time spent up to now is     9119.7 secs

     total energy              =  -27385.08969265 Ry
     estimated scf accuracy    <       2.44481621 Ry

     iteration #  2     ecut=    71.00 Ry     beta= 0.20
     Davidson diagonalization with overlap
     ethr =  1.84E-04,  avg # of iterations =  2.0

     negative rho (up, down):  3.315E-01 0.000E+00

     total cpu time spent up to now is     9152.5 secs

     total energy              =  -27385.02410336 Ry
     estimated scf accuracy    <       0.92598783 Ry

     iteration #  3     ecut=    71.00 Ry     beta= 0.20
     Davidson diagonalization with overlap
     ethr =  6.97E-05,  avg # of iterations =  4.8

     negative rho (up, down):  2.600E-01 0.000E+00

     total cpu time spent up to now is     9186.3 secs

     total energy              =  -27385.10447869 Ry
     estimated scf accuracy    <       0.12011302 Ry

     iteration #  4     ecut=    71.00 Ry     beta= 0.20
     Davidson diagonalization with overlap
     ethr =  9.04E-06,  avg # of iterations =  5.0

     negative rho (up, down):  1.345E-01 0.000E+00

     total cpu time spent up to now is     9219.8 secs

     total energy              =  -27385.12459739 Ry
     estimated scf accuracy    <       0.09845869 Ry

     iteration #  5     ecut=    71.00 Ry     beta= 0.20
     Davidson diagonalization with overlap
     ethr =  7.41E-06,  avg # of iterations =  4.0

     negative rho (up, down):  6.615E-02 0.000E+00

     total cpu time spent up to now is     9253.3 secs

     total energy              =  -27385.14938028 Ry
     estimated scf accuracy    <       0.01383539 Ry

     iteration #  6     ecut=    71.00 Ry     beta= 0.20
     Davidson diagonalization with overlap
     c_bands:  2 eigenvalues not converged
     ethr =  1.04E-06,  avg # of iterations = 14.8

     negative rho (up, down):  3.872E-02 0.000E+00

     total cpu time spent up to now is     9294.0 secs

     total energy              =  -27385.16563437 Ry
     estimated scf accuracy    <       0.00718933 Ry

     iteration #  7     ecut=    71.00 Ry     beta= 0.20
     Davidson diagonalization with overlap
     ethr =  5.41E-07,  avg # of iterations =  5.0

     negative rho (up, down):  5.665E-02 0.000E+00

     total cpu time spent up to now is     9328.7 secs

     total energy              =  -27385.16998393 Ry
     estimated scf accuracy    <       0.00555948 Ry

     iteration #  8     ecut=    71.00 Ry     beta= 0.20
     Davidson diagonalization with overlap
     ethr =  4.18E-07,  avg # of iterations =  6.8

     negative rho (up, down):  1.125E-01 0.000E+00

     total cpu time spent up to now is     9366.0 secs

     total energy              =  -27385.17626372 Ry
     estimated scf accuracy    <       0.00396919 Ry

     iteration #  9     ecut=    71.00 Ry     beta= 0.20
     Davidson diagonalization with overlap
     ethr =  2.99E-07,  avg # of iterations =  5.3

     negative rho (up, down):  1.154E-01 0.000E+00

     total cpu time spent up to now is     9401.6 secs

     total energy              =  -27385.17767485 Ry
     estimated scf accuracy    <       0.01771101 Ry

     iteration # 10     ecut=    71.00 Ry     beta= 0.20
     Davidson diagonalization with overlap
     ethr =  2.99E-07,  avg # of iterations =  4.0

     negative rho (up, down):  7.222E-02 0.000E+00

     total cpu time spent up to now is     9435.6 secs

     total energy              =  -27385.17903006 Ry
     estimated scf accuracy    <       0.02322347 Ry

     iteration # 11     ecut=    71.00 Ry     beta= 0.20
     Davidson diagonalization with overlap
     ethr =  2.99E-07,  avg # of iterations =  5.0

     negative rho (up, down):  4.517E-02 0.000E+00

     total cpu time spent up to now is     9469.6 secs

     total energy              =  -27385.18007032 Ry
     estimated scf accuracy    <       0.01238730 Ry

     iteration # 12     ecut=    71.00 Ry     beta= 0.20
     Davidson diagonalization with overlap
     ethr =  2.99E-07,  avg # of iterations =  5.0

     negative rho (up, down):  5.033E-02 0.000E+00

     total cpu time spent up to now is     9503.7 secs

     total energy              =  -27385.18004115 Ry
     estimated scf accuracy    <       0.00440395 Ry

     iteration # 13     ecut=    71.00 Ry     beta= 0.20
     Davidson diagonalization with overlap
     ethr =  2.99E-07,  avg # of iterations =  2.5

     negative rho (up, down):  4.838E-02 0.000E+00

     total cpu time spent up to now is     9537.1 secs

     total energy              =  -27385.17991305 Ry
     estimated scf accuracy    <       0.00094627 Ry

     iteration # 14     ecut=    71.00 Ry     beta= 0.20
     Davidson diagonalization with overlap
     ethr =  7.12E-08,  avg # of iterations =  8.3

     negative rho (up, down):  5.089E-02 0.000E+00

     total cpu time spent up to now is     9572.3 secs

     total energy              =  -27385.17953151 Ry
     estimated scf accuracy    <       0.00124809 Ry

     iteration # 15     ecut=    71.00 Ry     beta= 0.20
     Davidson diagonalization with overlap
     ethr =  7.12E-08,  avg # of iterations =  4.5

     negative rho (up, down):  5.457E-02 0.000E+00

     total cpu time spent up to now is     9606.6 secs

     total energy              =  -27385.17936126 Ry
     estimated scf accuracy    <       0.00069571 Ry

     iteration # 16     ecut=    71.00 Ry     beta= 0.20
     Davidson diagonalization with overlap
     ethr =  5.23E-08,  avg # of iterations =  9.3

     negative rho (up, down):  5.398E-02 0.000E+00

     total cpu time spent up to now is     9642.8 secs

     total energy              =  -27385.17950604 Ry
     estimated scf accuracy    <       0.00044345 Ry

     iteration # 17     ecut=    71.00 Ry     beta= 0.20
     Davidson diagonalization with overlap
     ethr =  3.34E-08,  avg # of iterations =  1.8

     negative rho (up, down):  5.215E-02 0.000E+00

     total cpu time spent up to now is     9676.0 secs

     total energy              =  -27385.17967833 Ry
     estimated scf accuracy    <       0.00044266 Ry

     iteration # 18     ecut=    71.00 Ry     beta= 0.20
     Davidson diagonalization with overlap
     ethr =  3.33E-08,  avg # of iterations =  2.0

     negative rho (up, down):  4.892E-02 0.000E+00

     total cpu time spent up to now is     9709.2 secs

     total energy              =  -27385.17987398 Ry
     estimated scf accuracy    <       0.00047204 Ry

     iteration # 19     ecut=    71.00 Ry     beta= 0.20
     Davidson diagonalization with overlap
     ethr =  3.33E-08,  avg # of iterations =  5.3

     negative rho (up, down):  4.386E-02 0.000E+00

     total cpu time spent up to now is     9743.5 secs

     total energy              =  -27385.18017433 Ry
     estimated scf accuracy    <       0.00058867 Ry

     iteration # 20     ecut=    71.00 Ry     beta= 0.20
     Davidson diagonalization with overlap
     ethr =  3.33E-08,  avg # of iterations =  5.0

     negative rho (up, down):  4.375E-02 0.000E+00

     total cpu time spent up to now is     9777.8 secs

     total energy              =  -27385.18023563 Ry
     estimated scf accuracy    <       0.00057127 Ry

     iteration # 21     ecut=    71.00 Ry     beta= 0.20
     Davidson diagonalization with overlap
     ethr =  3.33E-08,  avg # of iterations =  5.0

     negative rho (up, down):  4.415E-02 0.000E+00

     total cpu time spent up to now is     9811.8 secs

     total energy              =  -27385.18025303 Ry
     estimated scf accuracy    <       0.00036990 Ry

     iteration # 22     ecut=    71.00 Ry     beta= 0.20
     Davidson diagonalization with overlap
     ethr =  2.78E-08,  avg # of iterations =  1.8

     negative rho (up, down):  4.511E-02 0.000E+00

     total cpu time spent up to now is     9844.7 secs

     total energy              =  -27385.18023593 Ry
     estimated scf accuracy    <       0.00033311 Ry

     iteration # 23     ecut=    71.00 Ry     beta= 0.20
     Davidson diagonalization with overlap
     ethr =  2.51E-08,  avg # of iterations =  5.3

     negative rho (up, down):  4.181E-02 0.000E+00

     total cpu time spent up to now is     9878.6 secs

     total energy              =  -27385.18044218 Ry
     estimated scf accuracy    <       0.00027195 Ry

     iteration # 24     ecut=    71.00 Ry     beta= 0.20
     Davidson diagonalization with overlap
     ethr =  2.05E-08,  avg # of iterations =  8.0

     negative rho (up, down):  3.937E-02 0.000E+00

     total cpu time spent up to now is     9914.0 secs

     total energy              =  -27385.18043275 Ry
     estimated scf accuracy    <       0.00028656 Ry

     iteration # 25     ecut=    71.00 Ry     beta= 0.20
     Davidson diagonalization with overlap
     ethr =  2.05E-08,  avg # of iterations =  7.0

     negative rho (up, down):  3.901E-02 0.000E+00

     total cpu time spent up to now is     9950.2 secs

     total energy              =  -27385.18053155 Ry
     estimated scf accuracy    <       0.00010765 Ry

     iteration # 26     ecut=    71.00 Ry     beta= 0.20
     Davidson diagonalization with overlap
     ethr =  8.10E-09,  avg # of iterations =  3.5

     negative rho (up, down):  3.721E-02 0.000E+00

     total cpu time spent up to now is     9984.0 secs

     total energy              =  -27385.18053102 Ry
     estimated scf accuracy    <       0.00007342 Ry

     iteration # 27     ecut=    71.00 Ry     beta= 0.20
     Davidson diagonalization with overlap
     ethr =  5.52E-09,  avg # of iterations =  9.5

     negative rho (up, down):  3.685E-02 0.000E+00

     total cpu time spent up to now is    10024.0 secs

     total energy              =  -27385.18049658 Ry
     estimated scf accuracy    <       0.00027702 Ry

     iteration # 28     ecut=    71.00 Ry     beta= 0.20
     Davidson diagonalization with overlap
     ethr =  5.52E-09,  avg # of iterations =  6.3

     negative rho (up, down):  3.654E-02 0.000E+00

     total cpu time spent up to now is    10062.7 secs

     total energy              =  -27385.18053111 Ry
     estimated scf accuracy    <       0.00002735 Ry

     iteration # 29     ecut=    71.00 Ry     beta= 0.20
     Davidson diagonalization with overlap
     ethr =  2.06E-09,  avg # of iterations =  2.0

     negative rho (up, down):  3.623E-02 0.000E+00

     total cpu time spent up to now is    10096.1 secs

     total energy              =  -27385.18052869 Ry
     estimated scf accuracy    <       0.00002173 Ry

     iteration # 30     ecut=    71.00 Ry     beta= 0.20
     Davidson diagonalization with overlap
     ethr =  1.63E-09,  avg # of iterations =  6.3

     negative rho (up, down):  3.582E-02 0.000E+00

     total cpu time spent up to now is    10135.4 secs

     total energy              =  -27385.18052555 Ry
     estimated scf accuracy    <       0.00004732 Ry

     iteration # 31     ecut=    71.00 Ry     beta= 0.20
     Davidson diagonalization with overlap
     ethr =  1.63E-09,  avg # of iterations =  5.8

     negative rho (up, down):  3.558E-02 0.000E+00

     total cpu time spent up to now is    10170.4 secs

     total energy              =  -27385.18052816 Ry
     estimated scf accuracy    <       0.00002024 Ry

     iteration # 32     ecut=    71.00 Ry     beta= 0.20
     Davidson diagonalization with overlap
     ethr =  1.52E-09,  avg # of iterations =  2.0

     negative rho (up, down):  3.524E-02 0.000E+00

     total cpu time spent up to now is    10203.6 secs

     total energy              =  -27385.18052375 Ry
     estimated scf accuracy    <       0.00001503 Ry

     iteration # 33     ecut=    71.00 Ry     beta= 0.20
     Davidson diagonalization with overlap
     ethr =  1.13E-09,  avg # of iterations =  9.0

     negative rho (up, down):  3.531E-02 0.000E+00

     total cpu time spent up to now is    10239.5 secs

     total energy              =  -27385.18052766 Ry
     estimated scf accuracy    <       0.00001482 Ry

     iteration # 34     ecut=    71.00 Ry     beta= 0.20
     Davidson diagonalization with overlap
     ethr =  1.12E-09,  avg # of iterations =  4.3

     negative rho (up, down):  3.553E-02 0.000E+00

     total cpu time spent up to now is    10273.3 secs

     total energy              =  -27385.18053000 Ry
     estimated scf accuracy    <       0.00001636 Ry

     iteration # 35     ecut=    71.00 Ry     beta= 0.20
     Davidson diagonalization with overlap
     ethr =  1.12E-09,  avg # of iterations =  4.5

     negative rho (up, down):  3.531E-02 0.000E+00

     total cpu time spent up to now is    10307.4 secs

     total energy              =  -27385.18052703 Ry
     estimated scf accuracy    <       0.00001592 Ry

     iteration # 36     ecut=    71.00 Ry     beta= 0.20
     Davidson diagonalization with overlap
     ethr =  1.12E-09,  avg # of iterations =  5.8

     negative rho (up, down):  3.520E-02 0.000E+00

     total cpu time spent up to now is    10342.6 secs

     total energy              =  -27385.18052420 Ry
     estimated scf accuracy    <       0.00003510 Ry

     iteration # 37     ecut=    71.00 Ry     beta= 0.20
     Davidson diagonalization with overlap
     ethr =  1.12E-09,  avg # of iterations =  3.5

     negative rho (up, down):  3.554E-02 0.000E+00

     total cpu time spent up to now is    10376.5 secs

     total energy              =  -27385.18053065 Ry
     estimated scf accuracy    <       0.00003018 Ry

     iteration # 38     ecut=    71.00 Ry     beta= 0.20
     Davidson diagonalization with overlap
     ethr =  1.12E-09,  avg # of iterations =  4.8

     negative rho (up, down):  3.588E-02 0.000E+00

     total cpu time spent up to now is    10410.3 secs

     total energy              =  -27385.18052932 Ry
     estimated scf accuracy    <       0.00003026 Ry

     iteration # 39     ecut=    71.00 Ry     beta= 0.20
     Davidson diagonalization with overlap
     ethr =  1.12E-09,  avg # of iterations =  5.8

     negative rho (up, down):  3.596E-02 0.000E+00

     total cpu time spent up to now is    10444.5 secs

     total energy              =  -27385.18053060 Ry
     estimated scf accuracy    <       0.00001486 Ry

     iteration # 40     ecut=    71.00 Ry     beta= 0.20
     Davidson diagonalization with overlap
     ethr =  1.12E-09,  avg # of iterations =  3.0

     negative rho (up, down):  3.580E-02 0.000E+00

     total cpu time spent up to now is    10478.0 secs

     total energy              =  -27385.18052965 Ry
     estimated scf accuracy    <       0.00001184 Ry

     iteration # 41     ecut=    71.00 Ry     beta= 0.20
     Davidson diagonalization with overlap
     ethr =  8.91E-10,  avg # of iterations =  5.0

     negative rho (up, down):  3.529E-02 0.000E+00

     total cpu time spent up to now is    10512.4 secs

     total energy              =  -27385.18052698 Ry
     estimated scf accuracy    <       0.00001097 Ry

     iteration # 42     ecut=    71.00 Ry     beta= 0.20
     Davidson diagonalization with overlap
     ethr =  8.26E-10,  avg # of iterations =  7.0

     negative rho (up, down):  3.538E-02 0.000E+00

     total cpu time spent up to now is    10547.1 secs

     total energy              =  -27385.18052505 Ry
     estimated scf accuracy    <       0.00001178 Ry

     iteration # 43     ecut=    71.00 Ry     beta= 0.20
     Davidson diagonalization with overlap
     ethr =  8.26E-10,  avg # of iterations =  2.8

     negative rho (up, down):  3.473E-02 0.000E+00

     total cpu time spent up to now is    10580.5 secs

     total energy              =  -27385.18052164 Ry
     estimated scf accuracy    <       0.00000564 Ry

     iteration # 44     ecut=    71.00 Ry     beta= 0.20
     Davidson diagonalization with overlap
     ethr =  4.24E-10,  avg # of iterations =  9.0

     negative rho (up, down):  3.519E-02 0.000E+00

     total cpu time spent up to now is    10620.6 secs

     total energy              =  -27385.18051781 Ry
     estimated scf accuracy    <       0.00001408 Ry

     iteration # 45     ecut=    71.00 Ry     beta= 0.20
     Davidson diagonalization with overlap
     ethr =  4.24E-10,  avg # of iterations = 11.3

     negative rho (up, down):  3.469E-02 0.000E+00

     total cpu time spent up to now is    10661.2 secs

     total energy              =  -27385.18052024 Ry
     estimated scf accuracy    <       0.00000290 Ry

     iteration # 46     ecut=    71.00 Ry     beta= 0.20
     Davidson diagonalization with overlap
     ethr =  2.18E-10,  avg # of iterations =  4.3

     negative rho (up, down):  3.418E-02 0.000E+00

     total cpu time spent up to now is    10694.9 secs

     total energy              =  -27385.18051890 Ry
     estimated scf accuracy    <       0.00000189 Ry

     iteration # 47     ecut=    71.00 Ry     beta= 0.20
     Davidson diagonalization with overlap
     ethr =  1.42E-10,  avg # of iterations =  9.0

     negative rho (up, down):  3.414E-02 0.000E+00

     total cpu time spent up to now is    10731.6 secs

     total energy              =  -27385.18051914 Ry
     estimated scf accuracy    <       0.00000188 Ry

     iteration # 48     ecut=    71.00 Ry     beta= 0.20
     Davidson diagonalization with overlap
     ethr =  1.41E-10,  avg # of iterations =  1.8

     negative rho (up, down):  3.431E-02 0.000E+00

     total cpu time spent up to now is    10764.5 secs

     total energy              =  -27385.18051925 Ry
     estimated scf accuracy    <       0.00000186 Ry

     iteration # 49     ecut=    71.00 Ry     beta= 0.20
     Davidson diagonalization with overlap
     ethr =  1.40E-10,  avg # of iterations =  2.0

     negative rho (up, down):  3.418E-02 0.000E+00

     total cpu time spent up to now is    10797.7 secs

     total energy              =  -27385.18051922 Ry
     estimated scf accuracy    <       0.00000200 Ry

     iteration # 50     ecut=    71.00 Ry     beta= 0.20
     Davidson diagonalization with overlap
     ethr =  1.40E-10,  avg # of iterations =  1.8

     negative rho (up, down):  3.411E-02 0.000E+00

     total cpu time spent up to now is    10830.6 secs

     total energy              =  -27385.18051912 Ry
     estimated scf accuracy    <       0.00000246 Ry

     iteration # 51     ecut=    71.00 Ry     beta= 0.20
     Davidson diagonalization with overlap
     ethr =  1.40E-10,  avg # of iterations =  1.0

     negative rho (up, down):  3.403E-02 0.000E+00

     total cpu time spent up to now is    10862.9 secs

     total energy              =  -27385.18051905 Ry
     estimated scf accuracy    <       0.00000229 Ry

     iteration # 52     ecut=    71.00 Ry     beta= 0.20
     Davidson diagonalization with overlap
     ethr =  1.40E-10,  avg # of iterations =  2.0

     negative rho (up, down):  3.358E-02 0.000E+00

     total cpu time spent up to now is    10896.2 secs

     total energy              =  -27385.18051855 Ry
     estimated scf accuracy    <       0.00000204 Ry

     iteration # 53     ecut=    71.00 Ry     beta= 0.20
     Davidson diagonalization with overlap
     ethr =  1.40E-10,  avg # of iterations =  4.8

     negative rho (up, down):  3.354E-02 0.000E+00

     total cpu time spent up to now is    10930.7 secs

     total energy              =  -27385.18051884 Ry
     estimated scf accuracy    <       0.00000180 Ry

     iteration # 54     ecut=    71.00 Ry     beta= 0.20
     Davidson diagonalization with overlap
     ethr =  1.35E-10,  avg # of iterations =  2.5

     negative rho (up, down):  3.357E-02 0.000E+00

     total cpu time spent up to now is    10964.2 secs

     total energy              =  -27385.18051892 Ry
     estimated scf accuracy    <       0.00000139 Ry

     iteration # 55     ecut=    71.00 Ry     beta= 0.20
     Davidson diagonalization with overlap
     ethr =  1.04E-10,  avg # of iterations =  2.0

     negative rho (up, down):  3.357E-02 0.000E+00

     total cpu time spent up to now is    10997.5 secs

     total energy              =  -27385.18051887 Ry
     estimated scf accuracy    <       0.00000156 Ry

     iteration # 56     ecut=    71.00 Ry     beta= 0.20
     Davidson diagonalization with overlap
     ethr =  1.04E-10,  avg # of iterations =  2.0

     negative rho (up, down):  3.358E-02 0.000E+00

     total cpu time spent up to now is    11030.7 secs

     total energy              =  -27385.18051897 Ry
     estimated scf accuracy    <       0.00000118 Ry

     iteration # 57     ecut=    71.00 Ry     beta= 0.20
     Davidson diagonalization with overlap
     ethr =  8.92E-11,  avg # of iterations =  2.0

     negative rho (up, down):  3.352E-02 0.000E+00

     total cpu time spent up to now is    11064.5 secs

     total energy              =  -27385.18051892 Ry
     estimated scf accuracy    <       0.00000058 Ry

     iteration # 58     ecut=    71.00 Ry     beta= 0.20
     Davidson diagonalization with overlap
     ethr =  4.34E-11,  avg # of iterations =  6.8

     negative rho (up, down):  3.349E-02 0.000E+00

     total cpu time spent up to now is    11099.6 secs

     total energy              =  -27385.18051893 Ry
     estimated scf accuracy    <       0.00000042 Ry

     iteration # 59     ecut=    71.00 Ry     beta= 0.20
     Davidson diagonalization with overlap
     ethr =  3.19E-11,  avg # of iterations =  8.8

     negative rho (up, down):  3.346E-02 0.000E+00

     total cpu time spent up to now is    11135.4 secs

     total energy              =  -27385.18051892 Ry
     estimated scf accuracy    <       0.00000024 Ry

     iteration # 60     ecut=    71.00 Ry     beta= 0.20
     Davidson diagonalization with overlap
     ethr =  1.79E-11,  avg # of iterations =  5.0

     negative rho (up, down):  3.343E-02 0.000E+00

     total cpu time spent up to now is    11170.2 secs

     total energy              =  -27385.18051891 Ry
     estimated scf accuracy    <       0.00000015 Ry

     iteration # 61     ecut=    71.00 Ry     beta= 0.20
     Davidson diagonalization with overlap
     ethr =  1.16E-11,  avg # of iterations =  7.8

     negative rho (up, down):  3.339E-02 0.000E+00

     total cpu time spent up to now is    11206.1 secs

     total energy              =  -27385.18051900 Ry
     estimated scf accuracy    <       0.00000011 Ry

     iteration # 62     ecut=    71.00 Ry     beta= 0.20
     Davidson diagonalization with overlap
     ethr =  8.48E-12,  avg # of iterations =  5.5

     negative rho (up, down):  3.334E-02 0.000E+00

     total cpu time spent up to now is    11241.2 secs

     total energy              =  -27385.18051898 Ry
     estimated scf accuracy    <       0.00000008 Ry

     iteration # 63     ecut=    71.00 Ry     beta= 0.20
     Davidson diagonalization with overlap
     ethr =  5.97E-12,  avg # of iterations = 10.0

     negative rho (up, down):  3.329E-02 0.000E+00

     total cpu time spent up to now is    11278.3 secs

     total energy              =  -27385.18051896 Ry
     estimated scf accuracy    <       0.00000010 Ry

     iteration # 64     ecut=    71.00 Ry     beta= 0.20
     Davidson diagonalization with overlap
     ethr =  5.97E-12,  avg # of iterations =  6.0

     negative rho (up, down):  3.327E-02 0.000E+00

     total cpu time spent up to now is    11314.7 secs

     total energy              =  -27385.18051897 Ry
     estimated scf accuracy    <       0.00000005 Ry

     iteration # 65     ecut=    71.00 Ry     beta= 0.20
     Davidson diagonalization with overlap
     ethr =  3.93E-12,  avg # of iterations =  6.8

     negative rho (up, down):  3.325E-02 0.000E+00

     total cpu time spent up to now is    11350.4 secs

     total energy              =  -27385.18051898 Ry
     estimated scf accuracy    <       0.00000003 Ry

     iteration # 66     ecut=    71.00 Ry     beta= 0.20
     Davidson diagonalization with overlap
     ethr =  2.37E-12,  avg # of iterations =  7.5

     negative rho (up, down):  3.324E-02 0.000E+00

     total cpu time spent up to now is    11388.3 secs

     total energy              =  -27385.18051898 Ry
     estimated scf accuracy    <       0.00000004 Ry

     iteration # 67     ecut=    71.00 Ry     beta= 0.20
     Davidson diagonalization with overlap
     ethr =  2.37E-12,  avg # of iterations =  6.0

     negative rho (up, down):  3.322E-02 0.000E+00

     total cpu time spent up to now is    11423.9 secs

     total energy              =  -27385.18051897 Ry
     estimated scf accuracy    <       0.00000001 Ry

     iteration # 68     ecut=    71.00 Ry     beta= 0.20
     Davidson diagonalization with overlap
     ethr =  9.93E-13,  avg # of iterations = 10.5

     negative rho (up, down):  3.322E-02 0.000E+00

     total cpu time spent up to now is    11461.1 secs

     total energy              =  -27385.18051897 Ry
     estimated scf accuracy    <       0.00000002 Ry

     iteration # 69     ecut=    71.00 Ry     beta= 0.20
     Davidson diagonalization with overlap
     ethr =  9.93E-13,  avg # of iterations =  1.0

     negative rho (up, down):  3.322E-02 0.000E+00

     total cpu time spent up to now is    11493.4 secs

     total energy              =  -27385.18051897 Ry
     estimated scf accuracy    <       0.00000002 Ry

     iteration # 70     ecut=    71.00 Ry     beta= 0.20
     Davidson diagonalization with overlap
     ethr =  9.93E-13,  avg # of iterations =  1.0

     negative rho (up, down):  3.323E-02 0.000E+00

     total cpu time spent up to now is    11525.7 secs

     total energy              =  -27385.18051897 Ry
     estimated scf accuracy    <       0.00000001 Ry

     iteration # 71     ecut=    71.00 Ry     beta= 0.20
     Davidson diagonalization with overlap
     ethr =  9.93E-13,  avg # of iterations =  4.3

     negative rho (up, down):  3.323E-02 0.000E+00

     total cpu time spent up to now is    11559.4 secs

     total energy              =  -27385.18051900 Ry
     estimated scf accuracy    <          9.7E-09 Ry

     iteration # 72     ecut=    71.00 Ry     beta= 0.20
     Davidson diagonalization with overlap
     ethr =  7.32E-13,  avg # of iterations =  5.3

     negative rho (up, down):  3.323E-02 0.000E+00

     total cpu time spent up to now is    11593.6 secs

     total energy              =  -27385.18051899 Ry
     estimated scf accuracy    <          9.0E-09 Ry

     iteration # 73     ecut=    71.00 Ry     beta= 0.20
     Davidson diagonalization with overlap
     ethr =  6.79E-13,  avg # of iterations =  4.0

     negative rho (up, down):  3.322E-02 0.000E+00

     total cpu time spent up to now is    11627.4 secs

     total energy              =  -27385.18051900 Ry
     estimated scf accuracy    <          8.1E-09 Ry

     iteration # 74     ecut=    71.00 Ry     beta= 0.20
     Davidson diagonalization with overlap
     ethr =  6.11E-13,  avg # of iterations =  2.0

     negative rho (up, down):  3.322E-02 0.000E+00

     total cpu time spent up to now is    11660.6 secs

     total energy              =  -27385.18051899 Ry
     estimated scf accuracy    <          8.0E-09 Ry

     iteration # 75     ecut=    71.00 Ry     beta= 0.20
     Davidson diagonalization with overlap
     ethr =  6.05E-13,  avg # of iterations =  1.0

     negative rho (up, down):  3.323E-02 0.000E+00

     total cpu time spent up to now is    11692.9 secs

     total energy              =  -27385.18051898 Ry
     estimated scf accuracy    <          7.7E-09 Ry

     iteration # 76     ecut=    71.00 Ry     beta= 0.20
     Davidson diagonalization with overlap
     ethr =  5.81E-13,  avg # of iterations =  1.8

     negative rho (up, down):  3.323E-02 0.000E+00

     total cpu time spent up to now is    11726.0 secs

     total energy              =  -27385.18051901 Ry
     estimated scf accuracy    <          7.7E-09 Ry

     iteration # 77     ecut=    71.00 Ry     beta= 0.20
     Davidson diagonalization with overlap
     ethr =  5.81E-13,  avg # of iterations =  2.0

     negative rho (up, down):  3.323E-02 0.000E+00

     total cpu time spent up to now is    11759.3 secs

     total energy              =  -27385.18051900 Ry
     estimated scf accuracy    <          7.1E-09 Ry

     iteration # 78     ecut=    71.00 Ry     beta= 0.20
     Davidson diagonalization with overlap
     ethr =  5.35E-13,  avg # of iterations =  6.5

     negative rho (up, down):  3.324E-02 0.000E+00

     total cpu time spent up to now is    11793.8 secs

     total energy              =  -27385.18051900 Ry
     estimated scf accuracy    <          5.0E-09 Ry

     iteration # 79     ecut=    71.00 Ry     beta= 0.20
     Davidson diagonalization with overlap
     ethr =  3.76E-13,  avg # of iterations =  6.8

     negative rho (up, down):  3.324E-02 0.000E+00

     total cpu time spent up to now is    11829.5 secs

     total energy              =  -27385.18051900 Ry
     estimated scf accuracy    <          3.6E-09 Ry

     iteration # 80     ecut=    71.00 Ry     beta= 0.20
     Davidson diagonalization with overlap
     ethr =  2.69E-13,  avg # of iterations =  2.8

     negative rho (up, down):  3.325E-02 0.000E+00

     total cpu time spent up to now is    11863.1 secs

     total energy              =  -27385.18051900 Ry
     estimated scf accuracy    <          2.5E-09 Ry

     iteration # 81     ecut=    71.00 Ry     beta= 0.20
     Davidson diagonalization with overlap
     ethr =  1.89E-13,  avg # of iterations =  5.5

     negative rho (up, down):  3.326E-02 0.000E+00

     total cpu time spent up to now is    11897.2 secs

     total energy              =  -27385.18051897 Ry
     estimated scf accuracy    <          2.3E-09 Ry

     iteration # 82     ecut=    71.00 Ry     beta= 0.20
     Davidson diagonalization with overlap
     ethr =  1.74E-13,  avg # of iterations =  5.5

     negative rho (up, down):  3.327E-02 0.000E+00

     total cpu time spent up to now is    11931.5 secs

     total energy              =  -27385.18051898 Ry
     estimated scf accuracy    <          2.0E-09 Ry

     iteration # 83     ecut=    71.00 Ry     beta= 0.20
     Davidson diagonalization with overlap
     ethr =  1.53E-13,  avg # of iterations =  3.5

     negative rho (up, down):  3.327E-02 0.000E+00

     total cpu time spent up to now is    11965.1 secs

     total energy              =  -27385.18051899 Ry
     estimated scf accuracy    <          1.3E-09 Ry

     iteration # 84     ecut=    71.00 Ry     beta= 0.20
     Davidson diagonalization with overlap
     ethr =  1.00E-13,  avg # of iterations =  7.8

     negative rho (up, down):  3.327E-02 0.000E+00

     total cpu time spent up to now is    12001.4 secs

     total energy              =  -27385.18051901 Ry
     estimated scf accuracy    <          1.3E-09 Ry

     iteration # 85     ecut=    71.00 Ry     beta= 0.20
     Davidson diagonalization with overlap
     ethr =  1.00E-13,  avg # of iterations =  2.0

     negative rho (up, down):  3.328E-02 0.000E+00

     total cpu time spent up to now is    12034.6 secs

     total energy              =  -27385.18051895 Ry
     estimated scf accuracy    <          7.8E-10 Ry

     iteration # 86     ecut=    71.00 Ry     beta= 0.20
     Davidson diagonalization with overlap
     ethr =  1.00E-13,  avg # of iterations = 10.5

     negative rho (up, down):  3.327E-02 0.000E+00

     total cpu time spent up to now is    12070.5 secs

     End of self-consistent calculation

          k = 0.0000 0.0000 0.0000 (327585 PWs)   bands (ev):

   -74.8579 -39.1518 -39.0854 -39.0466 -18.2561 -18.1886 -18.1885 -18.0737
   -18.0737 -18.0458 -18.0458 -17.9977 -17.9977 -17.8428 -17.8428 -17.7783
   -17.7783 -17.7494 -17.7494 -17.6998 -17.6998 -17.6963 -17.6963 -17.6662
   -17.6662 -17.6108 -17.6107 -17.6007 -17.6007 -17.5196 -17.4614 -17.4137
   -17.2997 -17.2818 -17.2071 -17.2047 -17.1351 -17.1330 -17.1187 -17.0953
   -17.0688 -17.0608 -17.0360 -17.0128 -17.0118 -17.0006 -16.9992 -16.9640
   -16.9315 -16.9213 -16.8937 -16.8881 -16.8856 -16.8758 -16.8712 -16.8508
   -16.8489 -16.8361 -16.8266 -16.8058 -16.7810 -16.7635 -16.7420 -16.7336
   -16.7230 -16.7214 -16.7150 -16.7058 -16.6860 -16.6843 -16.6713 -16.6661
   -16.6602 -16.6517 -16.6356 -16.6340 -16.6327 -16.6042 -16.6021 -16.5978
   -16.5844 -16.5767 -16.5603 -16.5543 -16.4926 -16.4868 -16.4738 -16.4724
   -16.4679 -16.4611 -16.4454 -16.4293 -16.4252 -16.4240 -16.4086 -16.4086
   -16.3386 -16.3386 -16.2848 -16.2829 -12.7169 -12.7135 -12.6923 -12.6910
   -12.6826 -12.6675 -12.6650 -12.6640 -12.6597 -12.6513 -12.6491 -12.6490
   -12.6438 -12.6413 -12.6340 -12.6255 -12.6204 -12.6183 -12.6080 -12.6068
   -12.6050 -12.5983 -12.5953 -12.5843 -12.5813 -12.5802 -12.5768 -12.5751
   -12.5710 -12.5677 -12.5580 -12.5517 -12.5429 -12.5401 -12.5374 -12.5354
   -12.5312 -12.5229 -12.5123 -12.5107 -12.5099 -12.5071 -12.5013 -12.4957
   -12.4915 -12.4883 -12.4822 -12.4732 -12.4707 -12.4494 -12.4489 -12.4473
   -12.4411 -12.4402 -12.4390 -12.4323 -12.4294 -12.4201 -12.4188 -12.4127
   -12.4055 -12.3980 -12.3895 -12.3885 -12.3829 -12.3799 -12.3727 -12.3721
   -12.3644 -12.3621 -12.3581 -12.3535 -12.3498 -12.3469 -12.3434 -12.3399
   -12.3385 -12.3383 -12.3322 -12.3318 -12.3251 -12.3229 -12.3215 -12.3178
   -12.3140 -12.3108 -12.3060 -12.3039 -12.2994 -12.2977 -12.2951 -12.2939
   -12.2932 -12.2902 -12.2865 -12.2838 -12.2793 -12.2772 -12.2763 -12.2720
   -12.2706 -12.2673 -12.2667 -12.2615 -12.2599 -12.2591 -12.2554 -12.2532
   -12.2510 -12.2501 -12.2482 -12.2422 -12.2417 -12.2409 -12.2351 -12.2340
   -12.2321 -12.2274 -12.2266 -12.2246 -12.2224 -12.2182 -12.2159 -12.2131
   -12.2101 -12.2075 -12.2053 -12.2039 -12.2030 -12.1994 -12.1990 -12.1978
   -12.1963 -12.1953 -12.1920 -12.1871 -12.1864 -12.1840 -12.1807 -12.1807
   -12.1785 -12.1756 -12.1736 -12.1731 -12.1699 -12.1698 -12.1634 -12.1627
   -12.1565 -12.1559 -12.1460 -12.1459 -12.1411 -12.1406 -12.1392 -12.1383
   -12.1355 -12.1330 -12.1283 -12.1272 -12.1269 -12.1216 -12.1206 -12.1160
   -12.1124 -12.1113 -12.1104 -12.1079 -12.1052 -12.0998 -12.0961 -12.0907
   -12.0894 -12.0878 -12.0860 -12.0856 -12.0837 -12.0775 -12.0772 -12.0739
   -12.0726 -12.0649 -12.0643 -12.0589 -12.0576 -12.0541 -12.0525 -12.0469
   -12.0461 -12.0387 -12.0356 -12.0349 -12.0311 -12.0266 -12.0252 -12.0252
   -12.0226 -12.0204 -12.0191 -12.0166 -12.0158 -12.0134 -12.0124 -12.0105
   -12.0097 -12.0027 -12.0013 -11.9991 -11.9965 -11.9895 -11.9837 -11.9818
   -11.9791 -11.9736 -11.9712 -11.9676 -11.9627 -11.9611 -11.9561 -11.9561
   -11.9487 -11.9477 -11.9463 -11.9382 -11.9369 -11.9368 -11.9344 -11.9316
   -11.9268 -11.9224 -11.9046 -11.8975 -11.8962 -11.8956 -11.8856 -11.8826
   -11.8683 -11.8650 -11.8186 -11.8116 -11.7678 -11.7571 -11.7410 -11.7361
   -11.7266 -11.6697 -11.6621 -11.6595 -11.6582 -11.6212 -11.6160 -11.5938
   -11.5883 -11.5461 -11.5347 -11.5067 -11.4938 -11.4715 -11.4701 -11.4552
   -11.4391 -11.4384 -11.4011 -11.3941 -11.3839 -11.3257 -11.3222 -11.3011
   -11.2998 -11.2273 -11.2036 -11.1978 -11.1815 -11.1777 -11.1560  -5.8256
    -5.7766  -5.7726  -5.6228  -5.6064  -5.6010  -5.5935  -5.5899  -5.5866
    -5.5840  -5.4802  -5.4449  -5.4407  -5.4221  -5.3877  -5.3735  -5.3380
    -5.3131  -5.3070  -5.3068  -5.2958  -5.2908  -5.1951  -5.1861  -5.1118
    -5.0819  -5.0287  -4.9867  -4.9796  -4.8757  -4.8700  -4.8496  -4.8392
    -4.7270  -4.7234  -4.7084  -4.6991  -4.6918  -4.6411  -4.6379  -4.6229
    -4.5906  -4.5827  -4.5735  -4.5564  -4.5289  -4.5159  -4.4524  -4.4307
    -4.4110  -4.3923  -4.3787  -4.3640  -4.3121  -4.2966  -4.2302  -4.2191
    -4.2108  -4.1474  -4.1162  -4.0994  -4.0547  -4.0061  -3.9758  -3.9531
    -3.9030  -3.8798  -3.8666  -3.7925  -3.7756  -3.7487  -3.7390  -3.6960
    -3.6953  -3.6421  -3.6180  -3.6115  -3.6082  -3.5880  -3.5401  -3.5133
    -3.4936  -3.4935  -3.4565  -3.4258  -3.4229  -3.3810  -3.3625  -3.3171
    -3.3114  -3.2952  -3.2297  -3.2228  -3.2007  -3.1385  -3.1294  -3.1159
    -3.0862  -3.0809  -3.0359  -3.0302  -3.0100  -2.9611  -2.9396  -2.9155
    -2.8763  -2.8671  -2.8549  -2.8148  -2.8088  -2.8000  -2.7648  -2.7314
    -2.7223  -2.6849  -2.6560  -2.6205  -2.6154  -2.6014  -2.5822  -2.5537
    -2.5331  -2.5135  -2.4790  -2.4770  -2.4564  -2.4104  -2.4043  -2.3873
    -2.3664  -2.3523  -2.3246  -2.2679  -2.2476  -2.2247  -2.2205  -2.1812
    -2.1529  -2.1307  -2.1241  -2.1213  -2.1024  -2.0879  -2.0438  -2.0410
    -2.0034  -1.9710  -1.9684  -1.9661  -1.9293  -1.9236  -1.8928  -1.8762
    -1.8706  -1.8596  -1.8553  -1.8374  -1.8355  -1.8252  -1.8248  -1.7900
    -1.7857  -1.7689  -1.7390  -1.7373  -1.7347  -1.7273  -1.7197  -1.7169
    -1.6869  -1.6854  -1.6524  -1.6423  -1.6343  -1.6049  -1.5893  -1.5780
    -1.5718  -1.5606  -1.5366  -1.5354  -1.5257  -1.5012  -1.4899  -1.4830
    -1.4761  -1.4425  -1.4097  -1.4075  -1.3968  -1.3834  -1.3509  -1.3383
    -1.3339  -1.3037  -1.2781  -1.2547  -1.2544  -1.2403  -1.2107  -1.2099
    -1.2046  -1.1891  -1.1347  -1.0665  -1.0650  -1.0370  -1.0354  -1.0297
    -1.0165  -1.0126  -1.0017  -0.9631  -0.9361  -0.9299  -0.9137  -0.9091
    -0.8989  -0.8811  -0.8504  -0.8471  -0.8448  -0.8165  -0.8140  -0.8002
    -0.7853  -0.7803  -0.7502  -0.7354  -0.7151  -0.6739  -0.6730  -0.6460
    -0.6439  -0.6399  -0.6084  -0.6034  -0.5931  -0.5895  -0.5699  -0.5510
    -0.5506  -0.5474  -0.5303  -0.5145  -0.4939  -0.4929  -0.4885  -0.4825
    -0.4784  -0.4727  -0.4529  -0.4397  -0.4376  -0.4222  -0.4170  -0.4146
    -0.4141  -0.4034  -0.3847  -0.3805  -0.3801  -0.3678  -0.3586  -0.3331
    -0.3269  -0.3165  -0.3099  -0.3003  -0.2977  -0.2503  -0.2442  -0.2265
    -0.2188  -0.2116  -0.2009  -0.1996  -0.1819  -0.1819  -0.1599  -0.1508
    -0.1445  -0.1279  -0.1202  -0.0026   0.0004   0.0018   0.0065   1.0967
     1.8523   2.4351   2.5506   2.8246   3.2817   3.5315   3.6979   3.8181
     3.8696   3.9469   4.1262   4.1584   4.2272

          k = 0.0000 0.3336 0.0000 (327620 PWs)   bands (ev):

   -74.8579 -39.1518 -39.0854 -39.0466 -18.2538 -18.1610 -18.1609 -18.0928
   -18.0928 -18.0581 -18.0581 -18.0204 -18.0204 -17.8067 -17.8067 -17.7645
   -17.7645 -17.7568 -17.7568 -17.7158 -17.7158 -17.6858 -17.6858 -17.6708
   -17.6708 -17.6122 -17.6122 -17.6064 -17.6064 -17.5227 -17.4318 -17.3907
   -17.3248 -17.3042 -17.2697 -17.1959 -17.1816 -17.1365 -17.1292 -17.0790
   -17.0713 -17.0560 -17.0317 -17.0105 -17.0088 -16.9744 -16.9708 -16.9443
   -16.9362 -16.9116 -16.9096 -16.8842 -16.8728 -16.8688 -16.8498 -16.8415
   -16.8375 -16.8300 -16.8171 -16.7910 -16.7862 -16.7635 -16.7495 -16.7379
   -16.7364 -16.7278 -16.7142 -16.7117 -16.6927 -16.6887 -16.6717 -16.6614
   -16.6540 -16.6455 -16.6325 -16.6311 -16.6241 -16.6103 -16.6037 -16.5915
   -16.5767 -16.5675 -16.5499 -16.5427 -16.5258 -16.5253 -16.4980 -16.4908
   -16.4600 -16.4533 -16.4368 -16.4296 -16.4287 -16.4257 -16.4184 -16.4180
   -16.3190 -16.3189 -16.2932 -16.2922 -12.7155 -12.6996 -12.6951 -12.6908
   -12.6848 -12.6720 -12.6701 -12.6615 -12.6604 -12.6495 -12.6485 -12.6440
   -12.6393 -12.6359 -12.6302 -12.6280 -12.6220 -12.6173 -12.6128 -12.6047
   -12.6018 -12.5982 -12.5935 -12.5878 -12.5859 -12.5771 -12.5754 -12.5718
   -12.5679 -12.5637 -12.5576 -12.5500 -12.5436 -12.5381 -12.5345 -12.5328
   -12.5243 -12.5224 -12.5169 -12.5123 -12.5112 -12.5054 -12.5012 -12.5005
   -12.4930 -12.4912 -12.4829 -12.4771 -12.4699 -12.4636 -12.4612 -12.4504
   -12.4491 -12.4432 -12.4371 -12.4322 -12.4275 -12.4234 -12.4199 -12.4081
   -12.4039 -12.3982 -12.3960 -12.3897 -12.3876 -12.3857 -12.3736 -12.3724
   -12.3693 -12.3624 -12.3590 -12.3561 -12.3495 -12.3439 -12.3429 -12.3384
   -12.3362 -12.3349 -12.3329 -12.3273 -12.3228 -12.3218 -12.3184 -12.3170
   -12.3142 -12.3131 -12.3108 -12.3084 -12.3016 -12.2971 -12.2957 -12.2945
   -12.2894 -12.2887 -12.2841 -12.2835 -12.2785 -12.2773 -12.2761 -12.2717
   -12.2680 -12.2668 -12.2639 -12.2606 -12.2565 -12.2544 -12.2530 -12.2505
   -12.2472 -12.2418 -12.2418 -12.2400 -12.2390 -12.2346 -12.2326 -12.2308
   -12.2291 -12.2257 -12.2249 -12.2217 -12.2201 -12.2166 -12.2152 -12.2116
   -12.2103 -12.2088 -12.2064 -12.2032 -12.2024 -12.2000 -12.1998 -12.1959
   -12.1958 -12.1925 -12.1922 -12.1877 -12.1873 -12.1846 -12.1823 -12.1818
   -12.1764 -12.1760 -12.1739 -12.1733 -12.1708 -12.1706 -12.1636 -12.1631
   -12.1533 -12.1515 -12.1499 -12.1478 -12.1436 -12.1433 -12.1396 -12.1395
   -12.1350 -12.1331 -12.1321 -12.1312 -12.1268 -12.1246 -12.1223 -12.1178
   -12.1158 -12.1142 -12.1111 -12.1088 -12.1077 -12.1056 -12.1049 -12.1000
   -12.0975 -12.0928 -12.0917 -12.0912 -12.0879 -12.0815 -12.0804 -12.0762
   -12.0738 -12.0697 -12.0659 -12.0642 -12.0596 -12.0586 -12.0520 -12.0516
   -12.0462 -12.0457 -12.0406 -12.0379 -12.0345 -12.0280 -12.0261 -12.0220
   -12.0209 -12.0193 -12.0170 -12.0145 -12.0111 -12.0068 -12.0038 -12.0005
   -11.9999 -11.9955 -11.9935 -11.9923 -11.9888 -11.9888 -11.9843 -11.9820
   -11.9768 -11.9745 -11.9724 -11.9675 -11.9658 -11.9651 -11.9614 -11.9601
   -11.9559 -11.9556 -11.9509 -11.9495 -11.9489 -11.9394 -11.9333 -11.9318
   -11.9247 -11.9182 -11.9132 -11.8979 -11.8978 -11.8785 -11.8765 -11.8651
   -11.8541 -11.8307 -11.8248 -11.8102 -11.7985 -11.7724 -11.7676 -11.7327
   -11.7182 -11.6899 -11.6834 -11.6393 -11.6207 -11.5970 -11.5759 -11.5567
   -11.5531 -11.5396 -11.5344 -11.4935 -11.4924 -11.4837 -11.4787 -11.4616
   -11.4540 -11.4452 -11.4233 -11.4045 -11.3840 -11.3537 -11.3458 -11.2657
   -11.2631 -11.2285 -11.2205 -11.2077 -11.1973 -11.1847 -11.1766  -5.8101
    -5.7505  -5.7486  -5.6832  -5.6795  -5.6387  -5.5969  -5.5968  -5.5871
    -5.5868  -5.5071  -5.4432  -5.4293  -5.4280  -5.3915  -5.3911  -5.2822
    -5.2554  -5.2456  -5.2383  -5.2371  -5.2112  -5.1598  -5.0887  -5.0787
    -5.0735  -4.9958  -4.9872  -4.9473  -4.8782  -4.8544  -4.8349  -4.8190
    -4.8117  -4.7817  -4.7609  -4.7558  -4.7170  -4.7074  -4.6782  -4.6635
    -4.6481  -4.6284  -4.5695  -4.5456  -4.5131  -4.5057  -4.4716  -4.4532
    -4.4493  -4.4188  -4.4071  -4.3802  -4.3686  -4.3367  -4.3121  -4.2958
    -4.2581  -4.2462  -4.2174  -4.1536  -4.1395  -4.0026  -3.9513  -3.9336
    -3.8959  -3.8432  -3.7897  -3.7747  -3.7595  -3.7236  -3.7185  -3.6893
    -3.6852  -3.6729  -3.6682  -3.6082  -3.5776  -3.5622  -3.5246  -3.4844
    -3.4592  -3.4459  -3.4331  -3.3652  -3.3484  -3.3257  -3.3092  -3.2750
    -3.2371  -3.2221  -3.1915  -3.1658  -3.1317  -3.1215  -3.0927  -3.0896
    -3.0593  -3.0342  -3.0175  -3.0071  -2.9797  -2.9272  -2.9153  -2.9033
    -2.8664  -2.8589  -2.8241  -2.8005  -2.7748  -2.7458  -2.7365  -2.6946
    -2.6714  -2.6566  -2.6467  -2.6053  -2.6018  -2.5851  -2.5726  -2.5320
    -2.4962  -2.4879  -2.4789  -2.4362  -2.4251  -2.3833  -2.3643  -2.3545
    -2.3456  -2.3354  -2.3294  -2.3108  -2.2914  -2.2812  -2.2643  -2.2427
    -2.2232  -2.2080  -2.1940  -2.1794  -2.1675  -2.1276  -2.1240  -2.1059
    -2.0861  -2.0785  -2.0584  -2.0524  -2.0190  -2.0022  -1.9769  -1.9508
    -1.9357  -1.9134  -1.9004  -1.8986  -1.8761  -1.8534  -1.8352  -1.8069
    -1.8047  -1.7711  -1.7514  -1.7443  -1.7204  -1.7180  -1.7021  -1.6955
    -1.6841  -1.6773  -1.6352  -1.6132  -1.5903  -1.5880  -1.5531  -1.5368
    -1.5333  -1.5162  -1.5000  -1.4739  -1.4606  -1.4559  -1.4436  -1.4330
    -1.4188  -1.4150  -1.3670  -1.3550  -1.3501  -1.3318  -1.3209  -1.3018
    -1.2935  -1.2811  -1.2710  -1.2382  -1.2285  -1.2060  -1.1993  -1.1774
    -1.1535  -1.1283  -1.1199  -1.1024  -1.0940  -1.0721  -1.0513  -1.0359
    -1.0196  -1.0051  -0.9893  -0.9798  -0.9575  -0.9472  -0.9209  -0.9171
    -0.8984  -0.8886  -0.8727  -0.8559  -0.8390  -0.8268  -0.8200  -0.8172
    -0.8072  -0.7886  -0.7713  -0.7632  -0.7463  -0.7425  -0.7291  -0.7039
    -0.6809  -0.6615  -0.6473  -0.6393  -0.6283  -0.6186  -0.6178  -0.5885
    -0.5773  -0.5719  -0.5619  -0.5512  -0.5469  -0.5278  -0.5181  -0.4994
    -0.4957  -0.4804  -0.4715  -0.4514  -0.4446  -0.4416  -0.4231  -0.4172
    -0.4112  -0.3998  -0.3891  -0.3764  -0.3735  -0.3479  -0.3455  -0.3251
    -0.3233  -0.3065  -0.2964  -0.2948  -0.2875  -0.2746  -0.2707  -0.2553
    -0.2461  -0.2363  -0.2348  -0.1736  -0.1518  -0.1483  -0.1400  -0.1282
    -0.1156  -0.1052  -0.0988  -0.0325  -0.0303  -0.0219  -0.0189   1.6328
     2.2823   2.4277   2.5279   2.9299   3.0839   3.1201   3.4395   3.7365
     3.7752   3.9833   4.0771   4.2316   4.2576

          k = 0.3333 0.0000 0.0000 (327628 PWs)   bands (ev):

   -74.8579 -39.1518 -39.0854 -39.0466 -18.2535 -18.1654 -18.1654 -18.1088
   -18.1088 -18.0355 -18.0355 -18.0085 -18.0085 -17.8269 -17.8269 -17.7949
   -17.7949 -17.7278 -17.7278 -17.6941 -17.6941 -17.6881 -17.6881 -17.6819
   -17.6819 -17.6121 -17.6121 -17.6065 -17.6065 -17.5082 -17.4739 -17.3823
   -17.3248 -17.2948 -17.2532 -17.2003 -17.1790 -17.1274 -17.0891 -17.0817
   -17.0676 -17.0524 -17.0375 -17.0173 -17.0066 -17.0018 -16.9743 -16.9549
   -16.9381 -16.9217 -16.9186 -16.9131 -16.8819 -16.8739 -16.8604 -16.8497
   -16.8321 -16.8281 -16.8070 -16.7975 -16.7913 -16.7481 -16.7347 -16.7321
   -16.7249 -16.7195 -16.7118 -16.7018 -16.6920 -16.6845 -16.6750 -16.6664
   -16.6477 -16.6453 -16.6395 -16.6260 -16.6229 -16.6009 -16.5961 -16.5889
   -16.5833 -16.5690 -16.5581 -16.5488 -16.5068 -16.5062 -16.4793 -16.4782
   -16.4743 -16.4626 -16.4550 -16.4507 -16.4358 -16.4344 -16.4173 -16.4160
   -16.3184 -16.3178 -16.2902 -16.2888 -12.7109 -12.7049 -12.7015 -12.6912
   -12.6897 -12.6734 -12.6710 -12.6593 -12.6578 -12.6537 -12.6483 -12.6441
   -12.6414 -12.6357 -12.6295 -12.6226 -12.6202 -12.6131 -12.6068 -12.6035
   -12.6003 -12.5970 -12.5916 -12.5886 -12.5860 -12.5833 -12.5753 -12.5709
   -12.5647 -12.5629 -12.5580 -12.5518 -12.5493 -12.5412 -12.5337 -12.5284
   -12.5248 -12.5226 -12.5212 -12.5181 -12.5100 -12.5060 -12.5045 -12.5003
   -12.4939 -12.4848 -12.4828 -12.4762 -12.4676 -12.4655 -12.4563 -12.4523
   -12.4488 -12.4445 -12.4421 -12.4373 -12.4320 -12.4164 -12.4134 -12.4076
   -12.4050 -12.4034 -12.3946 -12.3905 -12.3840 -12.3743 -12.3707 -12.3691
   -12.3655 -12.3622 -12.3599 -12.3542 -12.3520 -12.3467 -12.3419 -12.3392
   -12.3342 -12.3308 -12.3296 -12.3257 -12.3211 -12.3187 -12.3172 -12.3151
   -12.3100 -12.3077 -12.3070 -12.3052 -12.3037 -12.3011 -12.2991 -12.2959
   -12.2922 -12.2884 -12.2878 -12.2845 -12.2814 -12.2778 -12.2764 -12.2691
   -12.2680 -12.2673 -12.2656 -12.2599 -12.2596 -12.2571 -12.2557 -12.2528
   -12.2511 -12.2473 -12.2449 -12.2409 -12.2403 -12.2375 -12.2350 -12.2337
   -12.2307 -12.2297 -12.2273 -12.2228 -12.2205 -12.2191 -12.2165 -12.2139
   -12.2122 -12.2103 -12.2062 -12.2054 -12.2038 -12.2023 -12.1996 -12.1978
   -12.1936 -12.1914 -12.1899 -12.1884 -12.1857 -12.1830 -12.1818 -12.1799
   -12.1779 -12.1746 -12.1720 -12.1695 -12.1675 -12.1663 -12.1634 -12.1604
   -12.1557 -12.1531 -12.1523 -12.1502 -12.1477 -12.1409 -12.1399 -12.1389
   -12.1376 -12.1343 -12.1312 -12.1306 -12.1280 -12.1235 -12.1231 -12.1205
   -12.1174 -12.1110 -12.1084 -12.1069 -12.1049 -12.1030 -12.1006 -12.0993
   -12.0955 -12.0943 -12.0923 -12.0868 -12.0831 -12.0794 -12.0756 -12.0731
   -12.0704 -12.0681 -12.0643 -12.0621 -12.0571 -12.0546 -12.0505 -12.0481
   -12.0475 -12.0453 -12.0409 -12.0369 -12.0345 -12.0327 -12.0302 -12.0279
   -12.0224 -12.0199 -12.0149 -12.0107 -12.0078 -12.0029 -12.0004 -11.9990
   -11.9946 -11.9932 -11.9908 -11.9891 -11.9872 -11.9850 -11.9832 -11.9814
   -11.9794 -11.9766 -11.9750 -11.9711 -11.9686 -11.9657 -11.9627 -11.9604
   -11.9552 -11.9529 -11.9499 -11.9488 -11.9443 -11.9412 -11.9350 -11.9310
   -11.9207 -11.9178 -11.9112 -11.8988 -11.8939 -11.8812 -11.8699 -11.8631
   -11.8533 -11.8428 -11.8391 -11.8307 -11.8210 -11.7826 -11.7692 -11.7412
   -11.7198 -11.7039 -11.6561 -11.6489 -11.6256 -11.6165 -11.5909 -11.5660
   -11.5490 -11.5466 -11.5283 -11.5238 -11.5047 -11.4883 -11.4727 -11.4516
   -11.4218 -11.4054 -11.3918 -11.3670 -11.3555 -11.3480 -11.3395 -11.2751
   -11.2731 -11.2453 -11.2341 -11.2068 -11.2044 -11.1967 -11.1875  -5.8058
    -5.7430  -5.7396  -5.6580  -5.6572  -5.6197  -5.6037  -5.5942  -5.5852
    -5.5700  -5.4748  -5.4574  -5.4373  -5.4341  -5.4228  -5.3726  -5.3340
    -5.2916  -5.2493  -5.2465  -5.2380  -5.2167  -5.1262  -5.0820  -5.0464
    -5.0223  -5.0118  -4.9987  -4.9748  -4.9465  -4.9200  -4.8996  -4.8614
    -4.8065  -4.7674  -4.7497  -4.7256  -4.7119  -4.6856  -4.6645  -4.6606
    -4.6256  -4.6035  -4.5891  -4.5776  -4.5480  -4.5234  -4.5187  -4.4869
    -4.4652  -4.4373  -4.4073  -4.3510  -4.3334  -4.2983  -4.2531  -4.2078
    -4.1811  -4.1582  -4.1250  -4.0681  -4.0429  -4.0236  -4.0068  -3.9845
    -3.9727  -3.9575  -3.9067  -3.8866  -3.8416  -3.8112  -3.7754  -3.7092
    -3.6789  -3.6114  -3.5978  -3.5676  -3.5329  -3.5283  -3.4950  -3.4769
    -3.4667  -3.4381  -3.3891  -3.3839  -3.3525  -3.3439  -3.3018  -3.2954
    -3.2674  -3.2452  -3.2070  -3.1776  -3.1395  -3.1192  -3.0906  -3.0470
    -3.0319  -3.0138  -2.9840  -2.9692  -2.9409  -2.9203  -2.9183  -2.8820
    -2.8744  -2.8561  -2.8207  -2.7962  -2.7773  -2.7576  -2.7364  -2.6825
    -2.6773  -2.6677  -2.6498  -2.6350  -2.5844  -2.5823  -2.5637  -2.5390
    -2.5327  -2.5246  -2.5059  -2.4731  -2.4554  -2.4441  -2.4124  -2.4047
    -2.3943  -2.3516  -2.3309  -2.3114  -2.3065  -2.2611  -2.2537  -2.2340
    -2.2100  -2.1625  -2.1368  -2.1306  -2.1085  -2.0901  -2.0723  -2.0609
    -2.0450  -2.0304  -1.9918  -1.9897  -1.9663  -1.9468  -1.9375  -1.9270
    -1.9132  -1.8932  -1.8811  -1.8680  -1.8468  -1.8313  -1.8258  -1.8012
    -1.7887  -1.7744  -1.7696  -1.7441  -1.7373  -1.7169  -1.7135  -1.6866
    -1.6800  -1.6665  -1.6437  -1.6305  -1.6149  -1.6069  -1.5967  -1.5780
    -1.5573  -1.5498  -1.5332  -1.5257  -1.5076  -1.4853  -1.4790  -1.4687
    -1.4464  -1.4234  -1.4127  -1.4023  -1.3701  -1.3631  -1.3465  -1.3273
    -1.3044  -1.3016  -1.2664  -1.2459  -1.2397  -1.2115  -1.2075  -1.1665
    -1.1460  -1.1418  -1.1154  -1.1113  -1.0875  -1.0790  -1.0611  -1.0590
    -1.0393  -1.0257  -1.0047  -0.9802  -0.9686  -0.9470  -0.9262  -0.9124
    -0.9040  -0.8785  -0.8633  -0.8547  -0.8527  -0.8121  -0.8057  -0.7939
    -0.7786  -0.7521  -0.7438  -0.7395  -0.7338  -0.7164  -0.7052  -0.6978
    -0.6892  -0.6675  -0.6496  -0.6391  -0.6277  -0.6220  -0.6067  -0.5803
    -0.5733  -0.5660  -0.5527  -0.5340  -0.5205  -0.5140  -0.5090  -0.4949
    -0.4824  -0.4729  -0.4662  -0.4536  -0.4509  -0.4422  -0.4307  -0.4185
    -0.4127  -0.3992  -0.3905  -0.3869  -0.3803  -0.3683  -0.3595  -0.3535
    -0.3403  -0.3287  -0.3197  -0.3141  -0.2811  -0.2769  -0.2630  -0.2567
    -0.2481  -0.2395  -0.2010  -0.1866  -0.1786  -0.1714  -0.1582  -0.1080
    -0.1055  -0.0901  -0.0894  -0.0127  -0.0121  -0.0048  -0.0027   1.6459
     2.2755   2.4660   2.5732   2.8167   3.0622   3.1765   3.4572   3.7126
     3.7767   3.8941   4.0908   4.2557   4.2785

          k = 0.3333 0.3336 0.0000 (327656 PWs)   bands (ev):

   -74.8579 -39.1518 -39.0854 -39.0466 -18.2518 -18.1400 -18.1399 -18.0891
   -18.0889 -18.0774 -18.0772 -18.0399 -18.0399 -17.7915 -17.7913 -17.7660
   -17.7655 -17.7431 -17.7429 -17.7155 -17.7152 -17.6879 -17.6871 -17.6821
   -17.6814 -17.6125 -17.6118 -17.6087 -17.6081 -17.5104 -17.4436 -17.3792
   -17.3243 -17.3104 -17.2598 -17.2236 -17.1973 -17.1608 -17.1483 -17.1135
   -17.0553 -17.0350 -17.0086 -16.9984 -16.9921 -16.9758 -16.9646 -16.9503
   -16.9344 -16.9159 -16.9056 -16.8875 -16.8774 -16.8677 -16.8556 -16.8363
   -16.8292 -16.8158 -16.8037 -16.7921 -16.7807 -16.7688 -16.7465 -16.7425
   -16.7280 -16.7216 -16.7168 -16.6999 -16.6970 -16.6835 -16.6721 -16.6665
   -16.6562 -16.6524 -16.6404 -16.6203 -16.6131 -16.6090 -16.5926 -16.5843
   -16.5752 -16.5635 -16.5515 -16.5398 -16.5282 -16.5249 -16.5050 -16.4979
   -16.4733 -16.4653 -16.4584 -16.4540 -16.4280 -16.4195 -16.4164 -16.4078
   -16.3123 -16.3115 -16.2968 -16.2960 -12.7145 -12.7047 -12.6977 -12.6925
   -12.6892 -12.6740 -12.6690 -12.6625 -12.6570 -12.6547 -12.6453 -12.6425
   -12.6395 -12.6334 -12.6271 -12.6262 -12.6220 -12.6202 -12.6132 -12.6034
   -12.6013 -12.5966 -12.5926 -12.5844 -12.5820 -12.5773 -12.5752 -12.5702
   -12.5677 -12.5620 -12.5572 -12.5527 -12.5501 -12.5416 -12.5378 -12.5334
   -12.5284 -12.5230 -12.5201 -12.5182 -12.5126 -12.5102 -12.5052 -12.5009
   -12.4935 -12.4893 -12.4761 -12.4718 -12.4686 -12.4658 -12.4572 -12.4531
   -12.4450 -12.4437 -12.4381 -12.4328 -12.4257 -12.4189 -12.4162 -12.4096
   -12.4048 -12.3997 -12.3964 -12.3917 -12.3873 -12.3818 -12.3763 -12.3721
   -12.3656 -12.3635 -12.3599 -12.3559 -12.3519 -12.3488 -12.3439 -12.3388
   -12.3360 -12.3323 -12.3277 -12.3260 -12.3229 -12.3216 -12.3189 -12.3146
   -12.3103 -12.3086 -12.3063 -12.3044 -12.3022 -12.2994 -12.2958 -12.2931
   -12.2915 -12.2881 -12.2871 -12.2860 -12.2810 -12.2795 -12.2746 -12.2717
   -12.2699 -12.2650 -12.2629 -12.2591 -12.2584 -12.2551 -12.2502 -12.2492
   -12.2473 -12.2452 -12.2428 -12.2420 -12.2399 -12.2372 -12.2336 -12.2316
   -12.2302 -12.2284 -12.2261 -12.2227 -12.2210 -12.2196 -12.2165 -12.2153
   -12.2132 -12.2127 -12.2099 -12.2080 -12.2049 -12.2028 -12.1990 -12.1980
   -12.1958 -12.1951 -12.1925 -12.1898 -12.1876 -12.1836 -12.1817 -12.1798
   -12.1781 -12.1758 -12.1695 -12.1680 -12.1645 -12.1627 -12.1604 -12.1572
   -12.1562 -12.1548 -12.1517 -12.1468 -12.1420 -12.1410 -12.1390 -12.1366
   -12.1356 -12.1321 -12.1285 -12.1278 -12.1261 -12.1223 -12.1215 -12.1202
   -12.1165 -12.1129 -12.1095 -12.1053 -12.1038 -12.1019 -12.0989 -12.0980
   -12.0950 -12.0936 -12.0924 -12.0892 -12.0842 -12.0816 -12.0784 -12.0733
   -12.0715 -12.0692 -12.0651 -12.0594 -12.0562 -12.0522 -12.0507 -12.0480
   -12.0444 -12.0408 -12.0381 -12.0348 -12.0303 -12.0235 -12.0209 -12.0186
   -12.0150 -12.0128 -12.0093 -12.0081 -12.0066 -12.0051 -12.0018 -12.0012
   -11.9977 -11.9967 -11.9946 -11.9933 -11.9887 -11.9865 -11.9846 -11.9816
   -11.9782 -11.9768 -11.9737 -11.9691 -11.9658 -11.9653 -11.9620 -11.9600
   -11.9574 -11.9553 -11.9506 -11.9483 -11.9414 -11.9370 -11.9322 -11.9305
   -11.9249 -11.9111 -11.9025 -11.8928 -11.8858 -11.8797 -11.8710 -11.8646
   -11.8578 -11.8473 -11.8322 -11.8213 -11.8140 -11.8008 -11.7962 -11.7884
   -11.7480 -11.7227 -11.7130 -11.6883 -11.6501 -11.5964 -11.5868 -11.5615
   -11.5471 -11.5235 -11.5201 -11.5117 -11.4854 -11.4732 -11.4448 -11.4117
   -11.4053 -11.3907 -11.3721 -11.3584 -11.3536 -11.3215 -11.3137 -11.2906
   -11.2884 -11.2573 -11.2516 -11.2360 -11.2208 -11.2200 -11.2047  -5.7925
    -5.7267  -5.7250  -5.6849  -5.6832  -5.6335  -5.6218  -5.6168  -5.6073
    -5.5999  -5.4775  -5.4375  -5.4296  -5.4244  -5.4131  -5.3656  -5.2879
    -5.2202  -5.2115  -5.2104  -5.2064  -5.1684  -5.0680  -5.0562  -5.0252
    -5.0037  -4.9778  -4.9640  -4.9418  -4.9211  -4.8790  -4.8635  -4.8459
    -4.8282  -4.7933  -4.7783  -4.7471  -4.7217  -4.7002  -4.6846  -4.6632
    -4.6394  -4.6372  -4.6133  -4.6045  -4.5907  -4.5711  -4.5624  -4.5305
    -4.5195  -4.4947  -4.4399  -4.4168  -4.3890  -4.3722  -4.3593  -4.2775
    -4.2428  -4.2203  -4.1804  -4.1414  -4.1272  -4.0933  -4.0711  -4.0380
    -4.0095  -3.9901  -3.9605  -3.8936  -3.8127  -3.7407  -3.6935  -3.6768
    -3.6161  -3.5905  -3.5485  -3.5144  -3.4969  -3.4758  -3.4480  -3.3993
    -3.3931  -3.3721  -3.3345  -3.3074  -3.2875  -3.2771  -3.2450  -3.2320
    -3.2177  -3.1697  -3.1358  -3.1236  -3.0886  -3.0732  -3.0495  -3.0374
    -3.0189  -2.9797  -2.9531  -2.9340  -2.9150  -2.8964  -2.8837  -2.8642
    -2.8550  -2.8252  -2.8054  -2.7982  -2.7563  -2.7441  -2.7060  -2.6991
    -2.6715  -2.6522  -2.6508  -2.6113  -2.6039  -2.5943  -2.5855  -2.5478
    -2.5267  -2.5166  -2.4972  -2.4780  -2.4632  -2.4442  -2.4247  -2.4162
    -2.4000  -2.3759  -2.3386  -2.3250  -2.2946  -2.2820  -2.2574  -2.2378
    -2.2195  -2.1894  -2.1811  -2.1655  -2.1589  -2.1346  -2.1076  -2.0966
    -2.0840  -2.0747  -2.0525  -2.0343  -2.0024  -1.9959  -1.9842  -1.9704
    -1.9503  -1.9385  -1.9193  -1.9075  -1.8773  -1.8659  -1.8427  -1.8284
    -1.8116  -1.7852  -1.7713  -1.7642  -1.7512  -1.7317  -1.7089  -1.6890
    -1.6765  -1.6528  -1.6450  -1.6340  -1.6150  -1.5813  -1.5573  -1.5436
    -1.5298  -1.5180  -1.4981  -1.4670  -1.4539  -1.4400  -1.4202  -1.4031
    -1.3983  -1.3827  -1.3663  -1.3507  -1.3426  -1.3295  -1.3116  -1.2983
    -1.2903  -1.2695  -1.2532  -1.2391  -1.2064  -1.1994  -1.1814  -1.1769
    -1.1638  -1.1275  -1.1206  -1.1043  -1.0844  -1.0806  -1.0690  -1.0510
    -1.0358  -1.0250  -1.0121  -1.0014  -0.9907  -0.9771  -0.9627  -0.9517
    -0.9421  -0.9301  -0.9080  -0.8940  -0.8732  -0.8643  -0.8542  -0.8354
    -0.8252  -0.8152  -0.8049  -0.7919  -0.7757  -0.7581  -0.7540  -0.7255
    -0.7063  -0.6952  -0.6859  -0.6750  -0.6532  -0.6516  -0.6345  -0.6221
    -0.6121  -0.5959  -0.5839  -0.5729  -0.5529  -0.5450  -0.5356  -0.5303
    -0.5119  -0.4932  -0.4846  -0.4758  -0.4683  -0.4470  -0.4308  -0.4200
    -0.3930  -0.3823  -0.3748  -0.3662  -0.3601  -0.3516  -0.3461  -0.3407
    -0.3276  -0.3215  -0.3134  -0.2952  -0.2822  -0.2676  -0.2535  -0.2295
    -0.2201  -0.2101  -0.1855  -0.1614  -0.1585  -0.1317  -0.1276  -0.0837
    -0.0765  -0.0716  -0.0656  -0.0232  -0.0223  -0.0011  -0.0000   2.0486
     2.5164   2.5640   2.6618   2.9619   3.0884   3.2723   3.3541   3.4637
     3.5738   3.7537   3.9328   3.9661   4.0310

     the Fermi energy is     2.3419 ev

!    total energy              =  -27385.18051900 Ry
     total all-electron energy =   -693758.142852 Ry
     estimated scf accuracy    <          1.8E-10 Ry
     smearing contrib. (-TS)   =      -0.00121210 Ry
     internal energy E=F+TS    =  -27385.17930690 Ry

     The total energy is F=E-TS. E is the sum of the following terms:
     one-electron contribution = -273213.99082522 Ry
     hartree contribution      =  137387.71801004 Ry
     xc contribution           =   -3323.24340328 Ry
     ewald contribution        =  128285.53619019 Ry
     one-center paw contrib.   =  -16521.19927863 Ry

     convergence has been achieved in  86 iterations

     negative rho (up, down):  3.327E-02 0.000E+00

     Forces acting on atoms (cartesian axes, Ry/au):

     atom    1 type  1   force =    -0.00003997    0.00042420   -0.00159915
     atom    2 type  1   force =     0.00011640   -0.00017533   -0.00168259
     atom    3 type  1   force =    -0.00326893    0.00096609   -0.00333131
     atom    4 type  1   force =     0.00009618    0.00008137   -0.00150201
     atom    5 type  1   force =     0.00093959    0.00323889   -0.00167974
     atom    6 type  1   force =     0.00015098   -0.00004288   -0.00120678
     atom    7 type  1   force =     0.00098612    0.00028977   -0.00323009
     atom    8 type  1   force =    -0.00180688   -0.00029279   -0.00229125
     atom    9 type  1   force =     0.00074100    0.00056051    0.00021438
     atom   10 type  1   force =    -0.00169878   -0.00143456    0.00011005
     atom   11 type  1   force =    -0.00007131   -0.00031943   -0.00110193
     atom   12 type  1   force =     0.00065822   -0.00064322   -0.00059037
     atom   13 type  2   force =    -0.00057829   -0.00064375   -0.00056470
     atom   14 type  2   force =     0.00064230    0.00062017    0.00012881
     atom   15 type  2   force =    -0.00337445   -0.00090828    0.00183022
     atom   16 type  2   force =     0.00049927   -0.00180459    0.00169578
     atom   17 type  2   force =     0.00077173   -0.00120546   -0.00034436
     atom   18 type  2   force =    -0.00025449   -0.00063656   -0.00049000
     atom   19 type  2   force =    -0.00066333    0.00061262    0.00011059
     atom   20 type  2   force =    -0.00009928    0.00009398    0.00298214
     atom   21 type  2   force =     0.00016860   -0.00073985   -0.00014803
     atom   22 type  2   force =    -0.00005814    0.00127124   -0.00097866
     atom   23 type  2   force =     0.00278369   -0.00269475    0.00323686
     atom   24 type  2   force =    -0.00224337   -0.00214590   -0.00079161
     atom   25 type  2   force =    -0.00254482   -0.00223214    0.00447747
     atom   26 type  2   force =     0.00266781    0.00235803    0.00514015
     atom   27 type  2   force =     0.00086200   -0.00030481   -0.00432088
     atom   28 type  2   force =    -0.03200925    0.03096261   -0.02051626
     atom   29 type  2   force =    -0.00005401   -0.00024685   -0.00036543
     atom   30 type  2   force =    -0.00058502   -0.00093024   -0.00021116
     atom   31 type  2   force =    -0.00000632    0.00018952   -0.00038500
     atom   32 type  2   force =     0.00061492    0.00081506   -0.00015979
     atom   33 type  2   force =    -0.00302430   -0.00269562    0.00401480
     atom   34 type  2   force =    -0.01114548   -0.00030201    0.00150046
     atom   35 type  2   force =     0.00055596   -0.00078943   -0.00031836
     atom   36 type  2   force =     0.00213859   -0.00204369   -0.00099082
     atom   37 type  1   force =     0.00110693    0.00354160    0.00211610
     atom   38 type  1   force =     0.00196356   -0.00007625   -0.00225671
     atom   39 type  1   force =     0.00020379   -0.00029417   -0.00107525
     atom   40 type  1   force =    -0.00453973   -0.00129287    0.00468596
     atom   41 type  1   force =     0.00018342   -0.00011268   -0.00116110
     atom   42 type  1   force =     0.00435519    0.00060446    0.00368822
     atom   43 type  1   force =    -0.00422762   -0.00194192    0.00641330
     atom   44 type  1   force =     0.00107314    0.00033056   -0.00220836
     atom   45 type  1   force =    -0.00042944    0.00030385   -0.00150265
     atom   46 type  1   force =     0.00142762   -0.00011446   -0.00194508
     atom   47 type  1   force =     0.00015045   -0.00062416   -0.00236862
     atom   48 type  1   force =     0.00122110    0.00031980    0.00027130
     atom   49 type  1   force =    -0.00238535    0.00246765   -0.00250671
     atom   50 type  1   force =     0.00095238    0.00016242    0.00278592
     atom   51 type  2   force =     0.00009980   -0.00243199   -0.00087805
     atom   52 type  2   force =     0.00645706   -0.00098528   -0.00102875
     atom   53 type  2   force =    -0.00242364    0.00233439    0.00476738
     atom   54 type  2   force =     0.00247212   -0.00218402    0.00445950
     atom   55 type  2   force =    -0.00038835    0.00327990    0.00326263
     atom   56 type  2   force =     0.02668886   -0.00354467   -0.02616691
     atom   57 type  2   force =     0.00127943    0.00002760   -0.00045162
     atom   58 type  2   force =     0.00252595    0.00195804    0.00102527
     atom   59 type  2   force =    -0.01433657   -0.02966414   -0.01803907
     atom   60 type  2   force =    -0.00331279    0.00298646    0.00471059
     atom   61 type  2   force =     0.00086588    0.00250990    0.00589751
     atom   62 type  2   force =    -0.00083273    0.00094018   -0.00000976
     atom   63 type  2   force =     0.00066953    0.00017088    0.00530556
     atom   64 type  2   force =     0.00092037    0.00059634   -0.00028913
     atom   65 type  2   force =    -0.00048469    0.00044462    0.00081114
     atom   66 type  2   force =     0.00083676   -0.00064560   -0.00095894
     atom   67 type  2   force =    -0.00162835    0.00855440    0.00084128
     atom   68 type  2   force =    -0.00094992    0.00292134    0.00051168
     atom   69 type  2   force =     0.00934390   -0.00189043    0.00312626
     atom   70 type  2   force =    -0.00300703    0.00205188   -0.00069469
     atom   71 type  2   force =     0.00270056   -0.00160309   -0.00253736
     atom   72 type  2   force =    -0.00049246    0.00139797    0.00002806
     atom   73 type  2   force =     0.00068432   -0.00639346   -0.00121020
     atom   74 type  2   force =     0.00287389    0.00286476    0.00418347
     atom   75 type  1   force =     0.00326893    0.00096609    0.00333131
     atom   76 type  1   force =     0.00453973   -0.00129287   -0.00468596
     atom   77 type  1   force =     0.00003997    0.00042420    0.00159915
     atom   78 type  1   force =    -0.00196356   -0.00007625    0.00225671
     atom   79 type  1   force =    -0.00015098   -0.00004288    0.00120678
     atom   80 type  1   force =    -0.00093959    0.00323889    0.00167974
     atom   81 type  1   force =    -0.00098612    0.00028977    0.00323009
     atom   82 type  1   force =     0.00180688   -0.00029279    0.00229125
     atom   83 type  1   force =    -0.00107314    0.00033056    0.00220836
     atom   84 type  1   force =     0.00422762   -0.00194192   -0.00641330
     atom   85 type  1   force =     0.00007131   -0.00031943    0.00110193
     atom   86 type  1   force =     0.00169878   -0.00143456   -0.00011005
     atom   87 type  3   force =     0.00000000   -0.01409154    0.00000000
     atom   88 type  1   force =     0.00000000   -0.00118456    0.00000000
     atom   89 type  1   force =    -0.00095238    0.00016242   -0.00278592
     atom   90 type  1   force =     0.00238535    0.00246765    0.00250671
     atom   91 type  2   force =     0.00337445   -0.00090828   -0.00183022
     atom   92 type  2   force =    -0.00049927   -0.00180459   -0.00169578
     atom   93 type  2   force =     0.00057829   -0.00064375    0.00056470
     atom   94 type  2   force =    -0.00064230    0.00062017   -0.00012881
     atom   95 type  2   force =    -0.00252595    0.00195804   -0.00102527
     atom   96 type  2   force =    -0.00127943    0.00002760    0.00045162
     atom   97 type  2   force =    -0.02668886   -0.00354467    0.02616691
     atom   98 type  2   force =     0.00038835    0.00327990   -0.00326263
     atom   99 type  2   force =     0.00005814    0.00127124    0.00097866
     atom  100 type  2   force =    -0.00016860   -0.00073985    0.00014803
     atom  101 type  2   force =     0.00224337   -0.00214590    0.00079161
     atom  102 type  2   force =    -0.00278369   -0.00269475   -0.00323686
     atom  103 type  2   force =    -0.00086200   -0.00030481    0.00432088
     atom  104 type  2   force =     0.03200925    0.03096261    0.02051626
     atom  105 type  2   force =     0.00254482   -0.00223214   -0.00447747
     atom  106 type  2   force =    -0.00266781    0.00235803   -0.00514015
     atom  107 type  2   force =     0.00300703    0.00205188    0.00069469
     atom  108 type  2   force =    -0.00934390   -0.00189043   -0.00312626
     atom  109 type  2   force =     0.00094992    0.00292134   -0.00051168
     atom  110 type  2   force =     0.00162835    0.00855440   -0.00084128
     atom  111 type  2   force =     0.01114548   -0.00030201   -0.00150046
     atom  112 type  2   force =     0.00302430   -0.00269562   -0.00401480
     atom  113 type  2   force =    -0.00213859   -0.00204369    0.00099082
     atom  114 type  2   force =    -0.00055596   -0.00078943    0.00031836
     atom  115 type  1   force =    -0.00020379   -0.00029417    0.00107525
     atom  116 type  1   force =    -0.00009618    0.00008137    0.00150201
     atom  117 type  1   force =    -0.00110693    0.00354160   -0.00211610
     atom  118 type  1   force =    -0.00011640   -0.00017533    0.00168259
     atom  119 type  1   force =    -0.00435519    0.00060446   -0.00368822
     atom  120 type  1   force =    -0.00018342   -0.00011268    0.00116110
     atom  121 type  1   force =     0.00000000    0.00232847    0.00000000
     atom  122 type  1   force =     0.00000000    0.00161330    0.00000000
     atom  123 type  1   force =    -0.00074100    0.00056051   -0.00021438
     atom  124 type  1   force =    -0.00142762   -0.00011446    0.00194508
     atom  125 type  1   force =     0.00042944    0.00030385    0.00150265
     atom  126 type  1   force =    -0.00015045   -0.00062416    0.00236862
     atom  127 type  1   force =    -0.00122110    0.00031980   -0.00027130
     atom  128 type  1   force =    -0.00065822   -0.00064322    0.00059037
     atom  129 type  2   force =     0.00242364    0.00233439   -0.00476738
     atom  130 type  2   force =    -0.00247212   -0.00218402   -0.00445950
     atom  131 type  2   force =    -0.00009980   -0.00243199    0.00087805
     atom  132 type  2   force =    -0.00645706   -0.00098528    0.00102875
     atom  133 type  2   force =     0.00009928    0.00009398   -0.00298214
     atom  134 type  2   force =     0.00066333    0.00061262   -0.00011059
     atom  135 type  2   force =     0.00025449   -0.00063656    0.00049000
     atom  136 type  2   force =    -0.00077173   -0.00120546    0.00034436
     atom  137 type  2   force =     0.00331279    0.00298646   -0.00471059
     atom  138 type  2   force =     0.01433657   -0.02966414    0.01803907
     atom  139 type  2   force =     0.00083273    0.00094018    0.00000976
     atom  140 type  2   force =    -0.00086588    0.00250990   -0.00589751
     atom  141 type  2   force =     0.00048469    0.00044462   -0.00081114
     atom  142 type  2   force =    -0.00083676   -0.00064560    0.00095894
     atom  143 type  2   force =    -0.00066953    0.00017088   -0.00530556
     atom  144 type  2   force =    -0.00092037    0.00059634    0.00028913
     atom  145 type  2   force =    -0.00061492    0.00081506    0.00015979
     atom  146 type  2   force =     0.00000632    0.00018952    0.00038500
     atom  147 type  2   force =     0.00058502   -0.00093024    0.00021116
     atom  148 type  2   force =     0.00005401   -0.00024685    0.00036543
     atom  149 type  2   force =     0.00049246    0.00139797   -0.00002806
     atom  150 type  2   force =    -0.00270056   -0.00160309    0.00253736
     atom  151 type  2   force =    -0.00287389    0.00286476   -0.00418347
     atom  152 type  2   force =    -0.00068432   -0.00639346    0.00121020
     atom  153 type  4   force =    -0.00072850    0.00082542   -0.00073622
     atom  154 type  4   force =     0.00064201   -0.00073446   -0.00076167
     atom  155 type  4   force =    -0.00222361    0.00171550   -0.00398358
     atom  156 type  4   force =     0.00193030    0.00197603   -0.00483386
     atom  157 type  4   force =    -0.00213360   -0.00214976   -0.00525960
     atom  158 type  4   force =     0.00063602    0.00073941   -0.00074528
     atom  159 type  4   force =    -0.00055935   -0.00072402   -0.00072759
     atom  160 type  4   force =     0.00239070    0.00198706   -0.00419096
     atom  161 type  4   force =     0.00205350   -0.00193330   -0.00494549
     atom  162 type  4   force =    -0.00186734    0.00189908   -0.00475536
     atom  163 type  4   force =     0.00262683   -0.00219860   -0.00443997
     atom  164 type  4   force =    -0.00254460   -0.00195694   -0.00426349
     atom  165 type  4   force =     0.00222361    0.00171550    0.00398358
     atom  166 type  4   force =    -0.00193030    0.00197603    0.00483386
     atom  167 type  4   force =     0.00213360   -0.00214976    0.00525960
     atom  168 type  4   force =    -0.00239070    0.00198706    0.00419096
     atom  169 type  4   force =    -0.00205350   -0.00193330    0.00494549
     atom  170 type  4   force =     0.00186734    0.00189908    0.00475536
     atom  171 type  4   force =    -0.00064201   -0.00073446    0.00076167
     atom  172 type  4   force =     0.00072850    0.00082542    0.00073622
     atom  173 type  4   force =    -0.00262683   -0.00219860    0.00443997
     atom  174 type  4   force =     0.00055935   -0.00072402    0.00072759
     atom  175 type  4   force =    -0.00063602    0.00073941    0.00074528
     atom  176 type  4   force =     0.00254460   -0.00195694    0.00426349

     Total force =     0.116375     Total SCF correction =     0.000051


     Computing stress (Cartesian axis) and pressure


     negative rho (up, down):  3.327E-02 0.000E+00
          total   stress  (Ry/bohr**3)                   (kbar)     P=        4.30
   0.00003174   0.00000000  -0.00000065            4.67        0.00       -0.10
   0.00000000   0.00003456   0.00000000            0.00        5.08        0.00
  -0.00000065   0.00000000   0.00002133           -0.10        0.00        3.14

     Energy error            =      1.3E-02 Ry
     Gradient error          =      3.2E-02 Ry/Bohr

     number of scf cycles    =   5
     number of bfgs steps    =   4

     energy             old  =  -27385.1679591945 Ry
     energy             new  =  -27385.1805189999 Ry

     CASE: energy            _new < energy            _old

     new trust radius        =       0.0926743210 bohr
     new conv_thr            =       0.0000000003 Ry


ATOMIC_POSITIONS (crystal)
In               0.2475719797        0.2527154124        0.3285187993
In               0.7524141480        0.2474181654        0.3285048633
In               0.2500506235        0.2508566590        0.4425554353
In               0.2523844387        0.7525118353        0.3285249970
In               0.4660604684        0.5006091587        0.4425618191
In               0.0359753553        0.5024848714        0.3287985376
In               0.7512338656        0.4657685316        0.3853693929
In               0.2486415324        0.0342648063        0.3854152018
In               0.4996080698        0.7495694247        0.3780629553
In               0.0360723591       -0.0025956035        0.4424377365
In               0.4640060321        0.0024532477        0.3287758479
In               0.0002148785        0.2500308840        0.3779980393
O                0.3889454104        0.1564060312        0.3584099752
O                0.6110970957        0.3434857353        0.3584340733
O                0.1087045561        0.1544445600        0.4132712704
O                0.8902716030        0.3443678799        0.4131009032
O                0.3811304421        0.3938146869        0.3068612310
O                0.3837709199        0.6103253820        0.3508695239
O                0.6188648331        0.1060880810        0.3068854100
O                0.6161459647        0.8895234572        0.3510911225
O                0.1548281055        0.3830981791        0.3610096208
O                0.3462827120        0.3823491333        0.4110365581
O                0.1839372715        0.6027843278        0.2984379664
O                0.3455078495        0.6174367651        0.4748256189
O                0.0990164665        0.3425572023        0.3005849114
O                0.9009532999        0.1574226690        0.3005982308
O                0.3909790335        0.3446055212        0.4729370711
O                0.6206583846        0.1460427163        0.4755211860
O                0.1162090465        0.1103898510        0.3509400786
O                0.1188735697        0.8938641624        0.3068699393
O                0.8837281870        0.3896121991        0.3509412991
O                0.8811175813        0.6061401003        0.3068724787
O                0.3160676637        0.1028207229        0.2984570163
O                0.1503550745        0.1177687981        0.4748105143
O                0.3453222508        0.8831899895        0.3610082687
O                0.1542766732        0.8821376188        0.4109830374
In               0.7518884074        0.7472307149        0.4421265055
In               0.2496573484        0.7491607612        0.4425978339
In               0.7476730345        0.7472452781        0.3285108962
In               0.7483450760        0.2537524582        0.4420684951
In               0.9642227030       -0.0024568390        0.3287819695
In               0.5306608388        0.0001718522        0.4416992183
In               0.0029246940        0.2536208003        0.4924754060
In               0.0006291543        0.7496329891        0.3929914495
In               0.5357376987        0.4975958287        0.3287815401
In               0.9675224968        0.5003733414        0.4426014313
In               0.2511725537        0.5344107922        0.3855538234
In               0.7493220640        0.9656263088        0.3854024608
In               0.4991520922        0.2508251319        0.3929129293
In               0.4964134205        0.7466723138        0.4926656677
O                0.8890013994        0.6552195615        0.4732368563
O                0.1106133187        0.8460263249        0.4731446709
O                0.5990561585        0.6574542991        0.3005915600
O                0.4009786119        0.8425787773        0.3005910078
O                0.8820461474        0.8914434650        0.4212568939
O                0.8646429850        0.0975450226        0.4692361640
O                0.1177562164        0.6102671086        0.4208024648
O                0.1181634385        0.3901083340        0.4647875603
O                0.6685041830        0.8989444562        0.4782608764
O                0.8160615934        0.8971855387        0.2984685655
O                0.6540444798        0.1177814165        0.4115594453
O                0.8449639313        0.1168947216        0.3610361373
O                0.6109297466        0.8453851403        0.4137619859
O                0.3902589845        0.6551455170        0.4129645563
O                0.8889235421        0.8434847553        0.3584859071
O                0.1110720429        0.6564839628        0.3583355516
O                0.6181244227        0.6140775411        0.4648628154
O                0.6173845256        0.3900926432        0.4209788435
O                0.3863478953        0.8897989517        0.4649877546
O                0.3816929454        0.1108510538        0.4208485306
O                0.8464929199        0.6171448057        0.4109317931
O                0.6548249137        0.6170083122        0.3610362575
O                0.8461492824        0.3796432305        0.4747894187
O                0.6839065972        0.3972025392        0.2984577744
In               0.2499493765        0.2508566590        0.5574445650
In               0.7516549240        0.2537524582        0.5579315052
In               0.2524280203        0.2527154124        0.6714812007
In               0.2503426516        0.7491607612        0.5574021664
In               0.4640246447        0.5024848714        0.6712014624
In               0.0339395316        0.5006091587        0.5574381811
In               0.7487661344        0.4657685316        0.6146306071
In               0.2513584676        0.0342648063        0.6145847982
In               0.4993708457        0.7496329891        0.6070085505
In               0.4970753060        0.2536208003        0.5075245940
In               0.0359939679        0.0024532477        0.6712241521
In               0.4639276409       -0.0025956035        0.5575622637
W                0.7500000000        0.0361998602        0.5000000001
In               0.2500000000        0.4670319609        0.5000000001
In               0.0035865795        0.7466723138        0.5073343323
In               0.0008479078        0.2508251319        0.6070870707
O                0.3912954449        0.1544445600        0.5867287298
O                0.6097283980        0.3443678799        0.5868990970
O                0.1110545896        0.1564060312        0.6415900248
O                0.8889029043        0.3434857353        0.6415659267
O                0.3818365615        0.3901083340        0.5352124397
O                0.3822437845        0.6102671086        0.5791975352
O                0.6353570150        0.0975450226        0.5307638360
O                0.6179538535        0.8914434650        0.5787431061
O                0.1537172880        0.3823491333        0.5889634419
O                0.3451718945        0.3830981791        0.6389903792
O                0.1544921505        0.6174367651        0.5251743811
O                0.3160627285        0.6027843278        0.7015620338
O                0.1090209675        0.3446055212        0.5270629294
O                0.8793416164        0.1460427163        0.5244788145
O                0.4009835344        0.3425572023        0.6994150886
O                0.5990467010        0.1574226690        0.6994017692
O                0.1183070555        0.1108510538        0.5791514694
O                0.1136521047        0.8897989517        0.5350122454
O                0.8826154753        0.3900926432        0.5790211565
O                0.8818755773        0.6140775411        0.5351371846
O                0.3496449255        0.1177687981        0.5251894857
O                0.1839323363        0.1028207229        0.7015429839
O                0.3457233268        0.8821376188        0.5890169626
O                0.1546777492        0.8831899895        0.6389917313
In               0.7523269655        0.7472452781        0.6714891038
In               0.2476155613        0.7525118353        0.6714750030
In               0.7481115926        0.7472307149        0.5578734948
In               0.7475858520        0.2474181654        0.6714951367
In               0.9693391612        0.0001718522        0.5583007819
In               0.5357772960       -0.0024568390        0.6712180305
In               0.2500000000        0.9663935640        0.5000000001
In               0.7500000000        0.5335239594        0.5000000001
In               0.0003919302        0.7495694247        0.6219370447
In               0.5324775032        0.5003733414        0.5573985689
In               0.9642623003        0.4975958287        0.6712184599
In               0.2488274463        0.5344107922        0.6144461766
In               0.7506779360        0.9656263088        0.6145975392
In               0.4997851215        0.2500308840        0.6220019607
O                0.9009438424        0.6574542991        0.6994084400
O                0.0990213890        0.8425787773        0.6994089922
O                0.6109986016        0.6552195615        0.5267631442
O                0.3893866823        0.8460263249        0.5268553296
O                0.8838540353        0.8895234572        0.6489088775
O                0.8811351669        0.1060880810        0.6931145900
O                0.1162290801        0.6103253820        0.6491304761
O                0.1188695579        0.3938146869        0.6931387690
O                0.6839384066        0.8971855387        0.7015314347
O                0.8314958170        0.8989444562        0.5217391236
O                0.6550360687        0.1168947216        0.6389638627
O                0.8459555202        0.1177814165        0.5884405547
O                0.6110764579        0.8434847553        0.6415140929
O                0.3889279571        0.6564839628        0.6416644484
O                0.8890702544        0.8453851403        0.5862380143
O                0.1097410165        0.6551455170        0.5870354439
O                0.6188824187        0.6061401003        0.6931275213
O                0.6162718130        0.3896121991        0.6490587009
O                0.3811264303        0.8938641624        0.6931300607
O                0.3837909535        0.1103898510        0.6490599214
O                0.8451750863        0.6170083122        0.6389637425
O                0.6535070801        0.6171448057        0.5890682069
O                0.8160934028        0.3972025392        0.7015422258
O                0.6538507176        0.3796432305        0.5252105813
H                0.3223247861        0.4635368184        0.3002846858
H                0.6776884386        0.0364568731        0.3002774253
H                0.1357768538        0.6468012664        0.2828115012
H                0.1376881791        0.3798661277        0.2828632323
H                0.8623140634        0.1201441171        0.2828655735
H                0.1776806912        0.9635460369        0.3002800809
H                0.8223220373        0.5364576525        0.3002801214
H                0.3642081468        0.1468111859        0.2828175062
H                0.6376990145        0.6201532254        0.2828639850
H                0.3623205251        0.8798592353        0.2828646086
H                0.8642049105        0.8531952501        0.2828223799
H                0.6357722948        0.3532051743        0.2828170649
H                0.3642231462        0.6468012664        0.7171884988
H                0.3623118209        0.3798661277        0.7171367677
H                0.6376859366        0.1201441171        0.7171344265
H                0.1357918532        0.1468111859        0.7171824938
H                0.8623009855        0.6201532254        0.7171360150
H                0.1376794749        0.8798592353        0.7171353914
H                0.8223115604        0.0364568731        0.6997225747
H                0.1776752129        0.4635368184        0.6997153142
H                0.6357950885        0.8531952501        0.7171776201
H                0.6776779617        0.5364576525        0.6997198786
H                0.3223193078        0.9635460369        0.6997199191
H                0.8642277042        0.3532051743        0.7171829351



     Writing config-only to output data dir ./tmp/rel.save/ :
     XML data file
     NEW-OLD atomic charge density approx. for the potential

     negative rho (up, down):  3.357E-02 0.000E+00

     total cpu time spent up to now is    12310.8 secs

     Self-consistent Calculation

     iteration #  1     ecut=    71.00 Ry     beta= 0.20
     Davidson diagonalization with overlap
     ethr =  1.00E-06,  avg # of iterations = 17.0

     negative rho (up, down):  4.983E-02 0.000E+00

     total cpu time spent up to now is    12375.3 secs

     total energy              =  -27385.18201939 Ry
     estimated scf accuracy    <       0.20872466 Ry

     iteration #  2     ecut=    71.00 Ry     beta= 0.20
     Davidson diagonalization with overlap
     ethr =  1.57E-05,  avg # of iterations =  1.0

     negative rho (up, down):  1.788E-01 0.000E+00

     total cpu time spent up to now is    12407.5 secs

     total energy              =  -27385.16266439 Ry
     estimated scf accuracy    <       0.12767291 Ry

     iteration #  3     ecut=    71.00 Ry     beta= 0.20
     Davidson diagonalization with overlap
     ethr =  9.61E-06,  avg # of iterations =  3.0

     negative rho (up, down):  1.059E-01 0.000E+00

     total cpu time spent up to now is    12441.2 secs

     total energy              =  -27385.17870215 Ry
     estimated scf accuracy    <       0.00980930 Ry

     iteration #  4     ecut=    71.00 Ry     beta= 0.20
     Davidson diagonalization with overlap
     ethr =  7.38E-07,  avg # of iterations = 11.5

     negative rho (up, down):  1.148E-01 0.000E+00

     total cpu time spent up to now is    12476.8 secs

     total energy              =  -27385.18068410 Ry
     estimated scf accuracy    <       0.00247095 Ry

     iteration #  5     ecut=    71.00 Ry     beta= 0.20
     Davidson diagonalization with overlap
     ethr =  1.86E-07,  avg # of iterations =  9.5

     negative rho (up, down):  5.765E-02 0.000E+00

     total cpu time spent up to now is    12511.9 secs

     total energy              =  -27385.18455633 Ry
     estimated scf accuracy    <       0.00457425 Ry

     iteration #  6     ecut=    71.00 Ry     beta= 0.20
     Davidson diagonalization with overlap
     ethr =  1.86E-07,  avg # of iterations =  6.0

     negative rho (up, down):  5.049E-02 0.000E+00

     total cpu time spent up to now is    12547.3 secs

     total energy              =  -27385.18617077 Ry
     estimated scf accuracy    <       0.00148944 Ry

     iteration #  7     ecut=    71.00 Ry     beta= 0.20
     Davidson diagonalization with overlap
     ethr =  1.12E-07,  avg # of iterations =  5.0

     negative rho (up, down):  3.385E-02 0.000E+00

     total cpu time spent up to now is    12581.4 secs

     total energy              =  -27385.18695470 Ry
     estimated scf accuracy    <       0.00157275 Ry

     iteration #  8     ecut=    71.00 Ry     beta= 0.20
     Davidson diagonalization with overlap
     ethr =  1.12E-07,  avg # of iterations = 10.0

     negative rho (up, down):  3.526E-02 0.000E+00

     total cpu time spent up to now is    12621.2 secs

     total energy              =  -27385.18821050 Ry
     estimated scf accuracy    <       0.00172080 Ry

     iteration #  9     ecut=    71.00 Ry     beta= 0.20
     Davidson diagonalization with overlap
     ethr =  1.12E-07,  avg # of iterations =  5.0

     negative rho (up, down):  2.926E-02 0.000E+00

     total cpu time spent up to now is    12655.4 secs

     total energy              =  -27385.18865225 Ry
     estimated scf accuracy    <       0.00129524 Ry

     iteration # 10     ecut=    71.00 Ry     beta= 0.20
     Davidson diagonalization with overlap
     ethr =  9.75E-08,  avg # of iterations =  4.0

     negative rho (up, down):  2.757E-02 0.000E+00

     total cpu time spent up to now is    12689.0 secs

     total energy              =  -27385.18869690 Ry
     estimated scf accuracy    <       0.00055207 Ry

     iteration # 11     ecut=    71.00 Ry     beta= 0.20
     Davidson diagonalization with overlap
     ethr =  4.15E-08,  avg # of iterations =  5.0

     negative rho (up, down):  2.651E-02 0.000E+00

     total cpu time spent up to now is    12723.0 secs

     total energy              =  -27385.18898174 Ry
     estimated scf accuracy    <       0.00052107 Ry

     iteration # 12     ecut=    71.00 Ry     beta= 0.20
     Davidson diagonalization with overlap
     ethr =  3.92E-08,  avg # of iterations =  5.0

     negative rho (up, down):  2.588E-02 0.000E+00

     total cpu time spent up to now is    12757.1 secs

     total energy              =  -27385.18901580 Ry
     estimated scf accuracy    <       0.00025263 Ry

     iteration # 13     ecut=    71.00 Ry     beta= 0.20
     Davidson diagonalization with overlap
     ethr =  1.90E-08,  avg # of iterations =  9.3

     negative rho (up, down):  2.510E-02 0.000E+00

     total cpu time spent up to now is    12792.6 secs

     total energy              =  -27385.18897793 Ry
     estimated scf accuracy    <       0.00016598 Ry

     iteration # 14     ecut=    71.00 Ry     beta= 0.20
     Davidson diagonalization with overlap
     ethr =  1.25E-08,  avg # of iterations =  5.5

     negative rho (up, down):  2.468E-02 0.000E+00

     total cpu time spent up to now is    12826.5 secs

     total energy              =  -27385.18899973 Ry
     estimated scf accuracy    <       0.00015711 Ry

     iteration # 15     ecut=    71.00 Ry     beta= 0.20
     Davidson diagonalization with overlap
     ethr =  1.18E-08,  avg # of iterations =  7.3

     negative rho (up, down):  2.516E-02 0.000E+00

     total cpu time spent up to now is    12863.8 secs

     total energy              =  -27385.18908162 Ry
     estimated scf accuracy    <       0.00008107 Ry

     iteration # 16     ecut=    71.00 Ry     beta= 0.20
     Davidson diagonalization with overlap
     ethr =  6.10E-09,  avg # of iterations =  6.0

     negative rho (up, down):  2.447E-02 0.000E+00

     total cpu time spent up to now is    12898.7 secs

     total energy              =  -27385.18909382 Ry
     estimated scf accuracy    <       0.00003230 Ry

     iteration # 17     ecut=    71.00 Ry     beta= 0.20
     Davidson diagonalization with overlap
     ethr =  2.43E-09,  avg # of iterations =  9.0

     negative rho (up, down):  2.544E-02 0.000E+00

     total cpu time spent up to now is    12935.4 secs

     total energy              =  -27385.18908604 Ry
     estimated scf accuracy    <       0.00006983 Ry

     iteration # 18     ecut=    71.00 Ry     beta= 0.20
     Davidson diagonalization with overlap
     ethr =  2.43E-09,  avg # of iterations =  5.5

     negative rho (up, down):  2.471E-02 0.000E+00

     total cpu time spent up to now is    12969.5 secs

     total energy              =  -27385.18909420 Ry
     estimated scf accuracy    <       0.00001096 Ry

     iteration # 19     ecut=    71.00 Ry     beta= 0.20
     Davidson diagonalization with overlap
     ethr =  8.25E-10,  avg # of iterations = 10.8

     negative rho (up, down):  2.473E-02 0.000E+00

     total cpu time spent up to now is    13009.8 secs

     total energy              =  -27385.18909896 Ry
     estimated scf accuracy    <       0.00000859 Ry

     iteration # 20     ecut=    71.00 Ry     beta= 0.20
     Davidson diagonalization with overlap
     ethr =  6.46E-10,  avg # of iterations =  6.3

     negative rho (up, down):  2.466E-02 0.000E+00

     total cpu time spent up to now is    13044.9 secs

     total energy              =  -27385.18910205 Ry
     estimated scf accuracy    <       0.00000572 Ry

     iteration # 21     ecut=    71.00 Ry     beta= 0.20
     Davidson diagonalization with overlap
     ethr =  4.30E-10,  avg # of iterations =  4.3

     negative rho (up, down):  2.481E-02 0.000E+00

     total cpu time spent up to now is    13079.0 secs

     total energy              =  -27385.18910537 Ry
     estimated scf accuracy    <       0.00000432 Ry

     iteration # 22     ecut=    71.00 Ry     beta= 0.20
     Davidson diagonalization with overlap
     ethr =  3.25E-10,  avg # of iterations =  7.0

     negative rho (up, down):  2.506E-02 0.000E+00

     total cpu time spent up to now is    13114.1 secs

     total energy              =  -27385.18910675 Ry
     estimated scf accuracy    <       0.00000362 Ry

     iteration # 23     ecut=    71.00 Ry     beta= 0.20
     Davidson diagonalization with overlap
     ethr =  2.72E-10,  avg # of iterations =  8.8

     negative rho (up, down):  2.517E-02 0.000E+00

     total cpu time spent up to now is    13150.1 secs

     total energy              =  -27385.18910722 Ry
     estimated scf accuracy    <       0.00000302 Ry

     iteration # 24     ecut=    71.00 Ry     beta= 0.20
     Davidson diagonalization with overlap
     ethr =  2.27E-10,  avg # of iterations =  5.5

     negative rho (up, down):  2.535E-02 0.000E+00

     total cpu time spent up to now is    13184.8 secs

     total energy              =  -27385.18910696 Ry
     estimated scf accuracy    <       0.00000233 Ry

     iteration # 25     ecut=    71.00 Ry     beta= 0.20
     Davidson diagonalization with overlap
     ethr =  1.75E-10,  avg # of iterations =  4.0

     negative rho (up, down):  2.522E-02 0.000E+00

     total cpu time spent up to now is    13218.5 secs

     total energy              =  -27385.18910715 Ry
     estimated scf accuracy    <       0.00000230 Ry

     iteration # 26     ecut=    71.00 Ry     beta= 0.20
     Davidson diagonalization with overlap
     ethr =  1.73E-10,  avg # of iterations =  6.5

     negative rho (up, down):  2.520E-02 0.000E+00

     total cpu time spent up to now is    13254.0 secs

     total energy              =  -27385.18910765 Ry
     estimated scf accuracy    <       0.00000147 Ry

     iteration # 27     ecut=    71.00 Ry     beta= 0.20
     Davidson diagonalization with overlap
     ethr =  1.10E-10,  avg # of iterations =  2.0

     negative rho (up, down):  2.539E-02 0.000E+00

     total cpu time spent up to now is    13287.3 secs

     total energy              =  -27385.18910783 Ry
     estimated scf accuracy    <       0.00000140 Ry

     iteration # 28     ecut=    71.00 Ry     beta= 0.20
     Davidson diagonalization with overlap
     ethr =  1.06E-10,  avg # of iterations =  5.0

     negative rho (up, down):  2.579E-02 0.000E+00

     total cpu time spent up to now is    13321.6 secs

     total energy              =  -27385.18910738 Ry
     estimated scf accuracy    <       0.00000127 Ry

     iteration # 29     ecut=    71.00 Ry     beta= 0.20
     Davidson diagonalization with overlap
     ethr =  9.57E-11,  avg # of iterations =  9.8

     negative rho (up, down):  2.588E-02 0.000E+00

     total cpu time spent up to now is    13358.4 secs

     total energy              =  -27385.18910734 Ry
     estimated scf accuracy    <       0.00000043 Ry

     iteration # 30     ecut=    71.00 Ry     beta= 0.20
     Davidson diagonalization with overlap
     ethr =  3.21E-11,  avg # of iterations =  6.5

     negative rho (up, down):  2.588E-02 0.000E+00

     total cpu time spent up to now is    13394.7 secs

     total energy              =  -27385.18910749 Ry
     estimated scf accuracy    <       0.00000036 Ry

     iteration # 31     ecut=    71.00 Ry     beta= 0.20
     Davidson diagonalization with overlap
     ethr =  2.73E-11,  avg # of iterations =  2.0

     negative rho (up, down):  2.583E-02 0.000E+00

     total cpu time spent up to now is    13428.0 secs

     total energy              =  -27385.18910765 Ry
     estimated scf accuracy    <       0.00000032 Ry

     iteration # 32     ecut=    71.00 Ry     beta= 0.20
     Davidson diagonalization with overlap
     ethr =  2.41E-11,  avg # of iterations =  6.3

     negative rho (up, down):  2.574E-02 0.000E+00

     total cpu time spent up to now is    13463.6 secs

     total energy              =  -27385.18910762 Ry
     estimated scf accuracy    <       0.00000029 Ry

     iteration # 33     ecut=    71.00 Ry     beta= 0.20
     Davidson diagonalization with overlap
     ethr =  2.21E-11,  avg # of iterations =  7.3

     negative rho (up, down):  2.583E-02 0.000E+00

     total cpu time spent up to now is    13501.1 secs

     total energy              =  -27385.18910782 Ry
     estimated scf accuracy    <       0.00000017 Ry

     iteration # 34     ecut=    71.00 Ry     beta= 0.20
     Davidson diagonalization with overlap
     ethr =  1.29E-11,  avg # of iterations =  5.0

     negative rho (up, down):  2.597E-02 0.000E+00

     total cpu time spent up to now is    13535.8 secs

     total energy              =  -27385.18910768 Ry
     estimated scf accuracy    <       0.00000012 Ry

     iteration # 35     ecut=    71.00 Ry     beta= 0.20
     Davidson diagonalization with overlap
     ethr =  9.02E-12,  avg # of iterations =  7.5

     negative rho (up, down):  2.598E-02 0.000E+00

     total cpu time spent up to now is    13573.1 secs

     total energy              =  -27385.18910777 Ry
     estimated scf accuracy    <       0.00000010 Ry

     iteration # 36     ecut=    71.00 Ry     beta= 0.20
     Davidson diagonalization with overlap
     ethr =  7.81E-12,  avg # of iterations =  1.3

     negative rho (up, down):  2.598E-02 0.000E+00

     total cpu time spent up to now is    13605.7 secs

     total energy              =  -27385.18910775 Ry
     estimated scf accuracy    <       0.00000009 Ry

     iteration # 37     ecut=    71.00 Ry     beta= 0.20
     Davidson diagonalization with overlap
     ethr =  7.11E-12,  avg # of iterations =  2.0

     negative rho (up, down):  2.597E-02 0.000E+00

     total cpu time spent up to now is    13638.8 secs

     total energy              =  -27385.18910777 Ry
     estimated scf accuracy    <       0.00000010 Ry

     iteration # 38     ecut=    71.00 Ry     beta= 0.20
     Davidson diagonalization with overlap
     ethr =  7.11E-12,  avg # of iterations =  2.0

     negative rho (up, down):  2.594E-02 0.000E+00

     total cpu time spent up to now is    13672.0 secs

     total energy              =  -27385.18910777 Ry
     estimated scf accuracy    <       0.00000010 Ry

     iteration # 39     ecut=    71.00 Ry     beta= 0.20
     Davidson diagonalization with overlap
     ethr =  7.11E-12,  avg # of iterations =  7.3

     negative rho (up, down):  2.602E-02 0.000E+00

     total cpu time spent up to now is    13709.7 secs

     total energy              =  -27385.18910777 Ry
     estimated scf accuracy    <       0.00000011 Ry

     iteration # 40     ecut=    71.00 Ry     beta= 0.20
     Davidson diagonalization with overlap
     ethr =  7.11E-12,  avg # of iterations =  5.5

     negative rho (up, down):  2.601E-02 0.000E+00

     total cpu time spent up to now is    13743.9 secs

     total energy              =  -27385.18910777 Ry
     estimated scf accuracy    <       0.00000012 Ry

     iteration # 41     ecut=    71.00 Ry     beta= 0.20
     Davidson diagonalization with overlap
     ethr =  7.11E-12,  avg # of iterations =  4.3

     negative rho (up, down):  2.604E-02 0.000E+00

     total cpu time spent up to now is    13777.9 secs

     total energy              =  -27385.18910783 Ry
     estimated scf accuracy    <       0.00000009 Ry

     iteration # 42     ecut=    71.00 Ry     beta= 0.20
     Davidson diagonalization with overlap
     ethr =  6.93E-12,  avg # of iterations =  2.5

     negative rho (up, down):  2.606E-02 0.000E+00

     total cpu time spent up to now is    13811.4 secs

     total energy              =  -27385.18910779 Ry
     estimated scf accuracy    <       0.00000005 Ry

     iteration # 43     ecut=    71.00 Ry     beta= 0.20
     Davidson diagonalization with overlap
     ethr =  3.43E-12,  avg # of iterations =  9.0

     negative rho (up, down):  2.605E-02 0.000E+00

     total cpu time spent up to now is    13849.3 secs

     total energy              =  -27385.18910784 Ry
     estimated scf accuracy    <       0.00000007 Ry

     iteration # 44     ecut=    71.00 Ry     beta= 0.20
     Davidson diagonalization with overlap
     ethr =  3.43E-12,  avg # of iterations =  6.3

     negative rho (up, down):  2.605E-02 0.000E+00

     total cpu time spent up to now is    13885.0 secs

     total energy              =  -27385.18910785 Ry
     estimated scf accuracy    <       0.00000004 Ry

     iteration # 45     ecut=    71.00 Ry     beta= 0.20
     Davidson diagonalization with overlap
     ethr =  2.72E-12,  avg # of iterations =  3.5

     negative rho (up, down):  2.606E-02 0.000E+00

     total cpu time spent up to now is    13918.8 secs

     total energy              =  -27385.18910783 Ry
     estimated scf accuracy    <       0.00000003 Ry

     iteration # 46     ecut=    71.00 Ry     beta= 0.20
     Davidson diagonalization with overlap
     ethr =  2.32E-12,  avg # of iterations =  5.3

     negative rho (up, down):  2.608E-02 0.000E+00

     total cpu time spent up to now is    13952.7 secs

     total energy              =  -27385.18910782 Ry
     estimated scf accuracy    <       0.00000002 Ry

     iteration # 47     ecut=    71.00 Ry     beta= 0.20
     Davidson diagonalization with overlap
     ethr =  1.85E-12,  avg # of iterations =  5.0

     negative rho (up, down):  2.608E-02 0.000E+00

     total cpu time spent up to now is    13986.8 secs

     total energy              =  -27385.18910782 Ry
     estimated scf accuracy    <       0.00000001 Ry

     iteration # 48     ecut=    71.00 Ry     beta= 0.20
     Davidson diagonalization with overlap
     ethr =  8.85E-13,  avg # of iterations =  4.5

     negative rho (up, down):  2.606E-02 0.000E+00

     total cpu time spent up to now is    14021.0 secs

     total energy              =  -27385.18910784 Ry
     estimated scf accuracy    <          7.5E-09 Ry

     iteration # 49     ecut=    71.00 Ry     beta= 0.20
     Davidson diagonalization with overlap
     ethr =  5.68E-13,  avg # of iterations =  7.5

     negative rho (up, down):  2.606E-02 0.000E+00

     total cpu time spent up to now is    14060.2 secs

     total energy              =  -27385.18910786 Ry
     estimated scf accuracy    <          6.9E-09 Ry

     iteration # 50     ecut=    71.00 Ry     beta= 0.20
     Davidson diagonalization with overlap
     ethr =  5.18E-13,  avg # of iterations =  2.0

     negative rho (up, down):  2.608E-02 0.000E+00

     total cpu time spent up to now is    14093.2 secs

     total energy              =  -27385.18910786 Ry
     estimated scf accuracy    <          5.9E-09 Ry

     iteration # 51     ecut=    71.00 Ry     beta= 0.20
     Davidson diagonalization with overlap
     ethr =  4.43E-13,  avg # of iterations =  5.8

     negative rho (up, down):  2.608E-02 0.000E+00

     total cpu time spent up to now is    14131.0 secs

     total energy              =  -27385.18910785 Ry
     estimated scf accuracy    <          4.1E-09 Ry

     iteration # 52     ecut=    71.00 Ry     beta= 0.20
     Davidson diagonalization with overlap
     ethr =  3.07E-13,  avg # of iterations =  2.0

     negative rho (up, down):  2.608E-02 0.000E+00

     total cpu time spent up to now is    14164.2 secs

     total energy              =  -27385.18910783 Ry
     estimated scf accuracy    <          1.0E-09 Ry

     iteration # 53     ecut=    71.00 Ry     beta= 0.20
     Davidson diagonalization with overlap
     ethr =  1.00E-13,  avg # of iterations =  8.3

     negative rho (up, down):  2.608E-02 0.000E+00

     total cpu time spent up to now is    14201.8 secs

     total energy              =  -27385.18910783 Ry
     estimated scf accuracy    <          2.0E-09 Ry

     iteration # 54     ecut=    71.00 Ry     beta= 0.20
     Davidson diagonalization with overlap
     ethr =  1.00E-13,  avg # of iterations =  1.0

     negative rho (up, down):  2.608E-02 0.000E+00

     total cpu time spent up to now is    14234.1 secs

     total energy              =  -27385.18910785 Ry
     estimated scf accuracy    <          1.9E-09 Ry

     iteration # 55     ecut=    71.00 Ry     beta= 0.20
     Davidson diagonalization with overlap
     ethr =  1.00E-13,  avg # of iterations =  2.0

     negative rho (up, down):  2.608E-02 0.000E+00

     total cpu time spent up to now is    14267.4 secs

     total energy              =  -27385.18910786 Ry
     estimated scf accuracy    <          1.2E-09 Ry

     iteration # 56     ecut=    71.00 Ry     beta= 0.20
     Davidson diagonalization with overlap
     ethr =  1.00E-13,  avg # of iterations =  2.0

     negative rho (up, down):  2.607E-02 0.000E+00

     total cpu time spent up to now is    14300.6 secs

     total energy              =  -27385.18910784 Ry
     estimated scf accuracy    <          1.4E-09 Ry

     iteration # 57     ecut=    71.00 Ry     beta= 0.20
     Davidson diagonalization with overlap
     ethr =  1.00E-13,  avg # of iterations =  3.5

     negative rho (up, down):  2.607E-02 0.000E+00

     total cpu time spent up to now is    14334.5 secs

     total energy              =  -27385.18910786 Ry
     estimated scf accuracy    <          6.6E-10 Ry

     iteration # 58     ecut=    71.00 Ry     beta= 0.20
     Davidson diagonalization with overlap
     ethr =  1.00E-13,  avg # of iterations =  2.0

     negative rho (up, down):  2.607E-02 0.000E+00

     total cpu time spent up to now is    14367.7 secs

     total energy              =  -27385.18910785 Ry
     estimated scf accuracy    <          6.4E-10 Ry

     iteration # 59     ecut=    71.00 Ry     beta= 0.20
     Davidson diagonalization with overlap
     ethr =  1.00E-13,  avg # of iterations =  5.3

     negative rho (up, down):  2.607E-02 0.000E+00

     total cpu time spent up to now is    14402.0 secs

     total energy              =  -27385.18910784 Ry
     estimated scf accuracy    <          8.7E-10 Ry

     iteration # 60     ecut=    71.00 Ry     beta= 0.20
     Davidson diagonalization with overlap
     ethr =  1.00E-13,  avg # of iterations =  2.0

     negative rho (up, down):  2.607E-02 0.000E+00

     total cpu time spent up to now is    14435.4 secs

     total energy              =  -27385.18910784 Ry
     estimated scf accuracy    <          4.8E-10 Ry

     iteration # 61     ecut=    71.00 Ry     beta= 0.20
     Davidson diagonalization with overlap
     ethr =  1.00E-13,  avg # of iterations =  9.8

     negative rho (up, down):  2.607E-02 0.000E+00

     total cpu time spent up to now is    14471.7 secs

     total energy              =  -27385.18910784 Ry
     estimated scf accuracy    <          1.4E-09 Ry

     iteration # 62     ecut=    71.00 Ry     beta= 0.20
     Davidson diagonalization with overlap
     ethr =  1.00E-13,  avg # of iterations =  5.8

     negative rho (up, down):  2.607E-02 0.000E+00

     total cpu time spent up to now is    14506.5 secs

     total energy              =  -27385.18910785 Ry
     estimated scf accuracy    <          7.3E-10 Ry

     iteration # 63     ecut=    71.00 Ry     beta= 0.20
     Davidson diagonalization with overlap
     ethr =  1.00E-13,  avg # of iterations =  2.0

     negative rho (up, down):  2.607E-02 0.000E+00

     total cpu time spent up to now is    14539.7 secs

     total energy              =  -27385.18910783 Ry
     estimated scf accuracy    <          1.1E-09 Ry

     iteration # 64     ecut=    71.00 Ry     beta= 0.20
     Davidson diagonalization with overlap
     ethr =  1.00E-13,  avg # of iterations =  2.0

     negative rho (up, down):  2.607E-02 0.000E+00

     total cpu time spent up to now is    14572.9 secs

     total energy              =  -27385.18910783 Ry
     estimated scf accuracy    <          6.9E-10 Ry

     iteration # 65     ecut=    71.00 Ry     beta= 0.20
     Davidson diagonalization with overlap
     ethr =  1.00E-13,  avg # of iterations =  2.0

     negative rho (up, down):  2.607E-02 0.000E+00

     total cpu time spent up to now is    14606.1 secs

     total energy              =  -27385.18910784 Ry
     estimated scf accuracy    <          6.2E-10 Ry

     iteration # 66     ecut=    71.00 Ry     beta= 0.20
     Davidson diagonalization with overlap
     ethr =  1.00E-13,  avg # of iterations =  2.8

     negative rho (up, down):  2.608E-02 0.000E+00

     total cpu time spent up to now is    14639.0 secs

     End of self-consistent calculation

          k = 0.0000 0.0000 0.0000 (327585 PWs)   bands (ev):

   -74.8419 -39.0514 -39.0362 -38.9544 -18.1828 -18.1827 -18.1041 -18.0667
   -18.0667 -18.0391 -18.0391 -17.9896 -17.9896 -17.8389 -17.8389 -17.7737
   -17.7737 -17.7475 -17.7475 -17.6895 -17.6895 -17.6881 -17.6881 -17.6642
   -17.6642 -17.5994 -17.5994 -17.5915 -17.5915 -17.4539 -17.4002 -17.3821
   -17.2732 -17.2336 -17.1521 -17.1484 -17.1026 -17.0857 -17.0572 -17.0547
   -17.0212 -17.0147 -16.9873 -16.9699 -16.9652 -16.9539 -16.9537 -16.9461
   -16.8902 -16.8834 -16.8573 -16.8482 -16.8462 -16.8336 -16.8270 -16.8073
   -16.8042 -16.8039 -16.7899 -16.7833 -16.7527 -16.7175 -16.6993 -16.6988
   -16.6909 -16.6825 -16.6683 -16.6676 -16.6491 -16.6479 -16.6376 -16.6315
   -16.6241 -16.6180 -16.6067 -16.6046 -16.5999 -16.5745 -16.5673 -16.5645
   -16.5513 -16.5426 -16.5240 -16.5168 -16.4701 -16.4666 -16.4592 -16.4571
   -16.4439 -16.4385 -16.4186 -16.4128 -16.4123 -16.3974 -16.3969 -16.3913
   -16.3270 -16.3269 -16.2701 -16.2671 -12.6490 -12.6484 -12.6254 -12.6229
   -12.6187 -12.6073 -12.6026 -12.5993 -12.5983 -12.5907 -12.5894 -12.5829
   -12.5781 -12.5767 -12.5726 -12.5648 -12.5588 -12.5584 -12.5489 -12.5487
   -12.5403 -12.5355 -12.5340 -12.5216 -12.5206 -12.5197 -12.5179 -12.5162
   -12.5110 -12.5044 -12.5022 -12.4911 -12.4890 -12.4832 -12.4813 -12.4804
   -12.4714 -12.4684 -12.4595 -12.4571 -12.4522 -12.4490 -12.4450 -12.4412
   -12.4378 -12.4356 -12.4356 -12.4268 -12.4212 -12.4013 -12.4009 -12.3953
   -12.3923 -12.3896 -12.3865 -12.3848 -12.3776 -12.3729 -12.3713 -12.3659
   -12.3636 -12.3529 -12.3487 -12.3446 -12.3405 -12.3320 -12.3295 -12.3281
   -12.3280 -12.3239 -12.3189 -12.3173 -12.3150 -12.3118 -12.3099 -12.3078
   -12.3061 -12.3058 -12.2997 -12.2996 -12.2966 -12.2936 -12.2896 -12.2890
   -12.2835 -12.2818 -12.2812 -12.2763 -12.2739 -12.2721 -12.2699 -12.2691
   -12.2676 -12.2672 -12.2620 -12.2615 -12.2570 -12.2521 -12.2484 -12.2477
   -12.2444 -12.2434 -12.2408 -12.2385 -12.2384 -12.2348 -12.2347 -12.2273
   -12.2263 -12.2252 -12.2250 -12.2229 -12.2188 -12.2180 -12.2123 -12.2085
   -12.2057 -12.2053 -12.2038 -12.2021 -12.1986 -12.1958 -12.1953 -12.1947
   -12.1903 -12.1893 -12.1859 -12.1844 -12.1811 -12.1807 -12.1768 -12.1726
   -12.1724 -12.1713 -12.1696 -12.1691 -12.1651 -12.1637 -12.1610 -12.1590
   -12.1579 -12.1517 -12.1502 -12.1490 -12.1464 -12.1432 -12.1374 -12.1352
   -12.1323 -12.1299 -12.1284 -12.1281 -12.1253 -12.1246 -12.1214 -12.1150
   -12.1132 -12.1119 -12.1097 -12.1070 -12.1052 -12.1051 -12.1032 -12.1021
   -12.1014 -12.0987 -12.0963 -12.0910 -12.0868 -12.0851 -12.0829 -12.0817
   -12.0789 -12.0787 -12.0686 -12.0680 -12.0671 -12.0661 -12.0627 -12.0607
   -12.0601 -12.0533 -12.0517 -12.0511 -12.0468 -12.0435 -12.0405 -12.0375
   -12.0320 -12.0316 -12.0287 -12.0262 -12.0234 -12.0194 -12.0175 -12.0148
   -12.0144 -12.0133 -12.0110 -12.0100 -12.0090 -12.0036 -12.0008 -11.9996
   -11.9988 -11.9925 -11.9921 -11.9869 -11.9867 -11.9764 -11.9742 -11.9730
   -11.9669 -11.9656 -11.9595 -11.9559 -11.9542 -11.9499 -11.9488 -11.9486
   -11.9402 -11.9383 -11.9376 -11.9326 -11.9291 -11.9272 -11.9243 -11.9230
   -11.9119 -11.9064 -11.8931 -11.8929 -11.8895 -11.8808 -11.8694 -11.8608
   -11.8479 -11.8363 -11.7884 -11.7808 -11.7419 -11.7379 -11.7221 -11.7127
   -11.6957 -11.6522 -11.6424 -11.6329 -11.6275 -11.5984 -11.5863 -11.5641
   -11.5551 -11.5064 -11.4999 -11.4873 -11.4762 -11.4500 -11.4388 -11.4307
   -11.4156 -11.4104 -11.3770 -11.3682 -11.3531 -11.3078 -11.3052 -11.2923
   -11.2902 -11.2074 -11.1857 -11.1734 -11.1585 -11.1523 -11.1308  -5.7729
    -5.7723  -5.6867  -5.6011  -5.6003  -5.5876  -5.5872  -5.5795  -5.5795
    -5.4932  -5.4484  -5.4470  -5.3894  -5.3856  -5.3756  -5.3187  -5.3083
    -5.3079  -5.2884  -5.2848  -5.2446  -5.2354  -5.1756  -5.1667  -5.0692
    -5.0213  -4.9838  -4.9441  -4.9126  -4.8676  -4.8609  -4.8127  -4.7948
    -4.7015  -4.6916  -4.6649  -4.6610  -4.6485  -4.6305  -4.6302  -4.5893
    -4.5758  -4.5754  -4.5397  -4.5345  -4.4901  -4.4654  -4.4268  -4.4004
    -4.3774  -4.3636  -4.3416  -4.3277  -4.2771  -4.2293  -4.2064  -4.1946
    -4.1691  -4.1086  -4.1021  -4.0513  -4.0418  -3.9696  -3.9376  -3.9351
    -3.8846  -3.8408  -3.8315  -3.7500  -3.7459  -3.7244  -3.7222  -3.6665
    -3.6572  -3.6143  -3.5901  -3.5865  -3.5781  -3.5710  -3.5208  -3.5025
    -3.4767  -3.4688  -3.4340  -3.4030  -3.3922  -3.3497  -3.3306  -3.2861
    -3.2797  -3.2712  -3.1961  -3.1875  -3.1624  -3.1085  -3.0922  -3.0834
    -3.0619  -3.0599  -3.0172  -3.0100  -2.9796  -2.9415  -2.9070  -2.8831
    -2.8428  -2.8397  -2.8283  -2.7967  -2.7793  -2.7606  -2.7286  -2.6981
    -2.6974  -2.6606  -2.6317  -2.6011  -2.5919  -2.5723  -2.5576  -2.5270
    -2.5049  -2.4839  -2.4565  -2.4490  -2.4334  -2.3908  -2.3720  -2.3648
    -2.3348  -2.3197  -2.2996  -2.2286  -2.2165  -2.1882  -2.1841  -2.1497
    -2.1101  -2.1018  -2.1001  -2.0949  -2.0704  -2.0672  -2.0181  -2.0119
    -1.9776  -1.9518  -1.9446  -1.9407  -1.9042  -1.9022  -1.8826  -1.8555
    -1.8446  -1.8373  -1.8239  -1.8073  -1.8071  -1.7952  -1.7932  -1.7610
    -1.7555  -1.7435  -1.7343  -1.7339  -1.6998  -1.6905  -1.6860  -1.6831
    -1.6656  -1.6524  -1.6441  -1.6251  -1.6178  -1.5761  -1.5759  -1.5649
    -1.5501  -1.5429  -1.5293  -1.5268  -1.4964  -1.4758  -1.4646  -1.4569
    -1.4565  -1.4108  -1.3963  -1.3804  -1.3746  -1.3470  -1.3318  -1.3197
    -1.3063  -1.2799  -1.2561  -1.2331  -1.2261  -1.2126  -1.1962  -1.1894
    -1.1811  -1.1550  -1.1108  -1.0479  -1.0409  -1.0205  -1.0197  -1.0027
    -0.9986  -0.9954  -0.9752  -0.9398  -0.9133  -0.9095  -0.8971  -0.8785
    -0.8735  -0.8577  -0.8342  -0.8326  -0.8240  -0.7989  -0.7976  -0.7746
    -0.7555  -0.7553  -0.7150  -0.7027  -0.6804  -0.6540  -0.6499  -0.6247
    -0.6186  -0.6011  -0.5879  -0.5718  -0.5651  -0.5611  -0.5374  -0.5207
    -0.5174  -0.5107  -0.4997  -0.4911  -0.4720  -0.4656  -0.4614  -0.4578
    -0.4572  -0.4410  -0.4290  -0.4124  -0.4112  -0.4008  -0.3897  -0.3873
    -0.3775  -0.3762  -0.3628  -0.3556  -0.3485  -0.3409  -0.3276  -0.3118
    -0.3078  -0.2961  -0.2855  -0.2725  -0.2715  -0.2315  -0.2231  -0.2069
    -0.2035  -0.1948  -0.1894  -0.1887  -0.1739  -0.1730  -0.1427  -0.1414
    -0.1283  -0.1023  -0.0982  -0.0005   0.0033   0.0055   0.0103   1.1353
     1.8792   2.3536   2.4381   2.7925   3.1661   3.5220   3.7573   3.8227
     3.8742   3.9726   4.1518   4.1925   4.2406

          k = 0.0000 0.3336 0.0000 (327620 PWs)   bands (ev):

   -74.8419 -39.0514 -39.0362 -38.9544 -18.1550 -18.1549 -18.1009 -18.0865
   -18.0864 -18.0509 -18.0509 -18.0128 -18.0128 -17.8036 -17.8036 -17.7625
   -17.7625 -17.7502 -17.7502 -17.7061 -17.7061 -17.6794 -17.6794 -17.6672
   -17.6672 -17.6014 -17.6014 -17.5968 -17.5968 -17.4660 -17.3659 -17.3604
   -17.2712 -17.2635 -17.2301 -17.1565 -17.1243 -17.0870 -17.0865 -17.0350
   -17.0292 -17.0048 -16.9832 -16.9662 -16.9644 -16.9378 -16.9246 -16.9182
   -16.8936 -16.8690 -16.8660 -16.8394 -16.8355 -16.8209 -16.8199 -16.8106
   -16.7989 -16.7932 -16.7705 -16.7634 -16.7532 -16.7182 -16.7084 -16.7008
   -16.6910 -16.6876 -16.6752 -16.6735 -16.6508 -16.6495 -16.6373 -16.6291
   -16.6195 -16.6138 -16.6052 -16.6031 -16.5928 -16.5819 -16.5698 -16.5624
   -16.5431 -16.5336 -16.5219 -16.5113 -16.5012 -16.4988 -16.4749 -16.4706
   -16.4372 -16.4283 -16.4181 -16.4176 -16.4136 -16.4068 -16.4059 -16.3954
   -16.3063 -16.3062 -16.2790 -16.2773 -12.6469 -12.6333 -12.6301 -12.6225
   -12.6185 -12.6078 -12.6052 -12.5984 -12.5982 -12.5910 -12.5826 -12.5816
   -12.5789 -12.5729 -12.5678 -12.5642 -12.5608 -12.5551 -12.5521 -12.5447
   -12.5375 -12.5374 -12.5320 -12.5265 -12.5252 -12.5179 -12.5159 -12.5092
   -12.5082 -12.5047 -12.5022 -12.4919 -12.4897 -12.4857 -12.4784 -12.4728
   -12.4700 -12.4646 -12.4631 -12.4566 -12.4546 -12.4496 -12.4486 -12.4463
   -12.4411 -12.4402 -12.4359 -12.4300 -12.4185 -12.4108 -12.4099 -12.4045
   -12.3971 -12.3909 -12.3893 -12.3872 -12.3844 -12.3780 -12.3730 -12.3689
   -12.3579 -12.3541 -12.3522 -12.3425 -12.3396 -12.3378 -12.3341 -12.3299
   -12.3279 -12.3235 -12.3183 -12.3165 -12.3119 -12.3116 -12.3089 -12.3087
   -12.3026 -12.3016 -12.2971 -12.2967 -12.2941 -12.2923 -12.2901 -12.2874
   -12.2840 -12.2839 -12.2803 -12.2786 -12.2759 -12.2691 -12.2669 -12.2644
   -12.2633 -12.2615 -12.2594 -12.2560 -12.2538 -12.2509 -12.2476 -12.2450
   -12.2416 -12.2415 -12.2350 -12.2348 -12.2333 -12.2314 -12.2292 -12.2268
   -12.2249 -12.2223 -12.2194 -12.2165 -12.2162 -12.2139 -12.2102 -12.2082
   -12.2062 -12.2042 -12.2019 -12.1993 -12.1983 -12.1958 -12.1934 -12.1907
   -12.1890 -12.1869 -12.1853 -12.1844 -12.1817 -12.1814 -12.1805 -12.1769
   -12.1763 -12.1715 -12.1714 -12.1684 -12.1670 -12.1654 -12.1634 -12.1615
   -12.1600 -12.1598 -12.1558 -12.1535 -12.1479 -12.1470 -12.1448 -12.1387
   -12.1336 -12.1325 -12.1284 -12.1277 -12.1251 -12.1237 -12.1226 -12.1221
   -12.1166 -12.1152 -12.1119 -12.1117 -12.1080 -12.1071 -12.1063 -12.1040
   -12.1005 -12.1001 -12.0975 -12.0972 -12.0922 -12.0908 -12.0881 -12.0863
   -12.0832 -12.0779 -12.0760 -12.0746 -12.0720 -12.0706 -12.0679 -12.0640
   -12.0615 -12.0550 -12.0538 -12.0508 -12.0487 -12.0455 -12.0394 -12.0393
   -12.0347 -12.0339 -12.0267 -12.0261 -12.0208 -12.0168 -12.0165 -12.0139
   -12.0114 -12.0092 -12.0050 -12.0029 -11.9999 -11.9988 -11.9970 -11.9926
   -11.9910 -11.9874 -11.9849 -11.9823 -11.9791 -11.9782 -11.9751 -11.9740
   -11.9692 -11.9678 -11.9630 -11.9609 -11.9566 -11.9562 -11.9541 -11.9520
   -11.9461 -11.9441 -11.9433 -11.9389 -11.9306 -11.9288 -11.9268 -11.9266
   -11.9178 -11.9096 -11.8933 -11.8830 -11.8805 -11.8623 -11.8544 -11.8426
   -11.8382 -11.8117 -11.8031 -11.7843 -11.7760 -11.7469 -11.7414 -11.7073
   -11.6932 -11.6601 -11.6597 -11.6085 -11.5968 -11.5682 -11.5524 -11.5291
   -11.5218 -11.5106 -11.5059 -11.4779 -11.4733 -11.4644 -11.4560 -11.4389
   -11.4221 -11.4121 -11.4008 -11.3810 -11.3559 -11.3333 -11.3200 -11.2487
   -11.2451 -11.2101 -11.1986 -11.1897 -11.1768 -11.1638 -11.1530  -5.7486
    -5.7465  -5.6891  -5.6755  -5.6457  -5.5947  -5.5947  -5.5841  -5.5834
    -5.5108  -5.4508  -5.4345  -5.4135  -5.4083  -5.3541  -5.3163  -5.2433
    -5.2423  -5.2364  -5.2290  -5.1990  -5.1528  -5.1159  -5.0593  -5.0575
    -5.0451  -4.9589  -4.9436  -4.9024  -4.8435  -4.8310  -4.8213  -4.8033
    -4.7944  -4.7624  -4.7266  -4.7243  -4.6798  -4.6738  -4.6477  -4.6366
    -4.6118  -4.5856  -4.5318  -4.5147  -4.5006  -4.4771  -4.4427  -4.4231
    -4.3983  -4.3973  -4.3830  -4.3390  -4.3358  -4.2910  -4.2762  -4.2671
    -4.2383  -4.2235  -4.1828  -4.1011  -4.0995  -3.9690  -3.8978  -3.8956
    -3.8519  -3.8086  -3.7624  -3.7570  -3.7340  -3.7062  -3.6981  -3.6611
    -3.6602  -3.6513  -3.6424  -3.5878  -3.5496  -3.5447  -3.5049  -3.4584
    -3.4296  -3.4186  -3.3906  -3.3370  -3.3130  -3.2915  -3.2852  -3.2462
    -3.1992  -3.1873  -3.1621  -3.1364  -3.0986  -3.0945  -3.0685  -3.0570
    -3.0223  -3.0006  -2.9881  -2.9804  -2.9518  -2.9030  -2.8931  -2.8770
    -2.8394  -2.8372  -2.7855  -2.7825  -2.7475  -2.7206  -2.7063  -2.6723
    -2.6436  -2.6307  -2.6169  -2.5806  -2.5771  -2.5600  -2.5438  -2.5078
    -2.4711  -2.4708  -2.4522  -2.4062  -2.3957  -2.3615  -2.3386  -2.3357
    -2.3331  -2.3081  -2.3041  -2.2901  -2.2662  -2.2507  -2.2474  -2.2137
    -2.1986  -2.1841  -2.1674  -2.1510  -2.1395  -2.0968  -2.0939  -2.0810
    -2.0538  -2.0511  -2.0341  -2.0286  -1.9903  -1.9784  -1.9521  -1.9223
    -1.9017  -1.8821  -1.8704  -1.8644  -1.8537  -1.8260  -1.8117  -1.7823
    -1.7795  -1.7509  -1.7261  -1.7139  -1.6966  -1.6960  -1.6732  -1.6644
    -1.6546  -1.6536  -1.6100  -1.5923  -1.5735  -1.5665  -1.5281  -1.5065
    -1.5061  -1.4905  -1.4759  -1.4496  -1.4362  -1.4341  -1.4161  -1.4151
    -1.3986  -1.3916  -1.3483  -1.3321  -1.3273  -1.3168  -1.3008  -1.2816
    -1.2767  -1.2555  -1.2513  -1.2126  -1.2077  -1.1819  -1.1713  -1.1444
    -1.1393  -1.1005  -1.0956  -1.0768  -1.0760  -1.0452  -1.0231  -1.0137
    -0.9924  -0.9806  -0.9636  -0.9620  -0.9361  -0.9253  -0.9025  -0.8910
    -0.8735  -0.8696  -0.8496  -0.8330  -0.8197  -0.8156  -0.7967  -0.7924
    -0.7772  -0.7671  -0.7493  -0.7396  -0.7228  -0.7157  -0.7017  -0.6790
    -0.6542  -0.6502  -0.6242  -0.6090  -0.5950  -0.5944  -0.5849  -0.5605
    -0.5552  -0.5426  -0.5373  -0.5225  -0.5209  -0.5031  -0.4857  -0.4644
    -0.4640  -0.4531  -0.4444  -0.4267  -0.4194  -0.4137  -0.3944  -0.3862
    -0.3858  -0.3755  -0.3629  -0.3521  -0.3491  -0.3240  -0.3227  -0.3031
    -0.3026  -0.2870  -0.2750  -0.2739  -0.2662  -0.2564  -0.2477  -0.2412
    -0.2335  -0.2132  -0.2131  -0.1548  -0.1363  -0.1297  -0.1190  -0.1119
    -0.0980  -0.0884  -0.0790  -0.0314  -0.0275  -0.0202  -0.0168   1.6768
     2.3092   2.3775   2.4155   2.8777   3.0829   3.0860   3.3527   3.7516
     3.7936   4.0031   4.1126   4.2788   4.2968

          k = 0.3333 0.0000 0.0000 (327628 PWs)   bands (ev):

   -74.8419 -39.0514 -39.0362 -38.9544 -18.1593 -18.1591 -18.1026 -18.1023
   -18.1003 -18.0283 -18.0283 -18.0015 -18.0015 -17.8220 -17.8219 -17.7900
   -17.7900 -17.7254 -17.7254 -17.6873 -17.6873 -17.6807 -17.6807 -17.6768
   -17.6768 -17.6012 -17.6012 -17.5968 -17.5968 -17.4469 -17.4196 -17.3482
   -17.2770 -17.2455 -17.2121 -17.1617 -17.1224 -17.0766 -17.0475 -17.0303
   -17.0268 -17.0059 -16.9910 -16.9793 -16.9663 -16.9578 -16.9359 -16.9158
   -16.9086 -16.8840 -16.8723 -16.8641 -16.8466 -16.8262 -16.8194 -16.8143
   -16.7994 -16.7854 -16.7695 -16.7587 -16.7505 -16.7041 -16.7024 -16.6942
   -16.6824 -16.6810 -16.6666 -16.6626 -16.6559 -16.6496 -16.6408 -16.6332
   -16.6137 -16.6117 -16.6078 -16.5968 -16.5920 -16.5704 -16.5635 -16.5591
   -16.5544 -16.5308 -16.5285 -16.5199 -16.4795 -16.4732 -16.4655 -16.4646
   -16.4512 -16.4464 -16.4392 -16.4304 -16.4186 -16.4133 -16.4022 -16.3964
   -16.3056 -16.3047 -16.2760 -16.2739 -12.6444 -12.6381 -12.6343 -12.6255
   -12.6209 -12.6095 -12.6065 -12.5961 -12.5943 -12.5906 -12.5850 -12.5822
   -12.5794 -12.5734 -12.5690 -12.5606 -12.5567 -12.5535 -12.5466 -12.5420
   -12.5389 -12.5349 -12.5299 -12.5293 -12.5250 -12.5229 -12.5137 -12.5093
   -12.5072 -12.5047 -12.4984 -12.4966 -12.4906 -12.4833 -12.4766 -12.4750
   -12.4694 -12.4673 -12.4660 -12.4610 -12.4542 -12.4524 -12.4506 -12.4490
   -12.4414 -12.4378 -12.4320 -12.4243 -12.4201 -12.4161 -12.4048 -12.4031
   -12.3997 -12.3979 -12.3942 -12.3919 -12.3870 -12.3716 -12.3687 -12.3661
   -12.3612 -12.3550 -12.3502 -12.3461 -12.3372 -12.3356 -12.3330 -12.3278
   -12.3257 -12.3192 -12.3175 -12.3146 -12.3092 -12.3084 -12.3062 -12.3043
   -12.3010 -12.2990 -12.2936 -12.2918 -12.2913 -12.2896 -12.2869 -12.2845
   -12.2818 -12.2812 -12.2757 -12.2742 -12.2730 -12.2711 -12.2684 -12.2672
   -12.2649 -12.2626 -12.2622 -12.2599 -12.2569 -12.2548 -12.2501 -12.2474
   -12.2447 -12.2441 -12.2412 -12.2406 -12.2370 -12.2336 -12.2321 -12.2294
   -12.2286 -12.2262 -12.2218 -12.2175 -12.2151 -12.2136 -12.2120 -12.2118
   -12.2108 -12.2092 -12.2062 -12.2012 -12.2001 -12.1977 -12.1939 -12.1934
   -12.1909 -12.1877 -12.1856 -12.1847 -12.1829 -12.1803 -12.1776 -12.1769
   -12.1748 -12.1716 -12.1695 -12.1692 -12.1661 -12.1630 -12.1611 -12.1578
   -12.1544 -12.1523 -12.1508 -12.1493 -12.1457 -12.1431 -12.1404 -12.1391
   -12.1373 -12.1345 -12.1324 -12.1309 -12.1266 -12.1259 -12.1239 -12.1210
   -12.1165 -12.1156 -12.1145 -12.1126 -12.1112 -12.1071 -12.1031 -12.0994
   -12.0971 -12.0945 -12.0933 -12.0910 -12.0905 -12.0890 -12.0869 -12.0864
   -12.0846 -12.0807 -12.0759 -12.0735 -12.0697 -12.0691 -12.0633 -12.0610
   -12.0567 -12.0532 -12.0505 -12.0487 -12.0464 -12.0459 -12.0391 -12.0377
   -12.0359 -12.0343 -12.0322 -12.0262 -12.0239 -12.0223 -12.0183 -12.0142
   -12.0114 -12.0082 -12.0019 -11.9994 -11.9975 -11.9947 -11.9930 -11.9892
   -11.9866 -11.9833 -11.9816 -11.9805 -11.9799 -11.9762 -11.9755 -11.9733
   -11.9716 -11.9684 -11.9672 -11.9644 -11.9584 -11.9563 -11.9524 -11.9511
   -11.9457 -11.9450 -11.9416 -11.9411 -11.9341 -11.9311 -11.9229 -11.9198
   -11.9078 -11.9043 -11.9006 -11.8818 -11.8778 -11.8676 -11.8547 -11.8411
   -11.8382 -11.8280 -11.8178 -11.8114 -11.7998 -11.7458 -11.7418 -11.7118
   -11.6949 -11.6794 -11.6312 -11.6202 -11.5970 -11.5853 -11.5645 -11.5410
   -11.5308 -11.5151 -11.5045 -11.4897 -11.4816 -11.4651 -11.4416 -11.4256
   -11.3954 -11.3836 -11.3671 -11.3462 -11.3369 -11.3274 -11.3070 -11.2620
   -11.2597 -11.2248 -11.2132 -11.1870 -11.1845 -11.1744 -11.1623  -5.7418
    -5.7387  -5.6774  -5.6542  -5.6372  -5.5987  -5.5961  -5.5818  -5.5767
    -5.4624  -5.4600  -5.4493  -5.4234  -5.4181  -5.3551  -5.2858  -5.2697
    -5.2474  -5.2442  -5.2366  -5.2263  -5.1915  -5.0944  -5.0525  -4.9954
    -4.9790  -4.9654  -4.9531  -4.9348  -4.9082  -4.8852  -4.8699  -4.8497
    -4.7738  -4.7416  -4.7281  -4.7026  -4.6845  -4.6593  -4.6510  -4.6271
    -4.5965  -4.5891  -4.5789  -4.5543  -4.5141  -4.5074  -4.4934  -4.4483
    -4.4301  -4.3758  -4.3459  -4.3190  -4.3024  -4.2708  -4.2193  -4.1813
    -4.1464  -4.1255  -4.0883  -4.0542  -4.0172  -3.9990  -3.9850  -3.9628
    -3.9576  -3.9239  -3.8799  -3.8541  -3.8076  -3.7677  -3.7301  -3.6592
    -3.6354  -3.5889  -3.5703  -3.5422  -3.5174  -3.5134  -3.4706  -3.4527
    -3.4344  -3.4083  -3.3589  -3.3511  -3.3147  -3.3095  -3.2695  -3.2566
    -3.2328  -3.2126  -3.1693  -3.1494  -3.1069  -3.0898  -3.0581  -3.0192
    -3.0047  -2.9890  -2.9582  -2.9454  -2.9131  -2.9026  -2.8902  -2.8585
    -2.8462  -2.8297  -2.7861  -2.7699  -2.7462  -2.7337  -2.7092  -2.6588
    -2.6511  -2.6422  -2.6286  -2.6083  -2.5685  -2.5607  -2.5470  -2.5245
    -2.5114  -2.4989  -2.4806  -2.4423  -2.4250  -2.4142  -2.3827  -2.3723
    -2.3638  -2.3232  -2.3064  -2.2886  -2.2796  -2.2301  -2.2243  -2.2080
    -2.1892  -2.1297  -2.1076  -2.0946  -2.0785  -2.0627  -2.0447  -2.0331
    -2.0147  -2.0009  -1.9737  -1.9598  -1.9394  -1.9233  -1.9153  -1.9109
    -1.8881  -1.8708  -1.8583  -1.8511  -1.8257  -1.8060  -1.8030  -1.7780
    -1.7581  -1.7500  -1.7421  -1.7237  -1.7106  -1.6968  -1.6879  -1.6685
    -1.6559  -1.6432  -1.6197  -1.6071  -1.5826  -1.5806  -1.5679  -1.5523
    -1.5333  -1.5263  -1.5127  -1.4942  -1.4833  -1.4591  -1.4553  -1.4491
    -1.4258  -1.3963  -1.3868  -1.3813  -1.3511  -1.3351  -1.3269  -1.3076
    -1.2798  -1.2719  -1.2455  -1.2168  -1.2113  -1.1949  -1.1799  -1.1463
    -1.1193  -1.1157  -1.0918  -1.0862  -1.0756  -1.0582  -1.0415  -1.0350
    -1.0149  -1.0028  -0.9790  -0.9617  -0.9392  -0.9215  -0.9003  -0.8925
    -0.8848  -0.8627  -0.8399  -0.8341  -0.8296  -0.7843  -0.7839  -0.7683
    -0.7518  -0.7316  -0.7259  -0.7122  -0.7045  -0.6853  -0.6832  -0.6754
    -0.6574  -0.6386  -0.6127  -0.6099  -0.6060  -0.6009  -0.5839  -0.5627
    -0.5490  -0.5324  -0.5304  -0.5093  -0.4947  -0.4848  -0.4830  -0.4645
    -0.4547  -0.4473  -0.4398  -0.4312  -0.4268  -0.4234  -0.4077  -0.3958
    -0.3913  -0.3742  -0.3647  -0.3627  -0.3540  -0.3433  -0.3401  -0.3361
    -0.3135  -0.2995  -0.2926  -0.2879  -0.2619  -0.2536  -0.2408  -0.2363
    -0.2299  -0.2146  -0.1745  -0.1710  -0.1602  -0.1511  -0.1345  -0.0967
    -0.0943  -0.0763  -0.0732  -0.0105  -0.0095  -0.0011   0.0016   1.6887
     2.2971   2.3890   2.4712   2.7789   3.0667   3.1758   3.3253   3.7303
     3.7977   3.9513   4.1089   4.2954   4.3244

          k = 0.3333 0.3336 0.0000 (327656 PWs)   bands (ev):

   -74.8419 -39.0514 -39.0362 -38.9544 -18.1337 -18.1336 -18.0980 -18.0824
   -18.0823 -18.0707 -18.0706 -18.0332 -18.0331 -17.7868 -17.7866 -17.7602
   -17.7598 -17.7402 -17.7400 -17.7090 -17.7089 -17.6811 -17.6808 -17.6759
   -17.6756 -17.6022 -17.6012 -17.5990 -17.5981 -17.4510 -17.3965 -17.3367
   -17.2736 -17.2631 -17.2176 -17.1754 -17.1555 -17.1093 -17.1023 -17.0688
   -17.0166 -16.9984 -16.9732 -16.9528 -16.9460 -16.9340 -16.9183 -16.9082
   -16.8991 -16.8722 -16.8590 -16.8469 -16.8331 -16.8279 -16.8102 -16.7999
   -16.7907 -16.7818 -16.7607 -16.7572 -16.7398 -16.7234 -16.7066 -16.7004
   -16.6966 -16.6820 -16.6735 -16.6646 -16.6598 -16.6465 -16.6395 -16.6338
   -16.6226 -16.6161 -16.6039 -16.5895 -16.5843 -16.5746 -16.5632 -16.5566
   -16.5456 -16.5345 -16.5287 -16.5124 -16.5015 -16.4975 -16.4829 -16.4769
   -16.4530 -16.4481 -16.4420 -16.4361 -16.4086 -16.4005 -16.3964 -16.3877
   -16.2995 -16.2990 -16.2832 -16.2821 -12.6466 -12.6372 -12.6322 -12.6259
   -12.6215 -12.6107 -12.6046 -12.5963 -12.5936 -12.5926 -12.5840 -12.5812
   -12.5784 -12.5713 -12.5691 -12.5676 -12.5603 -12.5576 -12.5475 -12.5422
   -12.5378 -12.5346 -12.5319 -12.5252 -12.5228 -12.5164 -12.5123 -12.5115
   -12.5090 -12.5034 -12.4992 -12.4933 -12.4911 -12.4858 -12.4793 -12.4756
   -12.4728 -12.4674 -12.4655 -12.4650 -12.4585 -12.4563 -12.4521 -12.4476
   -12.4409 -12.4370 -12.4295 -12.4231 -12.4197 -12.4157 -12.4085 -12.4037
   -12.3979 -12.3940 -12.3895 -12.3858 -12.3793 -12.3758 -12.3724 -12.3656
   -12.3599 -12.3561 -12.3522 -12.3494 -12.3455 -12.3399 -12.3358 -12.3303
   -12.3271 -12.3224 -12.3175 -12.3161 -12.3144 -12.3125 -12.3088 -12.3031
   -12.3012 -12.2982 -12.2963 -12.2941 -12.2920 -12.2891 -12.2887 -12.2845
   -12.2827 -12.2820 -12.2792 -12.2767 -12.2727 -12.2711 -12.2680 -12.2677
   -12.2642 -12.2627 -12.2620 -12.2565 -12.2537 -12.2499 -12.2494 -12.2458
   -12.2437 -12.2414 -12.2376 -12.2339 -12.2332 -12.2317 -12.2296 -12.2270
   -12.2266 -12.2231 -12.2212 -12.2187 -12.2155 -12.2133 -12.2126 -12.2110
   -12.2077 -12.2065 -12.2029 -12.2019 -12.1986 -12.1964 -12.1956 -12.1932
   -12.1919 -12.1900 -12.1888 -12.1870 -12.1841 -12.1826 -12.1798 -12.1785
   -12.1769 -12.1746 -12.1730 -12.1708 -12.1668 -12.1644 -12.1635 -12.1602
   -12.1582 -12.1554 -12.1492 -12.1467 -12.1445 -12.1429 -12.1395 -12.1359
   -12.1335 -12.1318 -12.1295 -12.1276 -12.1258 -12.1225 -12.1207 -12.1181
   -12.1165 -12.1138 -12.1105 -12.1102 -12.1082 -12.1059 -12.1014 -12.0985
   -12.0969 -12.0956 -12.0936 -12.0912 -12.0887 -12.0874 -12.0856 -12.0838
   -12.0824 -12.0792 -12.0754 -12.0733 -12.0686 -12.0665 -12.0637 -12.0612
   -12.0590 -12.0550 -12.0515 -12.0470 -12.0450 -12.0399 -12.0381 -12.0339
   -12.0310 -12.0277 -12.0252 -12.0212 -12.0183 -12.0153 -12.0134 -12.0092
   -12.0069 -12.0054 -12.0020 -11.9998 -11.9972 -11.9954 -11.9935 -11.9922
   -11.9907 -11.9883 -11.9842 -11.9819 -11.9785 -11.9760 -11.9745 -11.9709
   -11.9694 -11.9666 -11.9628 -11.9607 -11.9588 -11.9563 -11.9544 -11.9524
   -11.9489 -11.9466 -11.9434 -11.9384 -11.9319 -11.9274 -11.9235 -11.9179
   -11.9141 -11.8961 -11.8883 -11.8778 -11.8706 -11.8661 -11.8525 -11.8457
   -11.8373 -11.8272 -11.8140 -11.8035 -11.7914 -11.7804 -11.7773 -11.7644
   -11.7249 -11.6984 -11.6862 -11.6595 -11.6267 -11.5693 -11.5499 -11.5276
   -11.5120 -11.4975 -11.4937 -11.4804 -11.4556 -11.4467 -11.4196 -11.3894
   -11.3808 -11.3703 -11.3479 -11.3354 -11.3257 -11.3022 -11.2917 -11.2746
   -11.2705 -11.2390 -11.2335 -11.2154 -11.2024 -11.1982 -11.1827  -5.7260
    -5.7227  -5.6889  -5.6794  -5.6334  -5.6202  -5.6157  -5.6061  -5.5983
    -5.4786  -5.4389  -5.4302  -5.4182  -5.4081  -5.3561  -5.2867  -5.2161
    -5.2082  -5.2065  -5.1997  -5.1909  -5.1187  -5.0254  -5.0087  -4.9794
    -4.9685  -4.9537  -4.9372  -4.8978  -4.8801  -4.8614  -4.8444  -4.8131
    -4.8002  -4.7727  -4.7497  -4.7203  -4.6925  -4.6646  -4.6533  -4.6460
    -4.6283  -4.6191  -4.5932  -4.5773  -4.5658  -4.5457  -4.5313  -4.5024
    -4.4842  -4.4444  -4.4183  -4.3886  -4.3692  -4.3367  -4.2937  -4.2404
    -4.2313  -4.2108  -4.1486  -4.1162  -4.0914  -4.0708  -4.0407  -3.9932
    -3.9766  -3.9669  -3.9211  -3.8376  -3.7695  -3.7109  -3.6587  -3.6417
    -3.5838  -3.5644  -3.5226  -3.4824  -3.4643  -3.4460  -3.4175  -3.3706
    -3.3658  -3.3384  -3.3029  -3.2799  -3.2522  -3.2457  -3.2139  -3.2000
    -3.1864  -3.1343  -3.1007  -3.0877  -3.0539  -3.0362  -3.0166  -3.0088
    -2.9871  -2.9516  -2.9335  -2.9139  -2.8923  -2.8742  -2.8631  -2.8411
    -2.8278  -2.8011  -2.7773  -2.7694  -2.7323  -2.7182  -2.6892  -2.6790
    -2.6465  -2.6325  -2.6284  -2.5924  -2.5813  -2.5731  -2.5625  -2.5261
    -2.5008  -2.4888  -2.4706  -2.4503  -2.4376  -2.4187  -2.3953  -2.3881
    -2.3713  -2.3502  -2.3071  -2.2949  -2.2674  -2.2586  -2.2322  -2.2096
    -2.1910  -2.1680  -2.1528  -2.1387  -2.1328  -2.1099  -2.0825  -2.0768
    -2.0593  -2.0467  -2.0278  -2.0059  -1.9767  -1.9717  -1.9588  -1.9392
    -1.9233  -1.9076  -1.8932  -1.8784  -1.8501  -1.8397  -1.8265  -1.8065
    -1.7868  -1.7607  -1.7512  -1.7424  -1.7283  -1.7112  -1.6795  -1.6652
    -1.6550  -1.6329  -1.6262  -1.6101  -1.5839  -1.5583  -1.5308  -1.5190
    -1.5055  -1.4902  -1.4699  -1.4387  -1.4280  -1.4132  -1.3924  -1.3782
    -1.3717  -1.3594  -1.3389  -1.3268  -1.3159  -1.3036  -1.2846  -1.2726
    -1.2667  -1.2385  -1.2307  -1.2140  -1.1844  -1.1694  -1.1606  -1.1490
    -1.1413  -1.1103  -1.0996  -1.0858  -1.0660  -1.0539  -1.0445  -1.0293
    -1.0199  -0.9995  -0.9936  -0.9818  -0.9688  -0.9525  -0.9411  -0.9330
    -0.9200  -0.9075  -0.8850  -0.8720  -0.8475  -0.8439  -0.8270  -0.8150
    -0.8081  -0.7947  -0.7810  -0.7696  -0.7535  -0.7332  -0.7253  -0.6988
    -0.6788  -0.6716  -0.6557  -0.6447  -0.6293  -0.6256  -0.6038  -0.5979
    -0.5905  -0.5711  -0.5639  -0.5514  -0.5310  -0.5220  -0.5118  -0.5060
    -0.4811  -0.4646  -0.4575  -0.4473  -0.4398  -0.4176  -0.4014  -0.3909
    -0.3699  -0.3588  -0.3537  -0.3519  -0.3442  -0.3358  -0.3282  -0.3143
    -0.3047  -0.2953  -0.2815  -0.2700  -0.2592  -0.2448  -0.2297  -0.2042
    -0.1946  -0.1889  -0.1614  -0.1366  -0.1329  -0.1091  -0.1059  -0.0697
    -0.0640  -0.0579  -0.0536  -0.0219  -0.0213  -0.0000   0.0013   2.0907
     2.4157   2.4768   2.6658   2.9363   3.1162   3.2367   3.3568   3.4925
     3.5583   3.7507   3.9574   3.9770   4.0420

     the Fermi energy is     2.3157 ev

!    total energy              =  -27385.18910786 Ry
     total all-electron energy =   -693758.151441 Ry
     estimated scf accuracy    <          2.2E-10 Ry
     smearing contrib. (-TS)   =      -0.00280631 Ry
     internal energy E=F+TS    =  -27385.18630155 Ry

     The total energy is F=E-TS. E is the sum of the following terms:
     one-electron contribution = -273226.85946947 Ry
     hartree contribution      =  137395.39889482 Ry
     xc contribution           =   -3323.07274588 Ry
     ewald contribution        =  128290.53807668 Ry
     one-center paw contrib.   =  -16521.19105769 Ry

     convergence has been achieved in  66 iterations

     negative rho (up, down):  2.608E-02 0.000E+00

     Forces acting on atoms (cartesian axes, Ry/au):

     atom    1 type  1   force =     0.00001758    0.00034543   -0.00055886
     atom    2 type  1   force =     0.00005671   -0.00011748   -0.00052811
     atom    3 type  1   force =    -0.00272169    0.00110953   -0.00196089
     atom    4 type  1   force =     0.00017001   -0.00001027   -0.00047664
     atom    5 type  1   force =     0.00057377    0.00265115   -0.00087415
     atom    6 type  1   force =     0.00005069   -0.00004835   -0.00032061
     atom    7 type  1   force =     0.00087415    0.00008776   -0.00191934
     atom    8 type  1   force =    -0.00133912   -0.00026101   -0.00125540
     atom    9 type  1   force =     0.00057484    0.00036290    0.00077599
     atom   10 type  1   force =    -0.00082848   -0.00146324    0.00097210
     atom   11 type  1   force =     0.00003219   -0.00022178   -0.00015118
     atom   12 type  1   force =     0.00027640   -0.00036158    0.00002682
     atom   13 type  2   force =    -0.00064173   -0.00057113   -0.00097496
     atom   14 type  2   force =     0.00059018    0.00058721   -0.00039753
     atom   15 type  2   force =    -0.00354515   -0.00107813    0.00122563
     atom   16 type  2   force =     0.00076262   -0.00159311    0.00071856
     atom   17 type  2   force =    -0.00015214   -0.00013274   -0.00098497
     atom   18 type  2   force =    -0.00011739   -0.00054810   -0.00081444
     atom   19 type  2   force =     0.00006590   -0.00023165   -0.00048424
     atom   20 type  2   force =    -0.00017668    0.00010504    0.00230316
     atom   21 type  2   force =     0.00007796   -0.00079903   -0.00041678
     atom   22 type  2   force =    -0.00010719    0.00122520   -0.00147551
     atom   23 type  2   force =    -0.00056959    0.00026874   -0.00193184
     atom   24 type  2   force =    -0.00156605   -0.00157053   -0.00099129
     atom   25 type  2   force =     0.00055357    0.00070625   -0.00223495
     atom   26 type  2   force =    -0.00070875   -0.00088963   -0.00227705
     atom   27 type  2   force =     0.00076168   -0.00030424   -0.00415322
     atom   28 type  2   force =    -0.00848261    0.00938343   -0.00254125
     atom   29 type  2   force =    -0.00016110   -0.00026155   -0.00057627
     atom   30 type  2   force =     0.00013110   -0.00003300   -0.00076053
     atom   31 type  2   force =     0.00015836    0.00019547   -0.00068857
     atom   32 type  2   force =    -0.00009262    0.00001539   -0.00070595
     atom   33 type  2   force =     0.00066026    0.00053667   -0.00174170
     atom   34 type  2   force =    -0.00971596   -0.00029717    0.00062528
     atom   35 type  2   force =     0.00045062   -0.00072643   -0.00052811
     atom   36 type  2   force =     0.00173105   -0.00152212   -0.00158540
     atom   37 type  1   force =     0.00150255    0.00146001    0.00054572
     atom   38 type  1   force =     0.00188803   -0.00023085   -0.00117569
     atom   39 type  1   force =     0.00008927   -0.00028335   -0.00005493
     atom   40 type  1   force =    -0.00346536    0.00044010    0.00270371
     atom   41 type  1   force =     0.00016313   -0.00006522   -0.00022584
     atom   42 type  1   force =     0.00162209    0.00120949    0.00094701
     atom   43 type  1   force =    -0.00148168    0.00044918    0.00443695
     atom   44 type  1   force =     0.00100852    0.00013361   -0.00120754
     atom   45 type  1   force =    -0.00042242    0.00021747   -0.00047974
     atom   46 type  1   force =     0.00151821   -0.00063806   -0.00109977
     atom   47 type  1   force =     0.00028094   -0.00049836   -0.00123537
     atom   48 type  1   force =     0.00074170    0.00075606    0.00102516
     atom   49 type  1   force =    -0.00191676    0.00201189   -0.00131802
     atom   50 type  1   force =    -0.00127336   -0.00118291    0.00268321
     atom   51 type  2   force =    -0.00040727   -0.00162882   -0.00092416
     atom   52 type  2   force =     0.00533159   -0.00073322   -0.00116891
     atom   53 type  2   force =     0.00076172   -0.00066765   -0.00217965
     atom   54 type  2   force =    -0.00057350    0.00069478   -0.00216235
     atom   55 type  2   force =    -0.00034871    0.00268190    0.00235315
     atom   56 type  2   force =    -0.00242882   -0.01602735    0.00623068
     atom   57 type  2   force =     0.00111508    0.00003259   -0.00097775
     atom   58 type  2   force =     0.00181915    0.00156184    0.00052843
     atom   59 type  2   force =     0.00425492   -0.00170373    0.00239380
     atom   60 type  2   force =     0.00079895   -0.00062143   -0.00161847
     atom   61 type  2   force =     0.00034323    0.00148926    0.00393963
     atom   62 type  2   force =    -0.00062743    0.00082809   -0.00028804
     atom   63 type  2   force =     0.00075759   -0.00006751    0.00466112
     atom   64 type  2   force =     0.00107719    0.00065496   -0.00100250
     atom   65 type  2   force =    -0.00039621    0.00040178    0.00038285
     atom   66 type  2   force =     0.00071334   -0.00053855   -0.00132063
     atom   67 type  2   force =    -0.00103898    0.00850078    0.00051173
     atom   68 type  2   force =    -0.00080547    0.00283134   -0.00002598
     atom   69 type  2   force =     0.00864088   -0.00184676    0.00258094
     atom   70 type  2   force =    -0.00269482    0.00159168   -0.00105491
     atom   71 type  2   force =     0.00226738   -0.00118002   -0.00250557
     atom   72 type  2   force =    -0.00037028    0.00128787   -0.00022483
     atom   73 type  2   force =     0.00068506   -0.00498604   -0.00090329
     atom   74 type  2   force =    -0.00088205   -0.00046016   -0.00171788
     atom   75 type  1   force =     0.00272169    0.00110953    0.00196089
     atom   76 type  1   force =     0.00346536    0.00044010   -0.00270371
     atom   77 type  1   force =    -0.00001758    0.00034543    0.00055886
     atom   78 type  1   force =    -0.00188803   -0.00023085    0.00117569
     atom   79 type  1   force =    -0.00005069   -0.00004835    0.00032061
     atom   80 type  1   force =    -0.00057377    0.00265115    0.00087415
     atom   81 type  1   force =    -0.00087415    0.00008776    0.00191934
     atom   82 type  1   force =     0.00133912   -0.00026101    0.00125540
     atom   83 type  1   force =    -0.00100852    0.00013361    0.00120754
     atom   84 type  1   force =     0.00148168    0.00044918   -0.00443695
     atom   85 type  1   force =    -0.00003219   -0.00022178    0.00015118
     atom   86 type  1   force =     0.00082848   -0.00146324   -0.00097210
     atom   87 type  3   force =     0.00000000   -0.00292956    0.00000000
     atom   88 type  1   force =     0.00000000   -0.00101898    0.00000000
     atom   89 type  1   force =     0.00127336   -0.00118291   -0.00268321
     atom   90 type  1   force =     0.00191676    0.00201189    0.00131802
     atom   91 type  2   force =     0.00354515   -0.00107813   -0.00122563
     atom   92 type  2   force =    -0.00076262   -0.00159311   -0.00071856
     atom   93 type  2   force =     0.00064173   -0.00057113    0.00097496
     atom   94 type  2   force =    -0.00059018    0.00058721    0.00039753
     atom   95 type  2   force =    -0.00181915    0.00156184   -0.00052843
     atom   96 type  2   force =    -0.00111508    0.00003259    0.00097775
     atom   97 type  2   force =     0.00242882   -0.01602735   -0.00623068
     atom   98 type  2   force =     0.00034871    0.00268190   -0.00235315
     atom   99 type  2   force =     0.00010719    0.00122520    0.00147551
     atom  100 type  2   force =    -0.00007796   -0.00079903    0.00041678
     atom  101 type  2   force =     0.00156605   -0.00157053    0.00099129
     atom  102 type  2   force =     0.00056959    0.00026874    0.00193184
     atom  103 type  2   force =    -0.00076168   -0.00030424    0.00415322
     atom  104 type  2   force =     0.00848261    0.00938343    0.00254125
     atom  105 type  2   force =    -0.00055357    0.00070625    0.00223495
     atom  106 type  2   force =     0.00070875   -0.00088963    0.00227705
     atom  107 type  2   force =     0.00269482    0.00159168    0.00105491
     atom  108 type  2   force =    -0.00864088   -0.00184676   -0.00258094
     atom  109 type  2   force =     0.00080547    0.00283134    0.00002598
     atom  110 type  2   force =     0.00103898    0.00850078   -0.00051173
     atom  111 type  2   force =     0.00971596   -0.00029717   -0.00062528
     atom  112 type  2   force =    -0.00066026    0.00053667    0.00174170
     atom  113 type  2   force =    -0.00173105   -0.00152212    0.00158540
     atom  114 type  2   force =    -0.00045062   -0.00072643    0.00052811
     atom  115 type  1   force =    -0.00008927   -0.00028335    0.00005493
     atom  116 type  1   force =    -0.00017001   -0.00001027    0.00047664
     atom  117 type  1   force =    -0.00150255    0.00146001   -0.00054572
     atom  118 type  1   force =    -0.00005671   -0.00011748    0.00052811
     atom  119 type  1   force =    -0.00162209    0.00120949   -0.00094701
     atom  120 type  1   force =    -0.00016313   -0.00006522    0.00022584
     atom  121 type  1   force =     0.00000000    0.00214598    0.00000000
     atom  122 type  1   force =     0.00000000    0.00020896    0.00000000
     atom  123 type  1   force =    -0.00057484    0.00036290   -0.00077599
     atom  124 type  1   force =    -0.00151821   -0.00063806    0.00109977
     atom  125 type  1   force =     0.00042242    0.00021747    0.00047974
     atom  126 type  1   force =    -0.00028094   -0.00049836    0.00123537
     atom  127 type  1   force =    -0.00074170    0.00075606   -0.00102516
     atom  128 type  1   force =    -0.00027640   -0.00036158   -0.00002682
     atom  129 type  2   force =    -0.00076172   -0.00066765    0.00217965
     atom  130 type  2   force =     0.00057350    0.00069478    0.00216235
     atom  131 type  2   force =     0.00040727   -0.00162882    0.00092416
     atom  132 type  2   force =    -0.00533159   -0.00073322    0.00116891
     atom  133 type  2   force =     0.00017668    0.00010504   -0.00230316
     atom  134 type  2   force =    -0.00006590   -0.00023165    0.00048424
     atom  135 type  2   force =     0.00011739   -0.00054810    0.00081444
     atom  136 type  2   force =     0.00015214   -0.00013274    0.00098497
     atom  137 type  2   force =    -0.00079895   -0.00062143    0.00161847
     atom  138 type  2   force =    -0.00425492   -0.00170373   -0.00239380
     atom  139 type  2   force =     0.00062743    0.00082809    0.00028804
     atom  140 type  2   force =    -0.00034323    0.00148926   -0.00393963
     atom  141 type  2   force =     0.00039621    0.00040178   -0.00038285
     atom  142 type  2   force =    -0.00071334   -0.00053855    0.00132063
     atom  143 type  2   force =    -0.00075759   -0.00006751   -0.00466112
     atom  144 type  2   force =    -0.00107719    0.00065496    0.00100250
     atom  145 type  2   force =     0.00009262    0.00001539    0.00070595
     atom  146 type  2   force =    -0.00015836    0.00019547    0.00068857
     atom  147 type  2   force =    -0.00013110   -0.00003300    0.00076053
     atom  148 type  2   force =     0.00016110   -0.00026155    0.00057627
     atom  149 type  2   force =     0.00037028    0.00128787    0.00022483
     atom  150 type  2   force =    -0.00226738   -0.00118002    0.00250557
     atom  151 type  2   force =     0.00088205   -0.00046016    0.00171788
     atom  152 type  2   force =    -0.00068506   -0.00498604    0.00090329
     atom  153 type  4   force =     0.00018723   -0.00024201   -0.00020348
     atom  154 type  4   force =    -0.00011684    0.00013893   -0.00028854
     atom  155 type  4   force =     0.00109687   -0.00132558    0.00079700
     atom  156 type  4   force =    -0.00112399   -0.00096861    0.00134617
     atom  157 type  4   force =     0.00123720    0.00109557    0.00155685
     atom  158 type  4   force =    -0.00013012   -0.00015488   -0.00026885
     atom  159 type  4   force =     0.00016455    0.00013317   -0.00026089
     atom  160 type  4   force =    -0.00127163   -0.00137053    0.00108647
     atom  161 type  4   force =    -0.00110106    0.00109676    0.00142473
     atom  162 type  4   force =     0.00114360   -0.00098768    0.00132229
     atom  163 type  4   force =    -0.00142363    0.00150104    0.00138534
     atom  164 type  4   force =     0.00120048    0.00146799    0.00112271
     atom  165 type  4   force =    -0.00109687   -0.00132558   -0.00079700
     atom  166 type  4   force =     0.00112399   -0.00096861   -0.00134617
     atom  167 type  4   force =    -0.00123720    0.00109557   -0.00155685
     atom  168 type  4   force =     0.00127163   -0.00137053   -0.00108647
     atom  169 type  4   force =     0.00110106    0.00109676   -0.00142473
     atom  170 type  4   force =    -0.00114360   -0.00098768   -0.00132229
     atom  171 type  4   force =     0.00011684    0.00013893    0.00028854
     atom  172 type  4   force =    -0.00018723   -0.00024201    0.00020348
     atom  173 type  4   force =     0.00142363    0.00150104   -0.00138534
     atom  174 type  4   force =    -0.00016455    0.00013317    0.00026089
     atom  175 type  4   force =     0.00013012   -0.00015488    0.00026885
     atom  176 type  4   force =    -0.00120048    0.00146799   -0.00112271

     Total force =     0.048662     Total SCF correction =     0.000030


     Computing stress (Cartesian axis) and pressure


     negative rho (up, down):  2.608E-02 0.000E+00
          total   stress  (Ry/bohr**3)                   (kbar)     P=        2.63
   0.00002092   0.00000000  -0.00000044            3.08        0.00       -0.06
   0.00000000   0.00002442   0.00000000            0.00        3.59        0.00
  -0.00000044   0.00000000   0.00000826           -0.06        0.00        1.22

     Energy error            =      8.6E-03 Ry
     Gradient error          =      1.6E-02 Ry/Bohr

     number of scf cycles    =   6
     number of bfgs steps    =   5

     energy             old  =  -27385.1805189999 Ry
     energy             new  =  -27385.1891078565 Ry

     CASE: energy            _new < energy            _old

     new trust radius        =       0.0254643121 bohr
     new conv_thr            =       0.0000000002 Ry


ATOMIC_POSITIONS (crystal)
In               0.2475728765        0.2527403665        0.3285071193
In               0.7524169998        0.2474103727        0.3284929410
In               0.2498843990        0.2509404222        0.4425184481
In               0.2523917597        0.7525109550        0.3285146106
In               0.4660843731        0.5007840915        0.4425415827
In               0.0359808782        0.5024838652        0.3287907258
In               0.7512847968        0.4657833040        0.3853324286
In               0.2485572315        0.0342421618        0.3853887055
In               0.4996316041        0.7495802226        0.3780663767
In               0.0360837274       -0.0027453375        0.4424381865
In               0.4640046269        0.0024404248        0.3287694653
In               0.0002401313        0.2500086202        0.3779899067
O                0.3889061849        0.1563696583        0.3583995520
O                0.6111357412        0.3435196916        0.3584320506
O                0.1084605659        0.1543723507        0.4132976335
O                0.8903288795        0.3442562391        0.4131171207
O                0.3811318542        0.3937953727        0.3068487943
O                0.3837648204        0.6102916046        0.3508589511
O                0.6188600490        0.1060821493        0.3068800373
O                0.6161329380        0.8895272159        0.3511277049
O                0.1548316072        0.3830455220        0.3610062704
O                0.3462822094        0.3824198939        0.4110196937
O                0.1839374148        0.6027707756        0.2984227211
O                0.3454106154        0.6173332546        0.4748129627
O                0.0990210614        0.3425712004        0.3005691516
O                0.9009413924        0.1574002308        0.3005836217
O                0.3910535322        0.3445627123        0.4728788557
O                0.6202318817        0.1465557440        0.4755141463
O                0.1161985631        0.1103750222        0.3509342149
O                0.1188726963        0.8938534278        0.3068604803
O                0.8837361710        0.3896233212        0.3509341739
O                0.8811201988        0.6061492331        0.3068637817
O                0.3160701012        0.1028211937        0.2984458757
O                0.1496824933        0.1177521066        0.4748199920
O                0.3453547323        0.8831430106        0.3610033251
O                0.1543883455        0.8820417243        0.4109635707
In               0.7520134085        0.7472619979        0.4421171428
In               0.2497634769        0.7491257624        0.4425727378
In               0.7476823163        0.7472235090        0.3285055873
In               0.7481035879        0.2538583772        0.4420868076
In               0.9642359244       -0.0024620038        0.3287748078
In               0.5307045371        0.0002373645        0.4416879156
In               0.0028906164        0.2537177384        0.4925417661
In               0.0007042301        0.7496326071        0.3929659255
In               0.5357088267        0.4976096374        0.3287708865
In               0.9676356967        0.5003499562        0.4425790914
In               0.2511856076        0.5343781509        0.3855310140
In               0.7493836625        0.9656692672        0.3854057205
In               0.4990160297        0.2509659143        0.3928833782
In               0.4962674184        0.7465309343        0.4927104649
O                0.8889596901        0.6551394958        0.4732287225
O                0.1109392538        0.8459952079        0.4731312273
O                0.5990729371        0.6574432770        0.3005771482
O                0.4009723787        0.8425932978        0.3005761812
O                0.8820190690        0.8916484750        0.4213031590
O                0.8643098520        0.0964201052        0.4693676533
O                0.1178222208        0.6102666340        0.4207927902
O                0.1182817440        0.3902017441        0.4647958739
O                0.6689449522        0.8990229293        0.4783386654
O                0.8160681730        0.8971835641        0.2984604135
O                0.6540717893        0.1178785836        0.4116297337
O                0.8449224722        0.1169499739        0.3610352519
O                0.6109868116        0.8453915583        0.4138460157
O                0.3903355796        0.6551883548        0.4129541223
O                0.8888959345        0.8435085948        0.3584951454
O                0.1111175656        0.6564511815        0.3583185727
O                0.6180678732        0.6146712583        0.4648725419
O                0.6173294529        0.3902659663        0.4209862023
O                0.3869570257        0.8896869978        0.4650280077
O                0.3815214927        0.1109589249        0.4208387705
O                0.8466363762        0.6170599749        0.4108977919
O                0.6548008789        0.6170931211        0.3610360798
O                0.8462030969        0.3792781716        0.4747758985
O                0.6838915048        0.3972076995        0.2984472525
In               0.2501156010        0.2509404222        0.5574815522
In               0.7518964121        0.2538583772        0.5579131927
In               0.2524271235        0.2527403665        0.6714928807
In               0.2502365231        0.7491257624        0.5574272625
In               0.4640191218        0.5024838652        0.6712092742
In               0.0339156269        0.5007840915        0.5574584175
In               0.7487152032        0.4657833040        0.6146675714
In               0.2514427685        0.0342421618        0.6146112945
In               0.4992957699        0.7496326071        0.6070340745
In               0.4971093836        0.2537177384        0.5074582339
In               0.0359953731        0.0024404248        0.6712305347
In               0.4639162726       -0.0027453375        0.5575618137
W                0.7500000000        0.0360218532        0.5000000001
In               0.2500000000        0.4669850139        0.5000000001
In               0.0037325816        0.7465309343        0.5072895351
In               0.0009839703        0.2509659143        0.6071166218
O                0.3915394351        0.1543723507        0.5867023667
O                0.6096711215        0.3442562391        0.5868828795
O                0.1110938151        0.1563696583        0.6416004480
O                0.8888642588        0.3435196916        0.6415679494
O                0.3817182560        0.3902017441        0.5352041261
O                0.3821777801        0.6102666340        0.5792072098
O                0.6356901480        0.0964201052        0.5306323467
O                0.6179809319        0.8916484750        0.5786968410
O                0.1537177906        0.3824198939        0.5889803063
O                0.3451683928        0.3830455220        0.6389937296
O                0.1545893846        0.6173332546        0.5251870373
O                0.3160625852        0.6027707756        0.7015772791
O                0.1089464688        0.3445627123        0.5271211448
O                0.8797681193        0.1465557440        0.5244858542
O                0.4009789395        0.3425712004        0.6994308484
O                0.5990586085        0.1574002308        0.6994163783
O                0.1184785082        0.1109589249        0.5791612295
O                0.1130429743        0.8896869978        0.5349719923
O                0.8826705480        0.3902659663        0.5790137977
O                0.8819321268        0.6146712583        0.5351274581
O                0.3503175067        0.1177521066        0.5251800080
O                0.1839298988        0.1028211937        0.7015541245
O                0.3456116545        0.8820417243        0.5890364293
O                0.1546452677        0.8831430106        0.6389966749
In               0.7523176837        0.7472235090        0.6714944127
In               0.2476082403        0.7525109550        0.6714853894
In               0.7479865915        0.7472619979        0.5578828575
In               0.7475830002        0.2474103727        0.6715070590
In               0.9692954629        0.0002373645        0.5583120846
In               0.5357640746       -0.0024620038        0.6712251922
In               0.2500000000        0.9665128084        0.5000000001
In               0.7500000000        0.5335516667        0.5000000001
In               0.0003683959        0.7495802226        0.6219336233
In               0.5323643033        0.5003499562        0.5574209088
In               0.9642911723        0.4976096374        0.6712291135
In               0.2488143924        0.5343781509        0.6144689860
In               0.7506163375        0.9656692672        0.6145942795
In               0.4997598687        0.2500086202        0.6220100933
O                0.9009270638        0.6574432770        0.6994228518
O                0.0990276222        0.8425932978        0.6994238188
O                0.6110403109        0.6551394958        0.5267712780
O                0.3890607472        0.8459952079        0.5268687732
O                0.8838670620        0.8895272159        0.6488722951
O                0.8811399510        0.1060821493        0.6931199627
O                0.1162351796        0.6102916046        0.6491410489
O                0.1188681458        0.3937953727        0.6931512057
O                0.6839318270        0.8971835641        0.7015395867
O                0.8310550478        0.8990229293        0.5216613346
O                0.6550775278        0.1169499739        0.6389647481
O                0.8459282107        0.1178785836        0.5883702663
O                0.6111040655        0.8435085948        0.6415048546
O                0.3888824344        0.6564511815        0.6416814273
O                0.8890131894        0.8453915583        0.5861539845
O                0.1096644214        0.6551883548        0.5870458779
O                0.6188798012        0.6061492331        0.6931362183
O                0.6162638290        0.3896233212        0.6490658261
O                0.3811273037        0.8938534278        0.6931395197
O                0.3838014369        0.1103750222        0.6490657851
O                0.8451991211        0.6170931211        0.6389639202
O                0.6533636238        0.6170599749        0.5891022081
O                0.8161084952        0.3972076995        0.7015527477
O                0.6537969031        0.3792781716        0.5252241015
H                0.3223284584        0.4635310254        0.3002808330
H                0.6776878384        0.0364582251        0.3002723773
H                0.1358132392        0.6467466563        0.2828121145
H                0.1376475415        0.3798346490        0.2828683209
H                0.8623585645        0.1201805857        0.2828722457
H                0.1776791885        0.9635440170        0.3002753554
H                0.8223259208        0.5364588353        0.3002755175
H                0.3641642434        0.1467569153        0.2828211012
H                0.6376607973        0.6201918067        0.2828697529
H                0.3623628612        0.8798260004        0.2828696120
H                0.8641555048        0.8532543000        0.2828289518
H                0.6358109456        0.3532648924        0.2828209169
H                0.3641867608        0.6467466563        0.7171878855
H                0.3623524585        0.3798346490        0.7171316791
H                0.6376414355        0.1201805857        0.7171277543
H                0.1358357566        0.1467569153        0.7171788988
H                0.8623392027        0.6201918067        0.7171302471
H                0.1376371388        0.8798260004        0.7171303880
H                0.8223121606        0.0364582251        0.6997276227
H                0.1776715406        0.4635310254        0.6997191670
H                0.6358444942        0.8532543000        0.7171710482
H                0.6776740782        0.5364588353        0.6997244825
H                0.3223208105        0.9635440170        0.6997246446
H                0.8641890534        0.3532648924        0.7171790831



     Writing config-only to output data dir ./tmp/rel.save/ :
     XML data file
     NEW-OLD atomic charge density approx. for the potential

     negative rho (up, down):  2.610E-02 0.000E+00

     total cpu time spent up to now is    14879.8 secs

     Self-consistent Calculation

     iteration #  1     ecut=    71.00 Ry     beta= 0.20
     Davidson diagonalization with overlap
     ethr =  1.00E-06,  avg # of iterations =  6.8

     negative rho (up, down):  2.801E-02 0.000E+00

     total cpu time spent up to now is    14925.6 secs

     total energy              =  -27385.18762939 Ry
     estimated scf accuracy    <       0.00685329 Ry

     iteration #  2     ecut=    71.00 Ry     beta= 0.20
     Davidson diagonalization with overlap
     ethr =  5.16E-07,  avg # of iterations =  2.0

     negative rho (up, down):  4.019E-02 0.000E+00

     total cpu time spent up to now is    14958.4 secs

     total energy              =  -27385.18969560 Ry
     estimated scf accuracy    <       0.00437150 Ry

     iteration #  3     ecut=    71.00 Ry     beta= 0.20
     Davidson diagonalization with overlap
     ethr =  3.29E-07,  avg # of iterations =  6.0

     negative rho (up, down):  3.582E-02 0.000E+00

     total cpu time spent up to now is    14994.2 secs

     total energy              =  -27385.19077681 Ry
     estimated scf accuracy    <       0.00023891 Ry

     iteration #  4     ecut=    71.00 Ry     beta= 0.20
     Davidson diagonalization with overlap
     ethr =  1.80E-08,  avg # of iterations = 11.3

     negative rho (up, down):  3.452E-02 0.000E+00

     total cpu time spent up to now is    15035.5 secs

     total energy              =  -27385.19095415 Ry
     estimated scf accuracy    <       0.00014291 Ry

     iteration #  5     ecut=    71.00 Ry     beta= 0.20
     Davidson diagonalization with overlap
     ethr =  1.08E-08,  avg # of iterations =  2.0

     negative rho (up, down):  3.258E-02 0.000E+00

     total cpu time spent up to now is    15068.2 secs

     total energy              =  -27385.19132919 Ry
     estimated scf accuracy    <       0.00012244 Ry

     iteration #  6     ecut=    71.00 Ry     beta= 0.20
     Davidson diagonalization with overlap
     ethr =  9.21E-09,  avg # of iterations =  6.3

     negative rho (up, down):  3.198E-02 0.000E+00

     total cpu time spent up to now is    15104.4 secs

     total energy              =  -27385.19140755 Ry
     estimated scf accuracy    <       0.00019592 Ry

     iteration #  7     ecut=    71.00 Ry     beta= 0.20
     Davidson diagonalization with overlap
     ethr =  9.21E-09,  avg # of iterations =  2.0

     negative rho (up, down):  2.978E-02 0.000E+00

     total cpu time spent up to now is    15137.5 secs

     total energy              =  -27385.19166188 Ry
     estimated scf accuracy    <       0.00015788 Ry

     iteration #  8     ecut=    71.00 Ry     beta= 0.20
     Davidson diagonalization with overlap
     ethr =  9.21E-09,  avg # of iterations =  6.5

     negative rho (up, down):  2.867E-02 0.000E+00

     total cpu time spent up to now is    15176.2 secs

     total energy              =  -27385.19181115 Ry
     estimated scf accuracy    <       0.00005121 Ry

     iteration #  9     ecut=    71.00 Ry     beta= 0.20
     Davidson diagonalization with overlap
     ethr =  3.85E-09,  avg # of iterations =  3.5

     negative rho (up, down):  2.820E-02 0.000E+00

     total cpu time spent up to now is    15210.7 secs

     total energy              =  -27385.19182065 Ry
     estimated scf accuracy    <       0.00000964 Ry

     iteration # 10     ecut=    71.00 Ry     beta= 0.20
     Davidson diagonalization with overlap
     ethr =  7.25E-10,  avg # of iterations = 12.8

     negative rho (up, down):  2.834E-02 0.000E+00

     total cpu time spent up to now is    15250.5 secs

     total energy              =  -27385.19182794 Ry
     estimated scf accuracy    <       0.00002841 Ry

     iteration # 11     ecut=    71.00 Ry     beta= 0.20
     Davidson diagonalization with overlap
     ethr =  7.25E-10,  avg # of iterations =  6.0

     negative rho (up, down):  2.832E-02 0.000E+00

     total cpu time spent up to now is    15286.2 secs

     total energy              =  -27385.19182992 Ry
     estimated scf accuracy    <       0.00000337 Ry

     iteration # 12     ecut=    71.00 Ry     beta= 0.20
     Davidson diagonalization with overlap
     ethr =  2.53E-10,  avg # of iterations =  7.3

     negative rho (up, down):  2.826E-02 0.000E+00

     total cpu time spent up to now is    15322.1 secs

     total energy              =  -27385.19182911 Ry
     estimated scf accuracy    <       0.00000209 Ry

     iteration # 13     ecut=    71.00 Ry     beta= 0.20
     Davidson diagonalization with overlap
     ethr =  1.57E-10,  avg # of iterations =  2.5

     negative rho (up, down):  2.845E-02 0.000E+00

     total cpu time spent up to now is    15356.4 secs

     total energy              =  -27385.19183216 Ry
     estimated scf accuracy    <       0.00000243 Ry

     iteration # 14     ecut=    71.00 Ry     beta= 0.20
     Davidson diagonalization with overlap
     ethr =  1.57E-10,  avg # of iterations =  6.0

     negative rho (up, down):  2.837E-02 0.000E+00

     total cpu time spent up to now is    15392.5 secs

     total energy              =  -27385.19183315 Ry
     estimated scf accuracy    <       0.00000179 Ry

     iteration # 15     ecut=    71.00 Ry     beta= 0.20
     Davidson diagonalization with overlap
     ethr =  1.35E-10,  avg # of iterations =  5.0

     negative rho (up, down):  2.838E-02 0.000E+00

     total cpu time spent up to now is    15426.6 secs

     total energy              =  -27385.19183357 Ry
     estimated scf accuracy    <       0.00000134 Ry

     iteration # 16     ecut=    71.00 Ry     beta= 0.20
     Davidson diagonalization with overlap
     ethr =  1.01E-10,  avg # of iterations =  4.0

     negative rho (up, down):  2.837E-02 0.000E+00

     total cpu time spent up to now is    15460.2 secs

     total energy              =  -27385.19183403 Ry
     estimated scf accuracy    <       0.00000059 Ry

     iteration # 17     ecut=    71.00 Ry     beta= 0.20
     Davidson diagonalization with overlap
     ethr =  4.44E-11,  avg # of iterations =  8.0

     negative rho (up, down):  2.842E-02 0.000E+00

     total cpu time spent up to now is    15498.2 secs

     total energy              =  -27385.19183429 Ry
     estimated scf accuracy    <       0.00000044 Ry

     iteration # 18     ecut=    71.00 Ry     beta= 0.20
     Davidson diagonalization with overlap
     ethr =  3.27E-11,  avg # of iterations =  2.0

     negative rho (up, down):  2.837E-02 0.000E+00

     total cpu time spent up to now is    15531.9 secs

     total energy              =  -27385.19183441 Ry
     estimated scf accuracy    <       0.00000033 Ry

     iteration # 19     ecut=    71.00 Ry     beta= 0.20
     Davidson diagonalization with overlap
     ethr =  2.51E-11,  avg # of iterations =  7.8

     negative rho (up, down):  2.838E-02 0.000E+00

     total cpu time spent up to now is    15567.9 secs

     total energy              =  -27385.19183385 Ry
     estimated scf accuracy    <       0.00000019 Ry

     iteration # 20     ecut=    71.00 Ry     beta= 0.20
     Davidson diagonalization with overlap
     ethr =  1.41E-11,  avg # of iterations =  5.8

     negative rho (up, down):  2.838E-02 0.000E+00

     total cpu time spent up to now is    15606.5 secs

     total energy              =  -27385.19183404 Ry
     estimated scf accuracy    <       0.00000017 Ry

     iteration # 21     ecut=    71.00 Ry     beta= 0.20
     Davidson diagonalization with overlap
     ethr =  1.27E-11,  avg # of iterations =  2.0

     negative rho (up, down):  2.832E-02 0.000E+00

     total cpu time spent up to now is    15639.5 secs

     total energy              =  -27385.19183428 Ry
     estimated scf accuracy    <       0.00000011 Ry

     iteration # 22     ecut=    71.00 Ry     beta= 0.20
     Davidson diagonalization with overlap
     ethr =  8.21E-12,  avg # of iterations =  8.3

     negative rho (up, down):  2.832E-02 0.000E+00

     total cpu time spent up to now is    15680.2 secs

     total energy              =  -27385.19183456 Ry
     estimated scf accuracy    <       0.00000010 Ry

     iteration # 23     ecut=    71.00 Ry     beta= 0.20
     Davidson diagonalization with overlap
     ethr =  7.51E-12,  avg # of iterations =  2.5

     negative rho (up, down):  2.832E-02 0.000E+00

     total cpu time spent up to now is    15713.9 secs

     total energy              =  -27385.19183455 Ry
     estimated scf accuracy    <       0.00000010 Ry

     iteration # 24     ecut=    71.00 Ry     beta= 0.20
     Davidson diagonalization with overlap
     ethr =  7.24E-12,  avg # of iterations =  5.0

     negative rho (up, down):  2.829E-02 0.000E+00

     total cpu time spent up to now is    15748.6 secs

     total energy              =  -27385.19183458 Ry
     estimated scf accuracy    <       0.00000004 Ry

     iteration # 25     ecut=    71.00 Ry     beta= 0.20
     Davidson diagonalization with overlap
     ethr =  3.28E-12,  avg # of iterations =  6.8

     negative rho (up, down):  2.829E-02 0.000E+00

     total cpu time spent up to now is    15784.0 secs

     total energy              =  -27385.19183456 Ry
     estimated scf accuracy    <       0.00000005 Ry

     iteration # 26     ecut=    71.00 Ry     beta= 0.20
     Davidson diagonalization with overlap
     ethr =  3.28E-12,  avg # of iterations =  5.0

     negative rho (up, down):  2.829E-02 0.000E+00

     total cpu time spent up to now is    15818.3 secs

     total energy              =  -27385.19183459 Ry
     estimated scf accuracy    <       0.00000003 Ry

     iteration # 27     ecut=    71.00 Ry     beta= 0.20
     Davidson diagonalization with overlap
     ethr =  2.27E-12,  avg # of iterations =  5.0

     negative rho (up, down):  2.827E-02 0.000E+00

     total cpu time spent up to now is    15852.3 secs

     total energy              =  -27385.19183457 Ry
     estimated scf accuracy    <       0.00000003 Ry

     iteration # 28     ecut=    71.00 Ry     beta= 0.20
     Davidson diagonalization with overlap
     ethr =  2.27E-12,  avg # of iterations =  4.5

     negative rho (up, down):  2.825E-02 0.000E+00

     total cpu time spent up to now is    15886.1 secs

     total energy              =  -27385.19183455 Ry
     estimated scf accuracy    <       0.00000003 Ry

     iteration # 29     ecut=    71.00 Ry     beta= 0.20
     Davidson diagonalization with overlap
     ethr =  2.27E-12,  avg # of iterations =  8.8

     negative rho (up, down):  2.825E-02 0.000E+00

     total cpu time spent up to now is    15921.4 secs

     total energy              =  -27385.19183455 Ry
     estimated scf accuracy    <       0.00000002 Ry

     iteration # 30     ecut=    71.00 Ry     beta= 0.20
     Davidson diagonalization with overlap
     ethr =  1.26E-12,  avg # of iterations =  7.0

     negative rho (up, down):  2.824E-02 0.000E+00

     total cpu time spent up to now is    15957.6 secs

     total energy              =  -27385.19183453 Ry
     estimated scf accuracy    <       0.00000002 Ry

     iteration # 31     ecut=    71.00 Ry     beta= 0.20
     Davidson diagonalization with overlap
     ethr =  1.26E-12,  avg # of iterations =  2.5

     negative rho (up, down):  2.823E-02 0.000E+00

     total cpu time spent up to now is    15991.0 secs

     total energy              =  -27385.19183456 Ry
     estimated scf accuracy    <       0.00000001 Ry

     iteration # 32     ecut=    71.00 Ry     beta= 0.20
     Davidson diagonalization with overlap
     ethr =  8.57E-13,  avg # of iterations =  4.3

     negative rho (up, down):  2.822E-02 0.000E+00

     total cpu time spent up to now is    16025.6 secs

     total energy              =  -27385.19183458 Ry
     estimated scf accuracy    <       0.00000001 Ry

     iteration # 33     ecut=    71.00 Ry     beta= 0.20
     Davidson diagonalization with overlap
     ethr =  8.57E-13,  avg # of iterations =  7.8

     negative rho (up, down):  2.822E-02 0.000E+00

     total cpu time spent up to now is    16062.6 secs

     total energy              =  -27385.19183460 Ry
     estimated scf accuracy    <          6.6E-09 Ry

     iteration # 34     ecut=    71.00 Ry     beta= 0.20
     Davidson diagonalization with overlap
     ethr =  4.93E-13,  avg # of iterations =  6.5

     negative rho (up, down):  2.820E-02 0.000E+00

     total cpu time spent up to now is    16099.2 secs

     total energy              =  -27385.19183461 Ry
     estimated scf accuracy    <          5.6E-09 Ry

     iteration # 35     ecut=    71.00 Ry     beta= 0.20
     Davidson diagonalization with overlap
     ethr =  4.21E-13,  avg # of iterations =  7.8

     negative rho (up, down):  2.820E-02 0.000E+00

     total cpu time spent up to now is    16135.7 secs

     total energy              =  -27385.19183455 Ry
     estimated scf accuracy    <          3.1E-09 Ry

     iteration # 36     ecut=    71.00 Ry     beta= 0.20
     Davidson diagonalization with overlap
     ethr =  2.35E-13,  avg # of iterations =  6.0

     negative rho (up, down):  2.819E-02 0.000E+00

     total cpu time spent up to now is    16170.9 secs

     total energy              =  -27385.19183458 Ry
     estimated scf accuracy    <          2.9E-09 Ry

     iteration # 37     ecut=    71.00 Ry     beta= 0.20
     Davidson diagonalization with overlap
     ethr =  2.19E-13,  avg # of iterations =  2.0

     negative rho (up, down):  2.819E-02 0.000E+00

     total cpu time spent up to now is    16204.1 secs

     total energy              =  -27385.19183459 Ry
     estimated scf accuracy    <          2.4E-09 Ry

     iteration # 38     ecut=    71.00 Ry     beta= 0.20
     Davidson diagonalization with overlap
     ethr =  1.80E-13,  avg # of iterations =  2.0

     negative rho (up, down):  2.818E-02 0.000E+00

     total cpu time spent up to now is    16238.1 secs

     total energy              =  -27385.19183460 Ry
     estimated scf accuracy    <          2.0E-09 Ry

     iteration # 39     ecut=    71.00 Ry     beta= 0.20
     Davidson diagonalization with overlap
     ethr =  1.52E-13,  avg # of iterations =  2.0

     negative rho (up, down):  2.818E-02 0.000E+00

     total cpu time spent up to now is    16271.5 secs

     total energy              =  -27385.19183458 Ry
     estimated scf accuracy    <          1.8E-09 Ry

     iteration # 40     ecut=    71.00 Ry     beta= 0.20
     Davidson diagonalization with overlap
     ethr =  1.34E-13,  avg # of iterations =  2.0

     negative rho (up, down):  2.817E-02 0.000E+00

     total cpu time spent up to now is    16304.5 secs

     total energy              =  -27385.19183458 Ry
     estimated scf accuracy    <          1.4E-09 Ry

     iteration # 41     ecut=    71.00 Ry     beta= 0.20
     Davidson diagonalization with overlap
     ethr =  1.02E-13,  avg # of iterations =  9.3

     negative rho (up, down):  2.816E-02 0.000E+00

     total cpu time spent up to now is    16340.1 secs

     total energy              =  -27385.19183457 Ry
     estimated scf accuracy    <          5.6E-10 Ry

     iteration # 42     ecut=    71.00 Ry     beta= 0.20
     Davidson diagonalization with overlap
     ethr =  1.00E-13,  avg # of iterations =  2.0

     negative rho (up, down):  2.816E-02 0.000E+00

     total cpu time spent up to now is    16373.1 secs

     total energy              =  -27385.19183461 Ry
     estimated scf accuracy    <          2.5E-10 Ry

     iteration # 43     ecut=    71.00 Ry     beta= 0.20
     Davidson diagonalization with overlap
     ethr =  1.00E-13,  avg # of iterations =  2.0

     negative rho (up, down):  2.816E-02 0.000E+00

     total cpu time spent up to now is    16405.8 secs

     End of self-consistent calculation

          k = 0.0000 0.0000 0.0000 (327585 PWs)   bands (ev):

   -74.8652 -39.0884 -39.0520 -38.9862 -18.1867 -18.1866 -18.1188 -18.0709
   -18.0709 -18.0434 -18.0434 -17.9942 -17.9942 -17.8419 -17.8419 -17.7768
   -17.7768 -17.7498 -17.7498 -17.6946 -17.6946 -17.6939 -17.6939 -17.6668
   -17.6668 -17.6056 -17.6056 -17.5970 -17.5970 -17.4654 -17.4070 -17.3837
   -17.2765 -17.2369 -17.1577 -17.1534 -17.1067 -17.0883 -17.0625 -17.0582
   -17.0252 -17.0192 -16.9914 -16.9717 -16.9695 -16.9573 -16.9559 -16.9490
   -16.8916 -16.8880 -16.8597 -16.8511 -16.8494 -16.8381 -16.8290 -16.8117
   -16.8100 -16.8057 -16.7932 -16.7863 -16.7565 -16.7235 -16.7037 -16.7028
   -16.6949 -16.6845 -16.6715 -16.6712 -16.6527 -16.6512 -16.6417 -16.6335
   -16.6269 -16.6209 -16.6093 -16.6077 -16.6027 -16.5788 -16.5707 -16.5670
   -16.5551 -16.5473 -16.5271 -16.5203 -16.4724 -16.4689 -16.4614 -16.4594
   -16.4463 -16.4409 -16.4221 -16.4160 -16.4157 -16.4002 -16.3998 -16.3953
   -16.3293 -16.3293 -16.2728 -16.2699 -12.6529 -12.6529 -12.6293 -12.6258
   -12.6222 -12.6114 -12.6075 -12.6025 -12.6014 -12.5950 -12.5938 -12.5863
   -12.5818 -12.5802 -12.5751 -12.5683 -12.5621 -12.5615 -12.5525 -12.5515
   -12.5437 -12.5401 -12.5373 -12.5254 -12.5243 -12.5236 -12.5219 -12.5202
   -12.5146 -12.5085 -12.5050 -12.4962 -12.4930 -12.4868 -12.4861 -12.4840
   -12.4756 -12.4731 -12.4631 -12.4606 -12.4573 -12.4526 -12.4487 -12.4454
   -12.4416 -12.4399 -12.4382 -12.4297 -12.4268 -12.4062 -12.4044 -12.3993
   -12.3947 -12.3938 -12.3907 -12.3877 -12.3830 -12.3772 -12.3750 -12.3710
   -12.3669 -12.3583 -12.3522 -12.3485 -12.3428 -12.3368 -12.3319 -12.3315
   -12.3304 -12.3277 -12.3223 -12.3201 -12.3181 -12.3144 -12.3135 -12.3112
   -12.3101 -12.3081 -12.3026 -12.3026 -12.2994 -12.2966 -12.2940 -12.2910
   -12.2866 -12.2846 -12.2834 -12.2788 -12.2762 -12.2755 -12.2726 -12.2713
   -12.2698 -12.2697 -12.2645 -12.2642 -12.2593 -12.2545 -12.2508 -12.2508
   -12.2471 -12.2460 -12.2447 -12.2409 -12.2407 -12.2376 -12.2369 -12.2303
   -12.2293 -12.2273 -12.2272 -12.2255 -12.2211 -12.2209 -12.2148 -12.2111
   -12.2083 -12.2080 -12.2066 -12.2050 -12.2008 -12.1978 -12.1972 -12.1970
   -12.1931 -12.1917 -12.1881 -12.1872 -12.1831 -12.1827 -12.1794 -12.1751
   -12.1746 -12.1739 -12.1720 -12.1711 -12.1670 -12.1653 -12.1638 -12.1623
   -12.1605 -12.1539 -12.1530 -12.1511 -12.1490 -12.1454 -12.1404 -12.1378
   -12.1346 -12.1324 -12.1304 -12.1303 -12.1273 -12.1273 -12.1240 -12.1173
   -12.1153 -12.1139 -12.1116 -12.1089 -12.1079 -12.1071 -12.1051 -12.1037
   -12.1030 -12.1008 -12.0982 -12.0930 -12.0893 -12.0871 -12.0847 -12.0833
   -12.0808 -12.0807 -12.0709 -12.0702 -12.0690 -12.0679 -12.0650 -12.0624
   -12.0618 -12.0550 -12.0533 -12.0528 -12.0486 -12.0454 -12.0423 -12.0390
   -12.0336 -12.0333 -12.0303 -12.0279 -12.0251 -12.0208 -12.0193 -12.0164
   -12.0160 -12.0147 -12.0125 -12.0116 -12.0103 -12.0051 -12.0025 -12.0011
   -12.0005 -11.9940 -11.9934 -11.9886 -11.9885 -11.9778 -11.9753 -11.9746
   -11.9684 -11.9669 -11.9608 -11.9575 -11.9557 -11.9514 -11.9504 -11.9501
   -11.9414 -11.9397 -11.9386 -11.9337 -11.9305 -11.9285 -11.9260 -11.9245
   -11.9134 -11.9082 -11.8943 -11.8941 -11.8913 -11.8827 -11.8711 -11.8637
   -11.8501 -11.8401 -11.7922 -11.7849 -11.7448 -11.7409 -11.7244 -11.7152
   -11.6996 -11.6538 -11.6446 -11.6361 -11.6305 -11.6005 -11.5885 -11.5669
   -11.5584 -11.5111 -11.5030 -11.4898 -11.4788 -11.4527 -11.4417 -11.4338
   -11.4189 -11.4123 -11.3793 -11.3706 -11.3562 -11.3097 -11.3070 -11.2934
   -11.2913 -11.2098 -11.1878 -11.1761 -11.1608 -11.1552 -11.1331  -5.7755
    -5.7748  -5.6975  -5.6045  -5.6039  -5.5900  -5.5896  -5.5836  -5.5823
    -5.4986  -5.4504  -5.4482  -5.3952  -5.3952  -5.3793  -5.3276  -5.3103
    -5.3100  -5.2945  -5.2925  -5.2500  -5.2468  -5.1775  -5.1689  -5.0736
    -5.0278  -4.9873  -4.9465  -4.9236  -4.8689  -4.8636  -4.8172  -4.8000
    -4.7041  -4.6938  -4.6685  -4.6645  -4.6502  -4.6333  -4.6328  -4.5927
    -4.5826  -4.5784  -4.5416  -4.5359  -4.4945  -4.4752  -4.4289  -4.4020
    -4.3793  -4.3662  -4.3435  -4.3323  -4.2788  -4.2326  -4.2084  -4.1967
    -4.1720  -4.1127  -4.1038  -4.0562  -4.0443  -3.9725  -3.9412  -3.9376
    -3.8864  -3.8439  -3.8370  -3.7551  -3.7487  -3.7262  -3.7259  -3.6685
    -3.6604  -3.6171  -3.5890  -3.5888  -3.5828  -3.5722  -3.5223  -3.5045
    -3.4780  -3.4734  -3.4357  -3.4069  -3.3975  -3.3530  -3.3325  -3.2885
    -3.2822  -3.2758  -3.1994  -3.1916  -3.1653  -3.1125  -3.0968  -3.0882
    -3.0639  -3.0613  -3.0201  -3.0117  -2.9833  -2.9441  -2.9100  -2.8886
    -2.8451  -2.8425  -2.8311  -2.7982  -2.7820  -2.7651  -2.7309  -2.7029
    -2.7005  -2.6634  -2.6339  -2.6029  -2.5945  -2.5758  -2.5614  -2.5290
    -2.5079  -2.4849  -2.4624  -2.4541  -2.4390  -2.3937  -2.3741  -2.3661
    -2.3385  -2.3231  -2.3023  -2.2280  -2.2196  -2.1908  -2.1872  -2.1538
    -2.1151  -2.1041  -2.1035  -2.0979  -2.0733  -2.0686  -2.0195  -2.0168
    -1.9802  -1.9546  -1.9472  -1.9431  -1.9067  -1.9048  -1.8842  -1.8576
    -1.8469  -1.8394  -1.8293  -1.8114  -1.8108  -1.7999  -1.7976  -1.7669
    -1.7570  -1.7465  -1.7363  -1.7356  -1.7036  -1.6913  -1.6897  -1.6878
    -1.6689  -1.6554  -1.6462  -1.6276  -1.6211  -1.5799  -1.5786  -1.5669
    -1.5520  -1.5451  -1.5309  -1.5296  -1.4996  -1.4763  -1.4666  -1.4625
    -1.4591  -1.4140  -1.3984  -1.3834  -1.3781  -1.3524  -1.3347  -1.3222
    -1.3091  -1.2845  -1.2591  -1.2354  -1.2300  -1.2151  -1.1997  -1.1926
    -1.1838  -1.1577  -1.1148  -1.0492  -1.0437  -1.0238  -1.0213  -1.0075
    -1.0006  -0.9979  -0.9787  -0.9433  -0.9160  -0.9120  -0.8985  -0.8822
    -0.8763  -0.8604  -0.8374  -0.8348  -0.8261  -0.8005  -0.7997  -0.7785
    -0.7608  -0.7577  -0.7190  -0.7077  -0.6891  -0.6563  -0.6534  -0.6278
    -0.6231  -0.6061  -0.5900  -0.5763  -0.5669  -0.5640  -0.5403  -0.5234
    -0.5227  -0.5146  -0.5029  -0.4938  -0.4749  -0.4676  -0.4645  -0.4606
    -0.4603  -0.4441  -0.4324  -0.4155  -0.4142  -0.4033  -0.3924  -0.3903
    -0.3801  -0.3787  -0.3661  -0.3587  -0.3512  -0.3437  -0.3306  -0.3143
    -0.3104  -0.2982  -0.2884  -0.2759  -0.2756  -0.2340  -0.2256  -0.2095
    -0.2058  -0.1970  -0.1917  -0.1911  -0.1760  -0.1749  -0.1450  -0.1433
    -0.1309  -0.1056  -0.1005  -0.0021   0.0017   0.0035   0.0084   1.1311
     1.8760   2.3710   2.4418   2.7936   3.1858   3.5235   3.7534   3.8223
     3.8660   3.9704   4.1481   4.1902   4.2395

          k = 0.0000 0.3336 0.0000 (327620 PWs)   bands (ev):

   -74.8652 -39.0884 -39.0520 -38.9862 -18.1590 -18.1588 -18.1156 -18.0905
   -18.0905 -18.0552 -18.0552 -18.0172 -18.0172 -17.8063 -17.8063 -17.7648
   -17.7648 -17.7541 -17.7541 -17.7112 -17.7112 -17.6839 -17.6839 -17.6706
   -17.6706 -17.6074 -17.6074 -17.6025 -17.6025 -17.4760 -17.3740 -17.3617
   -17.2759 -17.2691 -17.2323 -17.1591 -17.1281 -17.0916 -17.0902 -17.0398
   -17.0329 -17.0097 -16.9875 -16.9695 -16.9684 -16.9422 -16.9273 -16.9217
   -16.8956 -16.8717 -16.8688 -16.8417 -16.8380 -16.8247 -16.8227 -16.8148
   -16.8010 -16.7982 -16.7749 -16.7665 -16.7562 -16.7234 -16.7133 -16.7039
   -16.6955 -16.6903 -16.6784 -16.6773 -16.6537 -16.6527 -16.6394 -16.6320
   -16.6222 -16.6177 -16.6090 -16.6064 -16.5958 -16.5861 -16.5738 -16.5665
   -16.5462 -16.5369 -16.5248 -16.5148 -16.5033 -16.5013 -16.4774 -16.4732
   -16.4392 -16.4306 -16.4215 -16.4210 -16.4172 -16.4092 -16.4085 -16.3992
   -16.3089 -16.3088 -16.2816 -16.2800 -12.6510 -12.6376 -12.6342 -12.6259
   -12.6223 -12.6123 -12.6087 -12.6021 -12.6020 -12.5947 -12.5863 -12.5859
   -12.5822 -12.5759 -12.5714 -12.5667 -12.5637 -12.5595 -12.5556 -12.5486
   -12.5412 -12.5408 -12.5354 -12.5301 -12.5296 -12.5212 -12.5196 -12.5132
   -12.5122 -12.5088 -12.5054 -12.4954 -12.4937 -12.4888 -12.4844 -12.4771
   -12.4734 -12.4685 -12.4668 -12.4605 -12.4580 -12.4530 -12.4514 -12.4505
   -12.4445 -12.4444 -12.4396 -12.4342 -12.4240 -12.4142 -12.4140 -12.4089
   -12.4011 -12.3951 -12.3927 -12.3915 -12.3874 -12.3823 -12.3770 -12.3719
   -12.3618 -12.3569 -12.3563 -12.3473 -12.3429 -12.3425 -12.3370 -12.3342
   -12.3318 -12.3264 -12.3211 -12.3203 -12.3159 -12.3143 -12.3121 -12.3119
   -12.3058 -12.3039 -12.3004 -12.2995 -12.2969 -12.2960 -12.2928 -12.2904
   -12.2872 -12.2864 -12.2832 -12.2822 -12.2782 -12.2712 -12.2703 -12.2675
   -12.2656 -12.2639 -12.2622 -12.2592 -12.2559 -12.2535 -12.2507 -12.2477
   -12.2444 -12.2443 -12.2375 -12.2373 -12.2360 -12.2339 -12.2332 -12.2295
   -12.2277 -12.2247 -12.2217 -12.2192 -12.2188 -12.2162 -12.2126 -12.2107
   -12.2088 -12.2068 -12.2046 -12.2017 -12.2008 -12.1978 -12.1957 -12.1931
   -12.1913 -12.1895 -12.1869 -12.1863 -12.1844 -12.1837 -12.1826 -12.1789
   -12.1783 -12.1742 -12.1739 -12.1704 -12.1692 -12.1673 -12.1660 -12.1634
   -12.1620 -12.1618 -12.1582 -12.1563 -12.1504 -12.1491 -12.1468 -12.1413
   -12.1357 -12.1343 -12.1311 -12.1302 -12.1273 -12.1255 -12.1247 -12.1247
   -12.1190 -12.1174 -12.1139 -12.1137 -12.1102 -12.1089 -12.1080 -12.1064
   -12.1026 -12.1020 -12.0998 -12.0996 -12.0942 -12.0931 -12.0902 -12.0881
   -12.0857 -12.0799 -12.0778 -12.0766 -12.0741 -12.0725 -12.0699 -12.0656
   -12.0637 -12.0568 -12.0554 -12.0527 -12.0503 -12.0476 -12.0409 -12.0409
   -12.0365 -12.0355 -12.0286 -12.0280 -12.0224 -12.0185 -12.0182 -12.0158
   -12.0132 -12.0110 -12.0068 -12.0047 -12.0014 -12.0003 -11.9985 -11.9939
   -11.9926 -11.9886 -11.9862 -11.9838 -11.9808 -11.9797 -11.9766 -11.9755
   -11.9704 -11.9691 -11.9646 -11.9622 -11.9578 -11.9575 -11.9554 -11.9533
   -11.9472 -11.9453 -11.9445 -11.9404 -11.9338 -11.9302 -11.9283 -11.9281
   -11.9196 -11.9109 -11.8949 -11.8846 -11.8831 -11.8639 -11.8568 -11.8454
   -11.8405 -11.8140 -11.8060 -11.7871 -11.7786 -11.7498 -11.7443 -11.7096
   -11.6959 -11.6629 -11.6623 -11.6114 -11.5992 -11.5711 -11.5548 -11.5320
   -11.5253 -11.5138 -11.5097 -11.4803 -11.4760 -11.4667 -11.4586 -11.4408
   -11.4259 -11.4147 -11.4032 -11.3832 -11.3588 -11.3351 -11.3225 -11.2509
   -11.2474 -11.2124 -11.2013 -11.1915 -11.1791 -11.1657 -11.1553  -5.7513
    -5.7490  -5.6945  -5.6782  -5.6555  -5.5973  -5.5972  -5.5874  -5.5862
    -5.5182  -5.4588  -5.4368  -5.4188  -5.4124  -5.3627  -5.3308  -5.2461
    -5.2456  -5.2386  -5.2325  -5.2091  -5.1563  -5.1206  -5.0603  -5.0591
    -5.0488  -4.9626  -4.9492  -4.9048  -4.8454  -4.8342  -4.8233  -4.8057
    -4.7974  -4.7653  -4.7315  -4.7277  -4.6850  -4.6757  -4.6497  -4.6403
    -4.6177  -4.5901  -4.5360  -4.5183  -4.5029  -4.4820  -4.4455  -4.4256
    -4.4028  -4.4000  -4.3859  -4.3412  -4.3411  -4.2932  -4.2792  -4.2695
    -4.2401  -4.2259  -4.1855  -4.1062  -4.1029  -3.9715  -3.9028  -3.8989
    -3.8548  -3.8120  -3.7647  -3.7605  -3.7375  -3.7079  -3.7006  -3.6626
    -3.6624  -3.6562  -3.6447  -3.5916  -3.5527  -3.5470  -3.5070  -3.4610
    -3.4325  -3.4201  -3.3950  -3.3400  -3.3171  -3.2943  -3.2880  -3.2505
    -3.2043  -3.1906  -3.1639  -3.1395  -3.1007  -3.0991  -3.0717  -3.0592
    -3.0256  -3.0053  -2.9908  -2.9832  -2.9544  -2.9058  -2.8958  -2.8791
    -2.8419  -2.8404  -2.7894  -2.7844  -2.7509  -2.7245  -2.7100  -2.6746
    -2.6455  -2.6336  -2.6203  -2.5836  -2.5801  -2.5632  -2.5457  -2.5115
    -2.4752  -2.4740  -2.4551  -2.4105  -2.3983  -2.3659  -2.3410  -2.3375
    -2.3354  -2.3113  -2.3074  -2.2931  -2.2687  -2.2537  -2.2497  -2.2163
    -2.2027  -2.1871  -2.1701  -2.1508  -2.1439  -2.1000  -2.0963  -2.0829
    -2.0572  -2.0548  -2.0374  -2.0308  -1.9938  -1.9805  -1.9548  -1.9234
    -1.9040  -1.8850  -1.8734  -1.8674  -1.8565  -1.8291  -1.8151  -1.7856
    -1.7825  -1.7526  -1.7283  -1.7179  -1.6996  -1.6984  -1.6754  -1.6692
    -1.6587  -1.6576  -1.6133  -1.5955  -1.5767  -1.5696  -1.5319  -1.5104
    -1.5095  -1.4950  -1.4777  -1.4541  -1.4391  -1.4376  -1.4188  -1.4181
    -1.4006  -1.3954  -1.3526  -1.3353  -1.3296  -1.3182  -1.3030  -1.2846
    -1.2794  -1.2599  -1.2533  -1.2154  -1.2101  -1.1848  -1.1739  -1.1495
    -1.1408  -1.1042  -1.0979  -1.0802  -1.0790  -1.0490  -1.0264  -1.0165
    -0.9947  -0.9833  -0.9660  -0.9644  -0.9388  -0.9284  -0.9059  -0.8948
    -0.8764  -0.8731  -0.8518  -0.8364  -0.8226  -0.8171  -0.7997  -0.7938
    -0.7805  -0.7699  -0.7515  -0.7431  -0.7261  -0.7177  -0.7053  -0.6826
    -0.6578  -0.6531  -0.6273  -0.6113  -0.5987  -0.5980  -0.5883  -0.5635
    -0.5581  -0.5462  -0.5419  -0.5256  -0.5252  -0.5065  -0.4904  -0.4685
    -0.4684  -0.4555  -0.4478  -0.4293  -0.4222  -0.4168  -0.3981  -0.3895
    -0.3890  -0.3793  -0.3656  -0.3545  -0.3514  -0.3270  -0.3256  -0.3054
    -0.3048  -0.2899  -0.2780  -0.2767  -0.2690  -0.2587  -0.2509  -0.2432
    -0.2356  -0.2159  -0.2156  -0.1572  -0.1382  -0.1320  -0.1217  -0.1145
    -0.1006  -0.0910  -0.0818  -0.0329  -0.0291  -0.0218  -0.0185   1.6730
     2.3061   2.3842   2.4313   2.8736   3.0808   3.0948   3.3632   3.7515
     3.7896   4.0026   4.1059   4.2773   4.2966

          k = 0.3333 0.0000 0.0000 (327628 PWs)   bands (ev):

   -74.8652 -39.0884 -39.0520 -38.9862 -18.1633 -18.1632 -18.1154 -18.1063
   -18.1063 -18.0328 -18.0328 -18.0056 -18.0056 -17.8253 -17.8253 -17.7932
   -17.7932 -17.7279 -17.7279 -17.6910 -17.6910 -17.6855 -17.6855 -17.6811
   -17.6811 -17.6073 -17.6073 -17.6025 -17.6025 -17.4569 -17.4268 -17.3502
   -17.2823 -17.2495 -17.2151 -17.1650 -17.1268 -17.0806 -17.0523 -17.0334
   -17.0307 -17.0101 -16.9942 -16.9816 -16.9692 -16.9622 -16.9390 -16.9206
   -16.9112 -16.8869 -16.8763 -16.8665 -16.8505 -16.8294 -16.8236 -16.8189
   -16.8041 -16.7879 -16.7732 -16.7603 -16.7558 -16.7073 -16.7064 -16.6964
   -16.6863 -16.6837 -16.6707 -16.6663 -16.6592 -16.6518 -16.6462 -16.6359
   -16.6170 -16.6147 -16.6112 -16.5990 -16.5952 -16.5749 -16.5666 -16.5624
   -16.5571 -16.5339 -16.5324 -16.5236 -16.4819 -16.4761 -16.4679 -16.4671
   -16.4540 -16.4493 -16.4417 -16.4330 -16.4219 -16.4162 -16.4052 -16.4000
   -16.3081 -16.3073 -16.2787 -16.2766 -12.6488 -12.6424 -12.6384 -12.6291
   -12.6242 -12.6141 -12.6100 -12.5999 -12.5985 -12.5941 -12.5888 -12.5857
   -12.5830 -12.5771 -12.5719 -12.5638 -12.5604 -12.5565 -12.5507 -12.5451
   -12.5419 -12.5391 -12.5336 -12.5328 -12.5296 -12.5260 -12.5172 -12.5136
   -12.5112 -12.5086 -12.5029 -12.5000 -12.4946 -12.4877 -12.4810 -12.4778
   -12.4730 -12.4707 -12.4692 -12.4650 -12.4577 -12.4564 -12.4543 -12.4529
   -12.4461 -12.4416 -12.4352 -12.4291 -12.4251 -12.4195 -12.4094 -12.4068
   -12.4038 -12.4016 -12.3973 -12.3964 -12.3903 -12.3744 -12.3736 -12.3692
   -12.3659 -12.3593 -12.3540 -12.3497 -12.3401 -12.3396 -12.3359 -12.3309
   -12.3289 -12.3228 -12.3220 -12.3186 -12.3130 -12.3118 -12.3092 -12.3075
   -12.3051 -12.3015 -12.2966 -12.2947 -12.2941 -12.2926 -12.2904 -12.2875
   -12.2846 -12.2844 -12.2784 -12.2776 -12.2756 -12.2735 -12.2712 -12.2702
   -12.2670 -12.2656 -12.2649 -12.2628 -12.2593 -12.2574 -12.2537 -12.2501
   -12.2472 -12.2463 -12.2436 -12.2430 -12.2391 -12.2357 -12.2349 -12.2317
   -12.2310 -12.2291 -12.2238 -12.2200 -12.2174 -12.2158 -12.2145 -12.2141
   -12.2137 -12.2117 -12.2089 -12.2036 -12.2025 -12.2009 -12.1964 -12.1957
   -12.1932 -12.1899 -12.1884 -12.1865 -12.1850 -12.1829 -12.1799 -12.1789
   -12.1773 -12.1743 -12.1718 -12.1716 -12.1682 -12.1657 -12.1635 -12.1596
   -12.1573 -12.1549 -12.1531 -12.1515 -12.1481 -12.1454 -12.1429 -12.1413
   -12.1394 -12.1374 -12.1345 -12.1327 -12.1287 -12.1280 -12.1257 -12.1234
   -12.1188 -12.1178 -12.1171 -12.1145 -12.1134 -12.1094 -12.1056 -12.1012
   -12.0987 -12.0964 -12.0955 -12.0929 -12.0924 -12.0909 -12.0887 -12.0882
   -12.0869 -12.0828 -12.0779 -12.0753 -12.0722 -12.0708 -12.0652 -12.0629
   -12.0589 -12.0546 -12.0526 -12.0503 -12.0480 -12.0478 -12.0406 -12.0397
   -12.0379 -12.0360 -12.0336 -12.0276 -12.0256 -12.0241 -12.0201 -12.0161
   -12.0130 -12.0100 -12.0038 -12.0011 -11.9994 -11.9961 -11.9945 -11.9906
   -11.9880 -11.9849 -11.9830 -11.9820 -11.9814 -11.9775 -11.9770 -11.9748
   -11.9728 -11.9697 -11.9685 -11.9655 -11.9601 -11.9574 -11.9538 -11.9526
   -11.9468 -11.9463 -11.9431 -11.9425 -11.9355 -11.9324 -11.9245 -11.9216
   -11.9094 -11.9063 -11.9028 -11.8837 -11.8805 -11.8693 -11.8564 -11.8441
   -11.8401 -11.8300 -11.8199 -11.8142 -11.8023 -11.7490 -11.7450 -11.7152
   -11.6970 -11.6826 -11.6340 -11.6233 -11.5991 -11.5888 -11.5673 -11.5435
   -11.5330 -11.5182 -11.5074 -11.4931 -11.4842 -11.4681 -11.4454 -11.4281
   -11.3982 -11.3858 -11.3695 -11.3486 -11.3386 -11.3298 -11.3103 -11.2636
   -11.2612 -11.2271 -11.2156 -11.1892 -11.1868 -11.1768 -11.1647  -5.7446
    -5.7412  -5.6849  -5.6566  -5.6429  -5.6021  -5.6000  -5.5850  -5.5806
    -5.4682  -5.4625  -5.4541  -5.4265  -5.4211  -5.3677  -5.3009  -5.2781
    -5.2502  -5.2483  -5.2421  -5.2302  -5.1941  -5.0967  -5.0554  -4.9991
    -4.9811  -4.9728  -4.9555  -4.9410  -4.9135  -4.8888  -4.8747  -4.8517
    -4.7781  -4.7441  -4.7313  -4.7066  -4.6870  -4.6614  -4.6530  -4.6301
    -4.5993  -4.5912  -4.5813  -4.5569  -4.5172  -4.5092  -4.4950  -4.4532
    -4.4348  -4.3783  -4.3478  -4.3211  -4.3072  -4.2734  -4.2215  -4.1842
    -4.1477  -4.1283  -4.0915  -4.0562  -4.0198  -4.0034  -3.9877  -3.9650
    -3.9601  -3.9283  -3.8824  -3.8583  -3.8108  -3.7735  -3.7364  -3.6638
    -3.6395  -3.5908  -3.5743  -3.5465  -3.5188  -3.5155  -3.4725  -3.4560
    -3.4387  -3.4121  -3.3634  -3.3550  -3.3194  -3.3125  -3.2732  -3.2613
    -3.2347  -3.2167  -3.1737  -3.1513  -3.1103  -3.0911  -3.0615  -3.0215
    -3.0068  -2.9927  -2.9612  -2.9483  -2.9157  -2.9042  -2.8933  -2.8606
    -2.8483  -2.8329  -2.7908  -2.7720  -2.7479  -2.7372  -2.7120  -2.6610
    -2.6534  -2.6442  -2.6292  -2.6111  -2.5703  -2.5629  -2.5499  -2.5271
    -2.5135  -2.5028  -2.4833  -2.4463  -2.4289  -2.4164  -2.3856  -2.3759
    -2.3672  -2.3260  -2.3086  -2.2924  -2.2817  -2.2328  -2.2285  -2.2101
    -2.1915  -2.1336  -2.1110  -2.0991  -2.0832  -2.0656  -2.0469  -2.0371
    -2.0185  -2.0037  -1.9756  -1.9626  -1.9424  -1.9270  -1.9173  -1.9126
    -1.8902  -1.8737  -1.8614  -1.8536  -1.8279  -1.8085  -1.8062  -1.7802
    -1.7601  -1.7550  -1.7457  -1.7263  -1.7134  -1.6993  -1.6900  -1.6711
    -1.6589  -1.6454  -1.6222  -1.6098  -1.5859  -1.5829  -1.5708  -1.5557
    -1.5370  -1.5294  -1.5149  -1.4971  -1.4855  -1.4633  -1.4584  -1.4516
    -1.4293  -1.4001  -1.3900  -1.3854  -1.3534  -1.3390  -1.3295  -1.3115
    -1.2822  -1.2760  -1.2483  -1.2189  -1.2158  -1.1974  -1.1831  -1.1491
    -1.1238  -1.1182  -1.0943  -1.0886  -1.0780  -1.0609  -1.0442  -1.0389
    -1.0171  -1.0069  -0.9828  -0.9644  -0.9423  -0.9247  -0.9038  -0.8952
    -0.8872  -0.8660  -0.8414  -0.8374  -0.8335  -0.7873  -0.7856  -0.7713
    -0.7554  -0.7348  -0.7291  -0.7143  -0.7083  -0.6902  -0.6882  -0.6788
    -0.6609  -0.6423  -0.6166  -0.6144  -0.6084  -0.6045  -0.5875  -0.5649
    -0.5522  -0.5353  -0.5338  -0.5119  -0.4975  -0.4888  -0.4861  -0.4681
    -0.4575  -0.4500  -0.4425  -0.4339  -0.4301  -0.4265  -0.4102  -0.3987
    -0.3941  -0.3769  -0.3674  -0.3658  -0.3567  -0.3462  -0.3425  -0.3395
    -0.3160  -0.3022  -0.2951  -0.2919  -0.2645  -0.2565  -0.2438  -0.2391
    -0.2323  -0.2184  -0.1768  -0.1732  -0.1624  -0.1538  -0.1374  -0.0989
    -0.0965  -0.0782  -0.0753  -0.0121  -0.0112  -0.0029  -0.0003   1.6842
     2.2951   2.4054   2.4736   2.7815   3.0647   3.1797   3.3406   3.7290
     3.7938   3.9473   4.1058   4.2934   4.3215

          k = 0.3333 0.3336 0.0000 (327656 PWs)   bands (ev):

   -74.8652 -39.0884 -39.0520 -38.9862 -18.1378 -18.1377 -18.1129 -18.0865
   -18.0864 -18.0749 -18.0748 -18.0372 -18.0372 -17.7900 -17.7899 -17.7637
   -17.7634 -17.7428 -17.7427 -17.7128 -17.7126 -17.6859 -17.6852 -17.6805
   -17.6799 -17.6080 -17.6072 -17.6046 -17.6039 -17.4622 -17.4006 -17.3407
   -17.2784 -17.2675 -17.2217 -17.1781 -17.1581 -17.1138 -17.1064 -17.0729
   -17.0199 -17.0017 -16.9755 -16.9565 -16.9499 -16.9375 -16.9231 -16.9122
   -16.9031 -16.8758 -16.8618 -16.8520 -16.8361 -16.8312 -16.8136 -16.8043
   -16.7943 -16.7845 -16.7647 -16.7596 -16.7435 -16.7267 -16.7098 -16.7035
   -16.7000 -16.6847 -16.6774 -16.6681 -16.6631 -16.6506 -16.6425 -16.6355
   -16.6258 -16.6192 -16.6065 -16.5939 -16.5874 -16.5782 -16.5673 -16.5604
   -16.5491 -16.5371 -16.5322 -16.5155 -16.5041 -16.5006 -16.4858 -16.4799
   -16.4560 -16.4509 -16.4443 -16.4387 -16.4108 -16.4025 -16.4000 -16.3916
   -16.3021 -16.3018 -16.2857 -16.2847 -12.6513 -12.6415 -12.6366 -12.6298
   -12.6248 -12.6143 -12.6088 -12.5995 -12.5970 -12.5956 -12.5881 -12.5842
   -12.5819 -12.5753 -12.5723 -12.5711 -12.5639 -12.5605 -12.5514 -12.5454
   -12.5414 -12.5380 -12.5352 -12.5288 -12.5267 -12.5208 -12.5167 -12.5158
   -12.5131 -12.5078 -12.5031 -12.4970 -12.4950 -12.4891 -12.4834 -12.4796
   -12.4761 -12.4709 -12.4700 -12.4689 -12.4619 -12.4598 -12.4561 -12.4513
   -12.4440 -12.4407 -12.4332 -12.4267 -12.4240 -12.4198 -12.4133 -12.4083
   -12.4017 -12.3988 -12.3938 -12.3901 -12.3834 -12.3791 -12.3758 -12.3693
   -12.3640 -12.3591 -12.3568 -12.3528 -12.3492 -12.3427 -12.3389 -12.3343
   -12.3305 -12.3257 -12.3217 -12.3195 -12.3184 -12.3161 -12.3126 -12.3059
   -12.3039 -12.3011 -12.2992 -12.2971 -12.2948 -12.2928 -12.2914 -12.2870
   -12.2854 -12.2845 -12.2819 -12.2797 -12.2760 -12.2735 -12.2712 -12.2697
   -12.2672 -12.2657 -12.2646 -12.2597 -12.2567 -12.2527 -12.2521 -12.2483
   -12.2468 -12.2440 -12.2401 -12.2365 -12.2356 -12.2341 -12.2320 -12.2293
   -12.2291 -12.2258 -12.2238 -12.2214 -12.2180 -12.2156 -12.2151 -12.2133
   -12.2101 -12.2088 -12.2053 -12.2047 -12.2009 -12.1989 -12.1980 -12.1957
   -12.1941 -12.1923 -12.1909 -12.1890 -12.1866 -12.1847 -12.1821 -12.1805
   -12.1792 -12.1772 -12.1753 -12.1731 -12.1690 -12.1669 -12.1659 -12.1624
   -12.1607 -12.1580 -12.1518 -12.1493 -12.1468 -12.1451 -12.1415 -12.1385
   -12.1356 -12.1337 -12.1315 -12.1298 -12.1278 -12.1245 -12.1230 -12.1204
   -12.1189 -12.1160 -12.1127 -12.1125 -12.1103 -12.1083 -12.1037 -12.1006
   -12.0989 -12.0979 -12.0954 -12.0932 -12.0904 -12.0894 -12.0876 -12.0858
   -12.0845 -12.0815 -12.0777 -12.0752 -12.0704 -12.0686 -12.0656 -12.0630
   -12.0608 -12.0569 -12.0535 -12.0485 -12.0468 -12.0417 -12.0403 -12.0358
   -12.0330 -12.0296 -12.0270 -12.0232 -12.0200 -12.0172 -12.0150 -12.0110
   -12.0084 -12.0069 -12.0036 -12.0015 -11.9988 -11.9971 -11.9949 -11.9935
   -11.9920 -11.9895 -11.9860 -11.9834 -11.9800 -11.9774 -11.9760 -11.9725
   -11.9707 -11.9683 -11.9645 -11.9620 -11.9602 -11.9576 -11.9557 -11.9540
   -11.9504 -11.9479 -11.9446 -11.9399 -11.9332 -11.9289 -11.9252 -11.9195
   -11.9159 -11.8982 -11.8903 -11.8798 -11.8726 -11.8681 -11.8543 -11.8476
   -11.8398 -11.8293 -11.8160 -11.8057 -11.7938 -11.7826 -11.7793 -11.7671
   -11.7275 -11.7012 -11.6889 -11.6621 -11.6296 -11.5721 -11.5537 -11.5316
   -11.5161 -11.5006 -11.4963 -11.4837 -11.4581 -11.4500 -11.4218 -11.3921
   -11.3835 -11.3726 -11.3504 -11.3381 -11.3291 -11.3041 -11.2936 -11.2766
   -11.2728 -11.2410 -11.2357 -11.2176 -11.2044 -11.2002 -11.1847  -5.7288
    -5.7252  -5.6929  -5.6820  -5.6424  -5.6228  -5.6194  -5.6087  -5.6030
    -5.4901  -5.4436  -5.4331  -5.4215  -5.4125  -5.3699  -5.2984  -5.2234
    -5.2112  -5.2091  -5.2049  -5.1964  -5.1206  -5.0286  -5.0141  -4.9842
    -4.9724  -4.9564  -4.9392  -4.9007  -4.8842  -4.8630  -4.8465  -4.8156
    -4.8031  -4.7750  -4.7526  -4.7240  -4.6957  -4.6681  -4.6564  -4.6484
    -4.6305  -4.6214  -4.5954  -4.5799  -4.5682  -4.5482  -4.5341  -4.5045
    -4.4879  -4.4494  -4.4209  -4.3914  -4.3715  -4.3407  -4.2971  -4.2432
    -4.2329  -4.2128  -4.1514  -4.1190  -4.0940  -4.0736  -4.0447  -3.9964
    -3.9809  -3.9712  -3.9257  -3.8441  -3.7745  -3.7144  -3.6633  -3.6450
    -3.5875  -3.5675  -3.5256  -3.4863  -3.4669  -3.4488  -3.4214  -3.3738
    -3.3700  -3.3415  -3.3061  -3.2824  -3.2561  -3.2481  -3.2162  -3.2033
    -3.1893  -3.1376  -3.1057  -3.0908  -3.0584  -3.0398  -3.0200  -3.0121
    -2.9897  -2.9534  -2.9360  -2.9163  -2.8956  -2.8775  -2.8647  -2.8444
    -2.8310  -2.8033  -2.7791  -2.7730  -2.7343  -2.7208  -2.6915  -2.6812
    -2.6494  -2.6353  -2.6304  -2.5945  -2.5834  -2.5764  -2.5662  -2.5292
    -2.5036  -2.4918  -2.4737  -2.4533  -2.4408  -2.4215  -2.3972  -2.3915
    -2.3744  -2.3526  -2.3100  -2.2982  -2.2702  -2.2610  -2.2349  -2.2128
    -2.1941  -2.1704  -2.1558  -2.1413  -2.1358  -2.1123  -2.0851  -2.0802
    -2.0618  -2.0499  -2.0306  -2.0091  -1.9796  -1.9749  -1.9610  -1.9426
    -1.9267  -1.9112  -1.8960  -1.8821  -1.8528  -1.8435  -1.8286  -1.8088
    -1.7898  -1.7633  -1.7539  -1.7455  -1.7305  -1.7135  -1.6825  -1.6682
    -1.6578  -1.6355  -1.6290  -1.6123  -1.5875  -1.5610  -1.5347  -1.5215
    -1.5081  -1.4950  -1.4745  -1.4415  -1.4320  -1.4165  -1.3958  -1.3810
    -1.3748  -1.3622  -1.3413  -1.3304  -1.3188  -1.3056  -1.2883  -1.2751
    -1.2699  -1.2429  -1.2343  -1.2172  -1.1874  -1.1727  -1.1633  -1.1524
    -1.1438  -1.1131  -1.1025  -1.0889  -1.0691  -1.0568  -1.0474  -1.0320
    -1.0232  -1.0030  -0.9961  -0.9846  -0.9715  -0.9558  -0.9433  -0.9361
    -0.9234  -0.9101  -0.8875  -0.8752  -0.8498  -0.8466  -0.8298  -0.8180
    -0.8113  -0.7979  -0.7836  -0.7722  -0.7568  -0.7363  -0.7285  -0.7018
    -0.6821  -0.6750  -0.6590  -0.6482  -0.6323  -0.6290  -0.6073  -0.6010
    -0.5932  -0.5742  -0.5678  -0.5543  -0.5340  -0.5253  -0.5148  -0.5091
    -0.4850  -0.4675  -0.4605  -0.4515  -0.4432  -0.4212  -0.4056  -0.3949
    -0.3730  -0.3615  -0.3558  -0.3541  -0.3462  -0.3379  -0.3309  -0.3173
    -0.3076  -0.2984  -0.2852  -0.2727  -0.2622  -0.2476  -0.2331  -0.2069
    -0.1973  -0.1918  -0.1641  -0.1389  -0.1353  -0.1110  -0.1083  -0.0721
    -0.0664  -0.0604  -0.0561  -0.0235  -0.0228  -0.0016  -0.0003   2.0873
     2.4311   2.4837   2.6637   2.9366   3.1135   3.2417   3.3559   3.4889
     3.5615   3.7497   3.9543   3.9749   4.0412

     the Fermi energy is     2.3218 ev

!    total energy              =  -27385.19183461 Ry
     total all-electron energy =   -693758.154168 Ry
     estimated scf accuracy    <          1.4E-10 Ry
     smearing contrib. (-TS)   =      -0.00262709 Ry
     internal energy E=F+TS    =  -27385.18920752 Ry

     The total energy is F=E-TS. E is the sum of the following terms:
     one-electron contribution = -273206.78748869 Ry
     hartree contribution      =  137385.21848823 Ry
     xc contribution           =   -3323.09085276 Ry
     ewald contribution        =  128280.66283240 Ry
     one-center paw contrib.   =  -16521.19218671 Ry

     convergence has been achieved in  43 iterations

     negative rho (up, down):  2.816E-02 0.000E+00

     Forces acting on atoms (cartesian axes, Ry/au):

     atom    1 type  1   force =     0.00003022    0.00021331   -0.00071407
     atom    2 type  1   force =     0.00005084   -0.00006372   -0.00061360
     atom    3 type  1   force =    -0.00262968    0.00100064   -0.00161387
     atom    4 type  1   force =     0.00027191   -0.00008004   -0.00060841
     atom    5 type  1   force =     0.00062796    0.00233533   -0.00062517
     atom    6 type  1   force =     0.00006653   -0.00009782   -0.00047856
     atom    7 type  1   force =     0.00084530   -0.00005517   -0.00131700
     atom    8 type  1   force =    -0.00108120   -0.00021487   -0.00090805
     atom    9 type  1   force =     0.00072043    0.00053683    0.00092298
     atom   10 type  1   force =    -0.00045541   -0.00131690    0.00076201
     atom   11 type  1   force =     0.00006718   -0.00028200   -0.00014415
     atom   12 type  1   force =    -0.00003125   -0.00027764    0.00023986
     atom   13 type  2   force =    -0.00058144   -0.00046555   -0.00101996
     atom   14 type  2   force =     0.00048410    0.00055900   -0.00048429
     atom   15 type  2   force =    -0.00314791   -0.00115177    0.00086598
     atom   16 type  2   force =     0.00031134   -0.00148415    0.00072708
     atom   17 type  2   force =    -0.00010813   -0.00013325   -0.00095939
     atom   18 type  2   force =    -0.00007247   -0.00047339   -0.00076578
     atom   19 type  2   force =     0.00003488   -0.00025306   -0.00042971
     atom   20 type  2   force =    -0.00007455    0.00023136    0.00210392
     atom   21 type  2   force =     0.00001641   -0.00080937   -0.00051398
     atom   22 type  2   force =    -0.00027130    0.00128218   -0.00154720
     atom   23 type  2   force =     0.00029006   -0.00044735   -0.00064697
     atom   24 type  2   force =    -0.00127859   -0.00126226   -0.00092113
     atom   25 type  2   force =    -0.00032387   -0.00014022   -0.00037808
     atom   26 type  2   force =     0.00025855    0.00002530   -0.00022951
     atom   27 type  2   force =     0.00012405    0.00015332   -0.00391595
     atom   28 type  2   force =    -0.00692178    0.00806122   -0.00341796
     atom   29 type  2   force =    -0.00020596   -0.00024467   -0.00062179
     atom   30 type  2   force =     0.00011338   -0.00002094   -0.00071784
     atom   31 type  2   force =     0.00023594    0.00012432   -0.00078872
     atom   32 type  2   force =    -0.00008434    0.00000786   -0.00065845
     atom   33 type  2   force =    -0.00028258   -0.00027701   -0.00034838
     atom   34 type  2   force =    -0.00835827   -0.00035976    0.00091068
     atom   35 type  2   force =     0.00035473   -0.00063084   -0.00058249
     atom   36 type  2   force =     0.00143208   -0.00135855   -0.00142660
     atom   37 type  1   force =     0.00161099    0.00125420    0.00022379
     atom   38 type  1   force =     0.00223737   -0.00001691   -0.00093248
     atom   39 type  1   force =     0.00000051   -0.00012635   -0.00006333
     atom   40 type  1   force =    -0.00341126    0.00069981    0.00263580
     atom   41 type  1   force =     0.00002408   -0.00003124   -0.00029975
     atom   42 type  1   force =     0.00110956    0.00201031    0.00113760
     atom   43 type  1   force =    -0.00102215    0.00082162    0.00406799
     atom   44 type  1   force =     0.00091161    0.00008767   -0.00099243
     atom   45 type  1   force =    -0.00033781    0.00026574   -0.00052151
     atom   46 type  1   force =     0.00132144   -0.00106567   -0.00120763
     atom   47 type  1   force =     0.00032069   -0.00036396   -0.00118783
     atom   48 type  1   force =     0.00037064    0.00095387    0.00144566
     atom   49 type  1   force =    -0.00164251    0.00175484   -0.00071611
     atom   50 type  1   force =    -0.00149346   -0.00099341    0.00249371
     atom   51 type  2   force =    -0.00006245   -0.00187364   -0.00103353
     atom   52 type  2   force =     0.00520362   -0.00097143   -0.00116311
     atom   53 type  2   force =    -0.00012620    0.00021859   -0.00026266
     atom   54 type  2   force =     0.00030754   -0.00014110   -0.00034564
     atom   55 type  2   force =    -0.00031331    0.00199243    0.00170736
     atom   56 type  2   force =    -0.00136813   -0.01367119    0.00398743
     atom   57 type  2   force =     0.00117054    0.00005198   -0.00105431
     atom   58 type  2   force =     0.00132161    0.00134085    0.00079627
     atom   59 type  2   force =     0.00202540   -0.00135644    0.00060327
     atom   60 type  2   force =    -0.00023218    0.00023558   -0.00002617
     atom   61 type  2   force =     0.00037120    0.00122163    0.00299460
     atom   62 type  2   force =    -0.00057537    0.00067655   -0.00034951
     atom   63 type  2   force =     0.00071023   -0.00000558    0.00343442
     atom   64 type  2   force =     0.00094878    0.00065503   -0.00106391
     atom   65 type  2   force =    -0.00028452    0.00045331    0.00035089
     atom   66 type  2   force =     0.00061402   -0.00049113   -0.00128596
     atom   67 type  2   force =    -0.00096969    0.00711573    0.00064151
     atom   68 type  2   force =    -0.00054789    0.00290573   -0.00039607
     atom   69 type  2   force =     0.00707901   -0.00167036    0.00259693
     atom   70 type  2   force =    -0.00233656    0.00110353   -0.00100606
     atom   71 type  2   force =     0.00212176   -0.00060910   -0.00207229
     atom   72 type  2   force =    -0.00032242    0.00110112   -0.00031183
     atom   73 type  2   force =     0.00037768   -0.00401084   -0.00042100
     atom   74 type  2   force =     0.00007300    0.00035779   -0.00027632
     atom   75 type  1   force =     0.00262968    0.00100064    0.00161387
     atom   76 type  1   force =     0.00341126    0.00069981   -0.00263580
     atom   77 type  1   force =    -0.00003022    0.00021331    0.00071407
     atom   78 type  1   force =    -0.00223737   -0.00001691    0.00093248
     atom   79 type  1   force =    -0.00006653   -0.00009782    0.00047856
     atom   80 type  1   force =    -0.00062796    0.00233533    0.00062517
     atom   81 type  1   force =    -0.00084530   -0.00005517    0.00131700
     atom   82 type  1   force =     0.00108120   -0.00021487    0.00090805
     atom   83 type  1   force =    -0.00091161    0.00008767    0.00099243
     atom   84 type  1   force =     0.00102215    0.00082162   -0.00406799
     atom   85 type  1   force =    -0.00006718   -0.00028200    0.00014415
     atom   86 type  1   force =     0.00045541   -0.00131690   -0.00076201
     atom   87 type  3   force =     0.00000000   -0.00589284    0.00000000
     atom   88 type  1   force =     0.00000000   -0.00131409    0.00000000
     atom   89 type  1   force =     0.00149346   -0.00099341   -0.00249371
     atom   90 type  1   force =     0.00164251    0.00175484    0.00071611
     atom   91 type  2   force =     0.00314791   -0.00115177   -0.00086598
     atom   92 type  2   force =    -0.00031134   -0.00148415   -0.00072708
     atom   93 type  2   force =     0.00058144   -0.00046555    0.00101996
     atom   94 type  2   force =    -0.00048410    0.00055900    0.00048429
     atom   95 type  2   force =    -0.00132161    0.00134085   -0.00079627
     atom   96 type  2   force =    -0.00117054    0.00005198    0.00105431
     atom   97 type  2   force =     0.00136813   -0.01367119   -0.00398743
     atom   98 type  2   force =     0.00031331    0.00199243   -0.00170736
     atom   99 type  2   force =     0.00027130    0.00128218    0.00154720
     atom  100 type  2   force =    -0.00001641   -0.00080937    0.00051398
     atom  101 type  2   force =     0.00127859   -0.00126226    0.00092113
     atom  102 type  2   force =    -0.00029006   -0.00044735    0.00064697
     atom  103 type  2   force =    -0.00012405    0.00015332    0.00391595
     atom  104 type  2   force =     0.00692178    0.00806122    0.00341796
     atom  105 type  2   force =     0.00032387   -0.00014022    0.00037808
     atom  106 type  2   force =    -0.00025855    0.00002530    0.00022951
     atom  107 type  2   force =     0.00233656    0.00110353    0.00100606
     atom  108 type  2   force =    -0.00707901   -0.00167036   -0.00259693
     atom  109 type  2   force =     0.00054789    0.00290573    0.00039607
     atom  110 type  2   force =     0.00096969    0.00711573   -0.00064151
     atom  111 type  2   force =     0.00835827   -0.00035976   -0.00091068
     atom  112 type  2   force =     0.00028258   -0.00027701    0.00034838
     atom  113 type  2   force =    -0.00143208   -0.00135855    0.00142660
     atom  114 type  2   force =    -0.00035473   -0.00063084    0.00058249
     atom  115 type  1   force =    -0.00000051   -0.00012635    0.00006333
     atom  116 type  1   force =    -0.00027191   -0.00008004    0.00060841
     atom  117 type  1   force =    -0.00161099    0.00125420   -0.00022379
     atom  118 type  1   force =    -0.00005084   -0.00006372    0.00061360
     atom  119 type  1   force =    -0.00110956    0.00201031   -0.00113760
     atom  120 type  1   force =    -0.00002408   -0.00003124    0.00029975
     atom  121 type  1   force =     0.00000000    0.00222352    0.00000000
     atom  122 type  1   force =     0.00000000   -0.00026360    0.00000000
     atom  123 type  1   force =    -0.00072043    0.00053683   -0.00092298
     atom  124 type  1   force =    -0.00132144   -0.00106567    0.00120763
     atom  125 type  1   force =     0.00033781    0.00026574    0.00052151
     atom  126 type  1   force =    -0.00032069   -0.00036396    0.00118783
     atom  127 type  1   force =    -0.00037064    0.00095387   -0.00144566
     atom  128 type  1   force =     0.00003125   -0.00027764   -0.00023986
     atom  129 type  2   force =     0.00012620    0.00021859    0.00026266
     atom  130 type  2   force =    -0.00030754   -0.00014110    0.00034564
     atom  131 type  2   force =     0.00006245   -0.00187364    0.00103353
     atom  132 type  2   force =    -0.00520362   -0.00097143    0.00116311
     atom  133 type  2   force =     0.00007455    0.00023136   -0.00210392
     atom  134 type  2   force =    -0.00003488   -0.00025306    0.00042971
     atom  135 type  2   force =     0.00007247   -0.00047339    0.00076578
     atom  136 type  2   force =     0.00010813   -0.00013325    0.00095939
     atom  137 type  2   force =     0.00023218    0.00023558    0.00002617
     atom  138 type  2   force =    -0.00202540   -0.00135644   -0.00060327
     atom  139 type  2   force =     0.00057537    0.00067655    0.00034951
     atom  140 type  2   force =    -0.00037120    0.00122163   -0.00299460
     atom  141 type  2   force =     0.00028452    0.00045331   -0.00035089
     atom  142 type  2   force =    -0.00061402   -0.00049113    0.00128596
     atom  143 type  2   force =    -0.00071023   -0.00000558   -0.00343442
     atom  144 type  2   force =    -0.00094878    0.00065503    0.00106391
     atom  145 type  2   force =     0.00008434    0.00000786    0.00065845
     atom  146 type  2   force =    -0.00023594    0.00012432    0.00078872
     atom  147 type  2   force =    -0.00011338   -0.00002094    0.00071784
     atom  148 type  2   force =     0.00020596   -0.00024467    0.00062179
     atom  149 type  2   force =     0.00032242    0.00110112    0.00031183
     atom  150 type  2   force =    -0.00212176   -0.00060910    0.00207229
     atom  151 type  2   force =    -0.00007300    0.00035779    0.00027632
     atom  152 type  2   force =    -0.00037768   -0.00401084    0.00042100
     atom  153 type  4   force =     0.00012875   -0.00019691   -0.00027773
     atom  154 type  4   force =    -0.00007460    0.00009607   -0.00033669
     atom  155 type  4   force =     0.00025556   -0.00056019   -0.00044889
     atom  156 type  4   force =    -0.00025052   -0.00011853   -0.00043909
     atom  157 type  4   force =     0.00028348    0.00016322   -0.00040557
     atom  158 type  4   force =    -0.00010479   -0.00013813   -0.00031252
     atom  159 type  4   force =     0.00014357    0.00012877   -0.00029721
     atom  160 type  4   force =    -0.00035483   -0.00053182   -0.00026267
     atom  161 type  4   force =    -0.00019400    0.00023947   -0.00040748
     atom  162 type  4   force =     0.00028972   -0.00014694   -0.00043892
     atom  163 type  4   force =    -0.00043085    0.00057177   -0.00006340
     atom  164 type  4   force =     0.00024829    0.00060678   -0.00026218
     atom  165 type  4   force =    -0.00025556   -0.00056019    0.00044889
     atom  166 type  4   force =     0.00025052   -0.00011853    0.00043909
     atom  167 type  4   force =    -0.00028348    0.00016322    0.00040557
     atom  168 type  4   force =     0.00035483   -0.00053182    0.00026267
     atom  169 type  4   force =     0.00019400    0.00023947    0.00040748
     atom  170 type  4   force =    -0.00028972   -0.00014694    0.00043892
     atom  171 type  4   force =     0.00007460    0.00009607    0.00033669
     atom  172 type  4   force =    -0.00012875   -0.00019691    0.00027773
     atom  173 type  4   force =     0.00043085    0.00057177    0.00006340
     atom  174 type  4   force =    -0.00014357    0.00012877    0.00029721
     atom  175 type  4   force =     0.00010479   -0.00013813    0.00031252
     atom  176 type  4   force =    -0.00024829    0.00060678    0.00026218

     Total force =     0.040750     Total SCF correction =     0.000044


     Computing stress (Cartesian axis) and pressure


     negative rho (up, down):  2.816E-02 0.000E+00
          total   stress  (Ry/bohr**3)                   (kbar)     P=        2.81
   0.00002212   0.00000000  -0.00000036            3.25        0.00       -0.05
   0.00000000   0.00002504   0.00000000            0.00        3.68        0.00
  -0.00000036   0.00000000   0.00001010           -0.05        0.00        1.49

     Energy error            =      2.7E-03 Ry
     Gradient error          =      1.4E-02 Ry/Bohr

     number of scf cycles    =   7
     number of bfgs steps    =   6

     energy             old  =  -27385.1891078565 Ry
     energy             new  =  -27385.1918346085 Ry

     CASE: energy            _new < energy            _old


     WARNING: bfgs curvature condition failed, Theta= 0.982
     new trust radius        =       0.0280107433 bohr
     new conv_thr            =       0.0000000001 Ry


ATOMIC_POSITIONS (crystal)
In               0.2475747419        0.2527645819        0.3284911588
In               0.7524205500        0.2474033107        0.3284776885
In               0.2496742289        0.2510385486        0.4424773997
In               0.2524074497        0.7525062023        0.3285005658
In               0.4661213163        0.5009900603        0.4425206031
In               0.0359882048        0.5024794067        0.3287795905
In               0.7513497919        0.4657922783        0.3852946470
In               0.2484625249        0.0342171809        0.3853610429
In               0.4996729562        0.7496065845        0.3780745555
In               0.0361012843       -0.0029146061        0.4424397132
In               0.4640055746        0.0024204373        0.3287624293
In               0.0002542687        0.2499842818        0.3779842550
O                0.3888587410        0.1563286353        0.3583847005
O                0.6111793512        0.3435626034        0.3584274640
O                0.1081738649        0.1542768319        0.4133248493
O                0.8903758267        0.3441214986        0.4131365754
O                0.3811329283        0.3937736183        0.3068326557
O                0.3837589893        0.6102519559        0.3508456863
O                0.6188547648        0.1060709382        0.3068733679
O                0.6161221747        0.8895395483        0.3511714163
O                0.1548332477        0.3829779865        0.3610001115
O                0.3462712057        0.3825155376        0.4109960362
O                0.1839738486        0.6027232539        0.2984154460
O                0.3453004359        0.6172178142        0.4747971438
O                0.0989881837        0.3425521000        0.3005671795
O                0.9009689986        0.1574113180        0.3005849837
O                0.3911083432        0.3445383261        0.4728065504
O                0.6197308296        0.1471719582        0.4754853300
O                0.1161828299        0.1103564129        0.3509255059
O                0.1188732132        0.8938427215        0.3068484426
O                0.8837510242        0.3896341455        0.3509230959
O                0.8811216145        0.6061582490        0.3068527896
O                0.3160333961        0.1027872606        0.2984448318
O                0.1489064479        0.1177267358        0.4748355682
O                0.3453902890        0.8830880725        0.3609956364
O                0.1545152460        0.8819270851        0.4109396620
In               0.7521715691        0.7473077305        0.4421058612
In               0.2499217895        0.7490975933        0.4425455501
In               0.7476885878        0.7472049047        0.3284998252
In               0.7478021225        0.2539872874        0.4421150430
In               0.9642447834       -0.0024665704        0.3287657126
In               0.5307495216        0.0003667935        0.4416824677
In               0.0028551062        0.2538434140        0.4926219767
In               0.0007924894        0.7496320127        0.3929378287
In               0.5356768048        0.4976299255        0.3287576494
In               0.9677659968        0.5002928513        0.4425507597
In               0.2512056649        0.5343436419        0.3855035418
In               0.7494392765        0.9657360572        0.3854179760
In               0.4988597137        0.2511295685        0.3928554442
In               0.4960862071        0.7463773260        0.4927640570
O                0.8889288590        0.6550174206        0.4732155699
O                0.1113540273        0.8459385054        0.4731131377
O                0.5990554024        0.6574681711        0.3005774930
O                0.4010034390        0.8425751048        0.3005749488
O                0.8819874857        0.8918657765        0.4213515197
O                0.8639952171        0.0951347408        0.4694959600
O                0.1179111188        0.6102677571        0.4207783024
O                0.1184064222        0.3903114187        0.4648096493
O                0.6693409899        0.8990843376        0.4784039197
O                0.8160332973        0.8972168610        0.2984653021
O                0.6541070615        0.1179885887        0.4117051032
O                0.8448723960        0.1170120546        0.3610325402
O                0.6110551048        0.8454004244        0.4139345916
O                0.3904247517        0.6552429819        0.4129389664
O                0.8888671048        0.8435423571        0.3585056783
O                0.1111706129        0.6564112811        0.3582966836
O                0.6179964074        0.6153447279        0.4648860007
O                0.6172735985        0.3904938198        0.4209891521
O                0.3876394068        0.8895515142        0.4650791008
O                0.3813208306        0.1110695482        0.4208254272
O                0.8468128366        0.6169841170        0.4108588439
O                0.6547727186        0.6171911788        0.3610340112
O                0.8462529209        0.3788740561        0.4747645044
O                0.6839122552        0.3972488867        0.2984475171
In               0.2503257711        0.2510385486        0.5575226006
In               0.7521978775        0.2539872874        0.5578849573
In               0.2524252581        0.2527645819        0.6715088412
In               0.2500782105        0.7490975933        0.5574544502
In               0.4640117952        0.5024794067        0.6712204095
In               0.0338786837        0.5009900603        0.5574793971
In               0.7486502081        0.4657922783        0.6147053530
In               0.2515374751        0.0342171809        0.6146389571
In               0.4992075106        0.7496320127        0.6070621713
In               0.4971448938        0.2538434140        0.5073780233
In               0.0359944254        0.0024204373        0.6712375707
In               0.4638987157       -0.0029146061        0.5575602870
W                0.7500000000        0.0356301496        0.5000000001
In               0.2500000000        0.4669043379        0.5000000001
In               0.0039137929        0.7463773260        0.5072359430
In               0.0011402863        0.2511295685        0.6071445558
O                0.3918261361        0.1542768319        0.5866751509
O                0.6096241743        0.3441214986        0.5868634248
O                0.1111412590        0.1563286353        0.6416152995
O                0.8888206488        0.3435626034        0.6415725360
O                0.3815935778        0.3903114187        0.5351903507
O                0.3820888821        0.6102677571        0.5792216976
O                0.6360047829        0.0951347408        0.5305040400
O                0.6180125152        0.8918657765        0.5786484803
O                0.1537287943        0.3825155376        0.5890039638
O                0.3451667523        0.3829779865        0.6389998885
O                0.1546995641        0.6172178142        0.5252028562
O                0.3160261514        0.6027232539        0.7015845542
O                0.1088916578        0.3445383261        0.5271934501
O                0.8802691714        0.1471719582        0.5245146705
O                0.4010118172        0.3425521000        0.6994328205
O                0.5990310023        0.1574113180        0.6994150163
O                0.1186791703        0.1110695482        0.5791745728
O                0.1123605932        0.8895515142        0.5349208992
O                0.8827264024        0.3904938198        0.5790108479
O                0.8820035926        0.6153447279        0.5351139993
O                0.3510935521        0.1177267358        0.5251644318
O                0.1839666039        0.1027872606        0.7015551684
O                0.3454847540        0.8819270851        0.5890603380
O                0.1546097110        0.8830880725        0.6390043636
In               0.7523114122        0.7472049047        0.6715001748
In               0.2475925503        0.7525062023        0.6714994342
In               0.7478284309        0.7473077305        0.5578941391
In               0.7475794500        0.2474033107        0.6715223115
In               0.9692504784        0.0003667935        0.5583175325
In               0.5357552156       -0.0024665704        0.6712342874
In               0.2500000000        0.9666745159        0.5000000001
In               0.7500000000        0.5335587149        0.5000000001
In               0.0003270438        0.7496065845        0.6219254445
In               0.5322340032        0.5002928513        0.5574492405
In               0.9643231942        0.4976299255        0.6712423506
In               0.2487943351        0.5343436419        0.6144964582
In               0.7505607235        0.9657360572        0.6145820240
In               0.4997457313        0.2499842818        0.6220157450
O                0.9009445985        0.6574681711        0.6994225070
O                0.0989965619        0.8425751048        0.6994250512
O                0.6110711420        0.6550174206        0.5267844306
O                0.3886459737        0.8459385054        0.5268868628
O                0.8838778253        0.8895395483        0.6488285837
O                0.8811452352        0.1060709382        0.6931266321
O                0.1162410107        0.6102519559        0.6491543137
O                0.1188670717        0.3937736183        0.6931673443
O                0.6839667027        0.8972168610        0.7015346981
O                0.8306590101        0.8990843376        0.5215960803
O                0.6551276040        0.1170120546        0.6389674598
O                0.8458929385        0.1179885887        0.5882948968
O                0.6111328952        0.8435423571        0.6414943217
O                0.3888293871        0.6564112811        0.6417033164
O                0.8889448962        0.8454004244        0.5860654086
O                0.1095752493        0.6552429819        0.5870610338
O                0.6188783855        0.6061582490        0.6931472104
O                0.6162489758        0.3896341455        0.6490769041
O                0.3811267868        0.8938427215        0.6931515574
O                0.3838171701        0.1103564129        0.6490744941
O                0.8452272814        0.6171911788        0.6389659888
O                0.6531871634        0.6169841170        0.5891411561
O                0.8160877448        0.3972488867        0.7015524831
O                0.6537470791        0.3788740561        0.5252354956
H                0.3223323632        0.4635233043        0.3002752420
H                0.6776874077        0.0364597810        0.3002655559
H                0.1358238216        0.6467096545        0.2828006203
H                0.1376339300        0.3798317448        0.2828568997
H                0.8623737296        0.1201863149        0.2828610880
H                0.1776767056        0.9635401174        0.3002689936
H                0.8223316296        0.5364621664        0.3002693979
H                0.3641470946        0.1467234134        0.2828124959
H                0.6376518233        0.6202037118        0.2828587546
H                0.3623795761        0.8798204833        0.2828583078
H                0.8641342518        0.8532900366        0.2828233113
H                0.6358196671        0.3533043798        0.2828122777
H                0.3641761784        0.6467096545        0.7171993797
H                0.3623660700        0.3798317448        0.7171431003
H                0.6376262704        0.1201863149        0.7171389120
H                0.1358529054        0.1467234134        0.7171875041
H                0.8623481767        0.6202037118        0.7171412454
H                0.1376204239        0.8798204833        0.7171416922
H                0.8223125913        0.0364597810        0.6997344441
H                0.1776676358        0.4635233043        0.6997247580
H                0.6358657472        0.8532900366        0.7171766887
H                0.6776683694        0.5364621664        0.6997306021
H                0.3223232934        0.9635401174        0.6997310064
H                0.8641803319        0.3533043798        0.7171877223



     Writing config-only to output data dir ./tmp/rel.save/ :
     XML data file
     NEW-OLD atomic charge density approx. for the potential

     negative rho (up, down):  2.821E-02 0.000E+00

     total cpu time spent up to now is    16646.1 secs

     Self-consistent Calculation

     iteration #  1     ecut=    71.00 Ry     beta= 0.20
     Davidson diagonalization with overlap
     ethr =  1.00E-06,  avg # of iterations =  7.8

     negative rho (up, down):  3.412E-02 0.000E+00

     total cpu time spent up to now is    16693.9 secs

     total energy              =  -27385.18952018 Ry
     estimated scf accuracy    <       0.03002178 Ry

     iteration #  2     ecut=    71.00 Ry     beta= 0.20
     Davidson diagonalization with overlap
     ethr =  2.26E-06,  avg # of iterations =  1.0

     negative rho (up, down):  9.513E-02 0.000E+00

     total cpu time spent up to now is    16725.7 secs

     total energy              =  -27385.18424948 Ry
     estimated scf accuracy    <       0.02207142 Ry

     iteration #  3     ecut=    71.00 Ry     beta= 0.20
     Davidson diagonalization with overlap
     ethr =  1.66E-06,  avg # of iterations =  2.0

     negative rho (up, down):  7.466E-02 0.000E+00

     total cpu time spent up to now is    16759.6 secs

     total energy              =  -27385.19095315 Ry
     estimated scf accuracy    <       0.00167505 Ry

     iteration #  4     ecut=    71.00 Ry     beta= 0.20
     Davidson diagonalization with overlap
     ethr =  1.26E-07,  avg # of iterations =  6.8

     negative rho (up, down):  6.303E-02 0.000E+00

     total cpu time spent up to now is    16794.6 secs

     total energy              =  -27385.19220414 Ry
     estimated scf accuracy    <       0.00067195 Ry

     iteration #  5     ecut=    71.00 Ry     beta= 0.20
     Davidson diagonalization with overlap
