
     Program PWSCF v.7.5 starts on  5Oct2026 at  8:42:37 

     This program is part of the open-source Quantum ESPRESSO suite
     for quantum simulation of materials; please cite
         "P. Giannozzi et al., J. Phys.:Condens. Matter 21 395502 (2009);
         "P. Giannozzi et al., J. Phys.:Condens. Matter 29 465901 (2017);
         "P. Giannozzi et al., J. Chem. Phys. 152 154105 (2020);
          URL http://www.quantum-espresso.org", 
     in publications or presentations arising from this work. More details at
     http://www.quantum-espresso.org/quote

     Parallel version (MPI & OpenMP), running on      33 processor cores
     Number of MPI processes:                33
     Threads/MPI process:                     1

     MPI processes distributed on     1 nodes
     264967 MiB available memory on the printing compute node when the environment starts

     Reading input from scf.in

     Current dimensions of program PWSCF are:
     Max number of different atomic species (ntypx) = 10
     Max number of k-points (npk) =  40000
     Max angular momentum in pseudopotentials (lmaxx) =  4
     file In.pbe-dn-kjpaw_psl.1.0.0.UPF: wavefunction(s)  5S 5P 4D renormalized
     file O.pbe-n-kjpaw_psl.1.0.0.UPF: wavefunction(s)  2S 2P renormalized
     file W.pbe-spn-kjpaw_psl.1.0.0.UPF: wavefunction(s)  6S 5P 5D renormalized
     file H.pbe-kjpaw_psl.1.0.0.UPF: wavefunction(s)  1S renormalized
     Message from routine setup:
     using ibrav=0 with symmetry is DISCOURAGED, use correct ibrav instead

     R & G space division:  proc/nbgrp/npool/nimage =      33
     Subspace diagonalization in iterative solution of the eigenvalue problem:
     one sub-group per band group will be used
     ELPA distributed-memory algorithm (size of sub-group:  5*  5 procs)


     Parallelization info
     --------------------
     sticks:   dense  smooth     PW     G-vecs:    dense   smooth      PW
     Min         519     260     67               224621    79418   10473
     Max         520     261     68               224650    79437   10494
     Sum       17157    8585   2225              7413139  2620949  345857

     Using Slab Decomposition



     bravais-lattice index     =            0
     lattice parameter (alat)  =      19.4980  a.u.
     unit-cell volume          =   32429.1815 (a.u.)^3
     number of atoms/cell      =          176
     number of atomic types    =            4
     number of electrons       =      1329.00
     number of Kohn-Sham states=          688
     kinetic-energy cutoff     =      71.0000  Ry
     charge density cutoff     =     568.0000  Ry
     scf convergence threshold =      1.0E-09
     mixing beta               =       0.2000
     number of iterations used =            8  local-TF  mixing
     Exchange-correlation= SLA  PW   PBX  PBC
                           (   1   4   3   4   0   0   0)

     celldm(1)=  19.498036  celldm(2)=   0.000000  celldm(3)=   0.000000
     celldm(4)=   0.000000  celldm(5)=   0.000000  celldm(6)=   0.000000

     crystal axes: (cart. coord. in units of alat)
               a(1) = (   1.000000   0.000000   0.000000 )  
               a(2) = (   0.000000   0.999087   0.000000 )  
               a(3) = (   0.000000   0.000000   4.378852 )  

     reciprocal axes: (cart. coord. in units 2 pi/alat)
               b(1) = (  1.000000  0.000000  0.000000 )  
               b(2) = (  0.000000  1.000914  0.000000 )  
               b(3) = (  0.000000  0.000000  0.228370 )  


     PseudoPot. # 1 for In read from file:
     ./In.pbe-dn-kjpaw_psl.1.0.0.UPF
     MD5 check sum: 235b15e6a7fdfd96486e0ecdcb5b12c6
     Pseudo is Projector augmented-wave + core cor, Zval = 13.0
     Generated using &quot;atomic&quot; code by A. Dal Corso  v.6.3
     Shape of augmentation charge: PSQ
     Using radial grid of 1241 points,  6 beta functions with: 
                l(1) =   0
                l(2) =   0
                l(3) =   1
                l(4) =   1
                l(5) =   2
                l(6) =   2
     Q(r) pseudized with 0 coefficients 


     PseudoPot. # 2 for O  read from file:
     ./O.pbe-n-kjpaw_psl.1.0.0.UPF
     MD5 check sum: e99d9cef9b487d1ca56f5b95ecd0fd7a
     Pseudo is Projector augmented-wave + core cor, Zval =  6.0
     Generated using &quot;atomic&quot; code by A. Dal Corso  v.6.3
     Shape of augmentation charge: PSQ
     Using radial grid of 1095 points,  4 beta functions with: 
                l(1) =   0
                l(2) =   0
                l(3) =   1
                l(4) =   1
     Q(r) pseudized with 0 coefficients 


     PseudoPot. # 3 for W  read from file:
     ./W.pbe-spn-kjpaw_psl.1.0.0.UPF
     MD5 check sum: 03c3df5b60893f488392c7401945500a
     Pseudo is Projector augmented-wave + core cor, Zval = 14.0
     Generated using &quot;atomic&quot; code by A. Dal Corso  v.6.2.2
     Shape of augmentation charge: PSQ
     Using radial grid of 1273 points,  6 beta functions with: 
                l(1) =   0
                l(2) =   0
                l(3) =   1
                l(4) =   1
                l(5) =   2
                l(6) =   2
     Q(r) pseudized with 0 coefficients 


     PseudoPot. # 4 for H  read from file:
     ./H.pbe-kjpaw_psl.1.0.0.UPF
     MD5 check sum: d81a744832360e4a8af0b0b5b123bc2a
     Pseudo is Projector augmented-wave, Zval =  1.0
     Generated using &quot;atomic&quot; code by A. Dal Corso  v.6.3MaX
     Shape of augmentation charge: PSQ
     Using radial grid of  929 points,  2 beta functions with: 
                l(1) =   0
                l(2) =   0
     Q(r) pseudized with 0 coefficients 


     atomic species   valence    mass     pseudopotential
     In               13.00   114.81800     In( 1.00)
     O                 6.00    15.99900     O ( 1.00)
     W                14.00   183.84000     W ( 1.00)
     H                 1.00     1.00800     H ( 1.00)

      2 Sym. Ops. (no inversion) found ( 1 have fractional translation)


                                    s                        frac. trans.

      isym =  1     identity                                     

 cryst.   s( 1) = (     1          0          0      )
                  (     0          1          0      )
                  (     0          0          1      )

 cart.    s( 1) = (  1.0000000  0.0000000  0.0000000 )
                  (  0.0000000  1.0000000  0.0000000 )
                  (  0.0000000  0.0000000  1.0000000 )


      isym =  2     180 deg rotation - cart. axis [0,1,0]        

 cryst.   s( 2) = (    -1          0          0      )    f =(  0.5000000 )
                  (     0          1          0      )       (  0.0000000 )
                  (     0          0         -1      )       (  0.0000000 )

 cart.    s( 2) = ( -1.0000000  0.0000000  0.0000000 )    f =(  0.5000000 )
                  (  0.0000000  1.0000000  0.0000000 )       (  0.0000000 )
                  (  0.0000000  0.0000000 -1.0000000 )       (  0.0000000 )


   Cartesian axes

     site n.     atom                  positions (alat units)
         1        In     tau(   1) = (   0.2470210   0.2524899   1.4353218  )
         2        In     tau(   2) = (   0.7515011   0.2473289   1.4359990  )
         3        In     tau(   3) = (   0.2457116   0.2519225   1.9356322  )
         4        In     tau(   4) = (   0.2531090   0.7519043   1.4346745  )
         5        In     tau(   5) = (   0.4654424   0.5019574   1.9362614  )
         6        In     tau(   6) = (   0.0360283   0.5016355   1.4364889  )
         7        In     tau(   7) = (   0.7515663   0.4654490   1.6848595  )
         8        In     tau(   8) = (   0.2472300   0.0343502   1.6849406  )
         9        In     tau(   9) = (   0.5003911   0.7508104   1.6546197  )
        10        In     tau(  10) = (   0.0363481  -0.0050240   1.9374344  )
        11        In     tau(  11) = (   0.4642791   0.0027131   1.4381918  )
        12        In     tau(  12) = (  -0.0010795   0.2498299   1.6538355  )
        13        O      tau(  13) = (   0.3880458   0.1568400   1.5667732  )
        14        O      tau(  14) = (   0.6106318   0.3443653   1.5670860  )
        15        O      tau(  15) = (   0.1048612   0.1529782   1.8092461  )
        16        O      tau(  16) = (   0.8883621   0.3424889   1.8089211  )
        17        O      tau(  17) = (   0.3814208   0.3931592   1.3407148  )
        18        O      tau(  18) = (   0.3845053   0.6108948   1.5338924  )
        19        O      tau(  19) = (   0.6184904   0.1059236   1.3410558  )
        20        O      tau(  20) = (   0.6166536   0.8906720   1.5387874  )
        21        O      tau(  21) = (   0.1543437   0.3822448   1.5778651  )
        22        O      tau(  22) = (   0.3443134   0.3836419   1.7978763  )
        23        O      tau(  23) = (   0.1856058   0.6008930   1.3034030  )
        24        O      tau(  24) = (   0.3444401   0.6159649   2.0779070  )
        25        O      tau(  25) = (   0.0984170   0.3418190   1.3124281  )
        26        O      tau(  26) = (   0.9011448   0.1576681   1.3150269  )
        27        O      tau(  27) = (   0.3896261   0.3443074   2.0670938  )
        28        O      tau(  28) = (   0.6179961   0.1474375   2.0778641  )
        29        O      tau(  29) = (   0.1153861   0.1105470   1.5348885  )
        30        O      tau(  30) = (   0.1184407   0.8928258   1.3410983  )
        31        O      tau(  31) = (   0.8835922   0.3894653   1.5344765  )
        32        O      tau(  32) = (   0.8813914   0.6068222   1.3420488  )
        33        O      tau(  33) = (   0.3146195   0.1012818   1.3048578  )
        34        O      tau(  34) = (   0.1440328   0.1172594   2.0801597  )
        35        O      tau(  35) = (   0.3451893   0.8825984   1.5780980  )
        36        O      tau(  36) = (   0.1553862   0.8805830   1.7975416  )
        37        In     tau(  37) = (   0.7522899   0.7443059   1.9334123  )
        38        In     tau(  38) = (   0.2525297   0.7488663   1.9354956  )
        39        In     tau(  39) = (   0.7482878   0.7474288   1.4388370  )
        40        In     tau(  40) = (   0.7434579   0.2553946   1.9372050  )
        41        In     tau(  41) = (   0.9640490  -0.0023356   1.4381213  )
        42        In     tau(  42) = (   0.5283680   0.0036500   1.9332589  )
        43        In     tau(  43) = (   0.0015462   0.2533559   2.1618639  )
        44        In     tau(  44) = (   0.0023087   0.7485951   1.7183020  )
        45        In     tau(  45) = (   0.5355400   0.4981922   1.4371067  )
        46        In     tau(  46) = (   0.9689649   0.4979846   1.9355459  )
        47        In     tau(  47) = (   0.2514769   0.5343580   1.6842785  )
        48        In     tau(  48) = (   0.7498053   0.9669025   1.6888711  )
        49        In     tau(  49) = (   0.4966085   0.2532353   1.7180040  )
        50        In     tau(  50) = (   0.4936574   0.7434559   2.1604200  )
        51        O      tau(  51) = (   0.8896401   0.6512793   2.0702004  )
        52        O      tau(  52) = (   0.1154093   0.8431125   2.0702664  )
        53        O      tau(  53) = (   0.5998744   0.6585953   1.3155833  )
        54        O      tau(  54) = (   0.4024670   0.8420940   1.3135354  )
        55        O      tau(  55) = (   0.8820816   0.8901734   1.8449797  )
        56        O      tau(  56) = (   0.8623823   0.0829250   2.0593523  )
        57        O      tau(  57) = (   0.1195582   0.6091836   1.8400640  )
        58        O      tau(  58) = (   0.1171303   0.3899126   2.0373434  )
        59        O      tau(  59) = (   0.6646310   0.8932414   2.0972163  )
        60        O      tau(  60) = (   0.8145743   0.8974548   1.3066436  )
        61        O      tau(  61) = (   0.6522125   0.1205089   1.8015714  )
        62        O      tau(  62) = (   0.8438580   0.1176978   1.5792005  )
        63        O      tau(  63) = (   0.6110564   0.8466908   1.8141500  )
        64        O      tau(  64) = (   0.3916069   0.6556310   1.8058229  )
        65        O      tau(  65) = (   0.8893295   0.8441322   1.5696839  )
        66        O      tau(  66) = (   0.1117151   0.6558045   1.5651165  )
        67        O      tau(  67) = (   0.6173987   0.6163093   2.0364042  )
        68        O      tau(  68) = (   0.6162093   0.3933433   1.8411312  )
        69        O      tau(  69) = (   0.3897216   0.8888263   2.0379008  )
        70        O      tau(  70) = (   0.3780435   0.1123845   1.8405088  )
        71        O      tau(  71) = (   0.8488158   0.6158641   1.7962521  )
        72        O      tau(  72) = (   0.6547522   0.6179257   1.5800112  )
        73        O      tau(  73) = (   0.8458650   0.3749092   2.0794381  )
        74        O      tau(  74) = (   0.6844992   0.3982305   1.3047652  )
        75        In     tau(  75) = (   0.2542884   0.2519225   2.4432198  )
        76        In     tau(  76) = (   0.7565421   0.2553946   2.4416470  )
        77        In     tau(  77) = (   0.2529790   0.2524899   2.9435303  )
        78        In     tau(  78) = (   0.2474703   0.7488663   2.4433565  )
        79        In     tau(  79) = (   0.4639717   0.5016355   2.9423631  )
        80        In     tau(  80) = (   0.0345576   0.5019574   2.4425907  )
        81        In     tau(  81) = (   0.7484337   0.4654490   2.6939926  )
        82        In     tau(  82) = (   0.2527700   0.0343502   2.6939114  )
        83        In     tau(  83) = (   0.4976913   0.7485951   2.6605501  )
        84        In     tau(  84) = (   0.4984538   0.2533559   2.2169882  )
        85        In     tau(  85) = (   0.0357209   0.0027131   2.9406602  )
        86        In     tau(  86) = (   0.4636519  -0.0050240   2.4414176  )
        87        W      tau(  87) = (   0.7500000   0.0242803   2.1894260  )
        88        In     tau(  88) = (   0.2500000   0.4654935   2.1894260  )
        89        In     tau(  89) = (   0.0063426   0.7434559   2.2184320  )
        90        In     tau(  90) = (   0.0033915   0.2532353   2.6608481  )
        91        O      tau(  91) = (   0.3951388   0.1529782   2.5696060  )
        92        O      tau(  92) = (   0.6116379   0.3424889   2.5699309  )
        93        O      tau(  93) = (   0.1119542   0.1568400   2.8120788  )
        94        O      tau(  94) = (   0.8893682   0.3443653   2.8117660  )
        95        O      tau(  95) = (   0.3828697   0.3899126   2.3415087  )
        96        O      tau(  96) = (   0.3804418   0.6091836   2.5387880  )
        97        O      tau(  97) = (   0.6376177   0.0829250   2.3194998  )
        98        O      tau(  98) = (   0.6179184   0.8901734   2.5338724  )
        99        O      tau(  99) = (   0.1556866   0.3836419   2.5809758  )
       100        O      tau( 100) = (   0.3456563   0.3822448   2.8009869  )
       101        O      tau( 101) = (   0.1555599   0.6159649   2.3009451  )
       102        O      tau( 102) = (   0.3143942   0.6008930   3.0754491  )
       103        O      tau( 103) = (   0.1103739   0.3443074   2.3117583  )
       104        O      tau( 104) = (   0.8820039   0.1474375   2.3009880  )
       105        O      tau( 105) = (   0.4015831   0.3418190   3.0664239  )
       106        O      tau( 106) = (   0.5988552   0.1576681   3.0638251  )
       107        O      tau( 107) = (   0.1219565   0.1123845   2.5383433  )
       108        O      tau( 108) = (   0.1102784   0.8888263   2.3409513  )
       109        O      tau( 109) = (   0.8837907   0.3933433   2.5377208  )
       110        O      tau( 110) = (   0.8826013   0.6163093   2.3424479  )
       111        O      tau( 111) = (   0.3559672   0.1172594   2.2986924  )
       112        O      tau( 112) = (   0.1853805   0.1012818   3.0739943  )
       113        O      tau( 113) = (   0.3446138   0.8805830   2.5813105  )
       114        O      tau( 114) = (   0.1548107   0.8825984   2.8007541  )
       115        In     tau( 115) = (   0.7517122   0.7474288   2.9400150  )
       116        In     tau( 116) = (   0.2468910   0.7519043   2.9441775  )
       117        In     tau( 117) = (   0.7477101   0.7443059   2.4454397  )
       118        In     tau( 118) = (   0.7484989   0.2473289   2.9428531  )
       119        In     tau( 119) = (   0.9716320   0.0036500   2.4455931  )
       120        In     tau( 120) = (   0.5359510  -0.0023356   2.9407308  )
       121        In     tau( 121) = (   0.2500000   0.9670380   2.1894260  )
       122        In     tau( 122) = (   0.7500000   0.5318355   2.1894260  )
       123        In     tau( 123) = (  -0.0003911   0.7508104   2.7242323  )
       124        In     tau( 124) = (   0.5310351   0.4979846   2.4433062  )
       125        In     tau( 125) = (   0.9644600   0.4981922   2.9417454  )
       126        In     tau( 126) = (   0.2485231   0.5343580   2.6945736  )
       127        In     tau( 127) = (   0.7501947   0.9669025   2.6899810  )
       128        In     tau( 128) = (   0.5010795   0.2498299   2.7250165  )
       129        O      tau( 129) = (   0.9001256   0.6585953   3.0632688  )
       130        O      tau( 130) = (   0.0975330   0.8420940   3.0653166  )
       131        O      tau( 131) = (   0.6103599   0.6512793   2.3086517  )
       132        O      tau( 132) = (   0.3845907   0.8431125   2.3085856  )
       133        O      tau( 133) = (   0.8833464   0.8906720   2.8400647  )
       134        O      tau( 134) = (   0.8815096   0.1059236   3.0377962  )
       135        O      tau( 135) = (   0.1154947   0.6108948   2.8449597  )
       136        O      tau( 136) = (   0.1185792   0.3931592   3.0381373  )
       137        O      tau( 137) = (   0.6854257   0.8974548   3.0722085  )
       138        O      tau( 138) = (   0.8353690   0.8932414   2.2816357  )
       139        O      tau( 139) = (   0.6561420   0.1176978   2.7996516  )
       140        O      tau( 140) = (   0.8477875   0.1205089   2.5772806  )
       141        O      tau( 141) = (   0.6106705   0.8441322   2.8091682  )
       142        O      tau( 142) = (   0.3882849   0.6558045   2.8137355  )
       143        O      tau( 143) = (   0.8889436   0.8466908   2.5647021  )
       144        O      tau( 144) = (   0.1083931   0.6556310   2.5730291  )
       145        O      tau( 145) = (   0.6186086   0.6068222   3.0368033  )
       146        O      tau( 146) = (   0.6164078   0.3894653   2.8443756  )
       147        O      tau( 147) = (   0.3815593   0.8928258   3.0377538  )
       148        O      tau( 148) = (   0.3846139   0.1105470   2.8439635  )
       149        O      tau( 149) = (   0.8452478   0.6179257   2.7988409  )
       150        O      tau( 150) = (   0.6511842   0.6158641   2.5826000  )
       151        O      tau( 151) = (   0.8155008   0.3982305   3.0740868  )
       152        O      tau( 152) = (   0.6541350   0.3749092   2.2994140  )
       153        H      tau( 153) = (   0.3224913   0.4625120   1.3113172  )
       154        H      tau( 154) = (   0.6777455   0.0363585   1.3127734  )
       155        H      tau( 155) = (   0.1381674   0.6434086   1.2337000  )
       156        H      tau( 156) = (   0.1371989   0.3789995   1.2349617  )
       157        H      tau( 157) = (   0.8642256   0.1216460   1.2361385  )
       158        H      tau( 158) = (   0.1772525   0.9624382   1.3120872  )
       159        H      tau( 159) = (   0.8220910   0.5376588   1.3130535  )
       160        H      tau( 160) = (   0.3621545   0.1439005   1.2352772  )
       161        H      tau( 161) = (   0.6376870   0.6232892   1.2367840  )
       162        H      tau( 162) = (   0.3645949   0.8796627   1.2358017  )
       163        H      tau( 163) = (   0.8613118   0.8539844   1.2370191  )
       164        H      tau( 164) = (   0.6369225   0.3557847   1.2350922  )
       165        H      tau( 165) = (   0.3618326   0.6434086   3.1451521  )
       166        H      tau( 166) = (   0.3628011   0.3789995   3.1438904  )
       167        H      tau( 167) = (   0.6357744   0.1216460   3.1427136  )
       168        H      tau( 168) = (   0.1378455   0.1439005   3.1435749  )
       169        H      tau( 169) = (   0.8623130   0.6232892   3.1420681  )
       170        H      tau( 170) = (   0.1354051   0.8796627   3.1430504  )
       171        H      tau( 171) = (   0.8222545   0.0363585   3.0660787  )
       172        H      tau( 172) = (   0.1775087   0.4625120   3.0675348  )
       173        H      tau( 173) = (   0.6386882   0.8539844   3.1418330  )
       174        H      tau( 174) = (   0.6779090   0.5376588   3.0657985  )
       175        H      tau( 175) = (   0.3227475   0.9624382   3.0667649  )
       176        H      tau( 176) = (   0.8630775   0.3557847   3.1437598  )

   Crystallographic axes

     site n.     atom                  positions (cryst. coord.)
         1        In     tau(   1) = (  0.2470210  0.2527207  0.3277849  )
         2        In     tau(   2) = (  0.7515011  0.2475550  0.3279396  )
         3        In     tau(   3) = (  0.2457116  0.2521528  0.4420410  )
         4        In     tau(   4) = (  0.2531090  0.7525917  0.3276371  )
         5        In     tau(   5) = (  0.4654424  0.5024164  0.4421847  )
         6        In     tau(   6) = (  0.0360283  0.5020942  0.3280515  )
         7        In     tau(   7) = (  0.7515663  0.4658746  0.3847720  )
         8        In     tau(   8) = (  0.2472300  0.0343816  0.3847905  )
         9        In     tau(   9) = (  0.5003911  0.7514969  0.3778661  )
        10        In     tau(  10) = (  0.0363481 -0.0050286  0.4424526  )
        11        In     tau(  11) = (  0.4642791  0.0027156  0.3284404  )
        12        In     tau(  12) = ( -0.0010795  0.2500583  0.3776870  )
        13        O      tau(  13) = (  0.3880458  0.1569834  0.3578046  )
        14        O      tau(  14) = (  0.6106318  0.3446801  0.3578760  )
        15        O      tau(  15) = (  0.1048612  0.1531180  0.4131782  )
        16        O      tau(  16) = (  0.8883621  0.3428021  0.4131040  )
        17        O      tau(  17) = (  0.3814208  0.3935187  0.3061795  )
        18        O      tau(  18) = (  0.3845053  0.6114534  0.3502955  )
        19        O      tau(  19) = (  0.6184904  0.1060204  0.3062574  )
        20        O      tau(  20) = (  0.6166536  0.8914864  0.3514134  )
        21        O      tau(  21) = (  0.1543437  0.3825943  0.3603376  )
        22        O      tau(  22) = (  0.3443134  0.3839927  0.4105816  )
        23        O      tau(  23) = (  0.1856058  0.6014424  0.2976586  )
        24        O      tau(  24) = (  0.3444401  0.6165280  0.4745323  )
        25        O      tau(  25) = (  0.0984170  0.3421315  0.2997197  )
        26        O      tau(  26) = (  0.9011448  0.1578122  0.3003132  )
        27        O      tau(  27) = (  0.3896261  0.3446222  0.4720629  )
        28        O      tau(  28) = (  0.6179961  0.1475723  0.4745226  )
        29        O      tau(  29) = (  0.1153861  0.1106481  0.3505230  )
        30        O      tau(  30) = (  0.1184407  0.8936421  0.3062671  )
        31        O      tau(  31) = (  0.8835922  0.3898214  0.3504289  )
        32        O      tau(  32) = (  0.8813914  0.6073770  0.3064842  )
        33        O      tau(  33) = (  0.3146195  0.1013744  0.2979908  )
        34        O      tau(  34) = (  0.1440328  0.1173666  0.4750468  )
        35        O      tau(  35) = (  0.3451893  0.8834054  0.3603908  )
        36        O      tau(  36) = (  0.1553862  0.8813882  0.4105052  )
        37        In     tau(  37) = (  0.7522899  0.7449864  0.4415341  )
        38        In     tau(  38) = (  0.2525297  0.7495510  0.4420098  )
        39        In     tau(  39) = (  0.7482878  0.7481121  0.3285877  )
        40        In     tau(  40) = (  0.7434579  0.2556281  0.4424002  )
        41        In     tau(  41) = (  0.9640490 -0.0023377  0.3284243  )
        42        In     tau(  42) = (  0.5283680  0.0036533  0.4414990  )
        43        In     tau(  43) = (  0.0015462  0.2535876  0.4937056  )
        44        In     tau(  44) = (  0.0023087  0.7492796  0.3924092  )
        45        In     tau(  45) = (  0.5355400  0.4986477  0.3281926  )
        46        In     tau(  46) = (  0.9689649  0.4984399  0.4420213  )
        47        In     tau(  47) = (  0.2514769  0.5348466  0.3846393  )
        48        In     tau(  48) = (  0.7498053  0.9677865  0.3856881  )
        49        In     tau(  49) = (  0.4966085  0.2534668  0.3923412  )
        50        In     tau(  50) = (  0.4936574  0.7441356  0.4933759  )
        51        O      tau(  51) = (  0.8896401  0.6518748  0.4727724  )
        52        O      tau(  52) = (  0.1154093  0.8438834  0.4727875  )
        53        O      tau(  53) = (  0.5998744  0.6591975  0.3004402  )
        54        O      tau(  54) = (  0.4024670  0.8428640  0.2999726  )
        55        O      tau(  55) = (  0.8820816  0.8909873  0.4213387  )
        56        O      tau(  56) = (  0.8623823  0.0830008  0.4702950  )
        57        O      tau(  57) = (  0.1195582  0.6097406  0.4202161  )
        58        O      tau(  58) = (  0.1171303  0.3902691  0.4652688  )
        59        O      tau(  59) = (  0.6646310  0.8940581  0.4789420  )
        60        O      tau(  60) = (  0.8145743  0.8982753  0.2983987  )
        61        O      tau(  61) = (  0.6522125  0.1206190  0.4114255  )
        62        O      tau(  62) = (  0.8438580  0.1178055  0.3606426  )
        63        O      tau(  63) = (  0.6110564  0.8474649  0.4142981  )
        64        O      tau(  64) = (  0.3916069  0.6562304  0.4123964  )
        65        O      tau(  65) = (  0.8893295  0.8449040  0.3584693  )
        66        O      tau(  66) = (  0.1117151  0.6564041  0.3574262  )
        67        O      tau(  67) = (  0.6173987  0.6168728  0.4650544  )
        68        O      tau(  68) = (  0.6162093  0.3937030  0.4204598  )
        69        O      tau(  69) = (  0.3897216  0.8896390  0.4653961  )
        70        O      tau(  70) = (  0.3780435  0.1124872  0.4203176  )
        71        O      tau(  71) = (  0.8488158  0.6164271  0.4102107  )
        72        O      tau(  72) = (  0.6547522  0.6184906  0.3608277  )
        73        O      tau(  73) = (  0.8458650  0.3752520  0.4748820  )
        74        O      tau(  74) = (  0.6844992  0.3985946  0.2979697  )
        75        In     tau(  75) = (  0.2542884  0.2521528  0.5579590  )
        76        In     tau(  76) = (  0.7565421  0.2556281  0.5575998  )
        77        In     tau(  77) = (  0.2529790  0.2527207  0.6722151  )
        78        In     tau(  78) = (  0.2474703  0.7495510  0.5579902  )
        79        In     tau(  79) = (  0.4639717  0.5020942  0.6719485  )
        80        In     tau(  80) = (  0.0345576  0.5024164  0.5578153  )
        81        In     tau(  81) = (  0.7484337  0.4658746  0.6152280  )
        82        In     tau(  82) = (  0.2527700  0.0343816  0.6152095  )
        83        In     tau(  83) = (  0.4976913  0.7492796  0.6075908  )
        84        In     tau(  84) = (  0.4984538  0.2535876  0.5062944  )
        85        In     tau(  85) = (  0.0357209  0.0027156  0.6715596  )
        86        In     tau(  86) = (  0.4636519 -0.0050286  0.5575474  )
        87        W      tau(  87) = (  0.7500000  0.0243025  0.5000000  )
        88        In     tau(  88) = (  0.2500000  0.4659190  0.5000000  )
        89        In     tau(  89) = (  0.0063426  0.7441356  0.5066241  )
        90        In     tau(  90) = (  0.0033915  0.2534668  0.6076588  )
        91        O      tau(  91) = (  0.3951388  0.1531180  0.5868218  )
        92        O      tau(  92) = (  0.6116379  0.3428021  0.5868960  )
        93        O      tau(  93) = (  0.1119542  0.1569834  0.6421954  )
        94        O      tau(  94) = (  0.8893682  0.3446801  0.6421240  )
        95        O      tau(  95) = (  0.3828697  0.3902691  0.5347312  )
        96        O      tau(  96) = (  0.3804418  0.6097406  0.5797839  )
        97        O      tau(  97) = (  0.6376177  0.0830008  0.5297050  )
        98        O      tau(  98) = (  0.6179184  0.8909873  0.5786613  )
        99        O      tau(  99) = (  0.1556866  0.3839927  0.5894184  )
       100        O      tau( 100) = (  0.3456563  0.3825943  0.6396624  )
       101        O      tau( 101) = (  0.1555599  0.6165280  0.5254677  )
       102        O      tau( 102) = (  0.3143942  0.6014424  0.7023414  )
       103        O      tau( 103) = (  0.1103739  0.3446222  0.5279371  )
       104        O      tau( 104) = (  0.8820039  0.1475723  0.5254774  )
       105        O      tau( 105) = (  0.4015831  0.3421315  0.7002803  )
       106        O      tau( 106) = (  0.5988552  0.1578122  0.6996868  )
       107        O      tau( 107) = (  0.1219565  0.1124872  0.5796824  )
       108        O      tau( 108) = (  0.1102784  0.8896390  0.5346039  )
       109        O      tau( 109) = (  0.8837907  0.3937030  0.5795402  )
       110        O      tau( 110) = (  0.8826013  0.6168728  0.5349456  )
       111        O      tau( 111) = (  0.3559672  0.1173666  0.5249532  )
       112        O      tau( 112) = (  0.1853805  0.1013744  0.7020092  )
       113        O      tau( 113) = (  0.3446138  0.8813882  0.5894948  )
       114        O      tau( 114) = (  0.1548107  0.8834054  0.6396092  )
       115        In     tau( 115) = (  0.7517122  0.7481121  0.6714123  )
       116        In     tau( 116) = (  0.2468910  0.7525917  0.6723629  )
       117        In     tau( 117) = (  0.7477101  0.7449864  0.5584659  )
       118        In     tau( 118) = (  0.7484989  0.2475550  0.6720604  )
       119        In     tau( 119) = (  0.9716320  0.0036533  0.5585010  )
       120        In     tau( 120) = (  0.5359510 -0.0023377  0.6715757  )
       121        In     tau( 121) = (  0.2500000  0.9679221  0.5000000  )
       122        In     tau( 122) = (  0.7500000  0.5323218  0.5000000  )
       123        In     tau( 123) = ( -0.0003911  0.7514969  0.6221339  )
       124        In     tau( 124) = (  0.5310351  0.4984399  0.5579787  )
       125        In     tau( 125) = (  0.9644600  0.4986477  0.6718074  )
       126        In     tau( 126) = (  0.2485231  0.5348466  0.6153607  )
       127        In     tau( 127) = (  0.7501947  0.9677865  0.6143119  )
       128        In     tau( 128) = (  0.5010795  0.2500583  0.6223130  )
       129        O      tau( 129) = (  0.9001256  0.6591975  0.6995598  )
       130        O      tau( 130) = (  0.0975330  0.8428640  0.7000274  )
       131        O      tau( 131) = (  0.6103599  0.6518748  0.5272276  )
       132        O      tau( 132) = (  0.3845907  0.8438834  0.5272125  )
       133        O      tau( 133) = (  0.8833464  0.8914864  0.6485866  )
       134        O      tau( 134) = (  0.8815096  0.1060204  0.6937426  )
       135        O      tau( 135) = (  0.1154947  0.6114534  0.6497045  )
       136        O      tau( 136) = (  0.1185792  0.3935187  0.6938205  )
       137        O      tau( 137) = (  0.6854257  0.8982753  0.7016013  )
       138        O      tau( 138) = (  0.8353690  0.8940581  0.5210580  )
       139        O      tau( 139) = (  0.6561420  0.1178055  0.6393574  )
       140        O      tau( 140) = (  0.8477875  0.1206190  0.5885745  )
       141        O      tau( 141) = (  0.6106705  0.8449040  0.6415307  )
       142        O      tau( 142) = (  0.3882849  0.6564041  0.6425738  )
       143        O      tau( 143) = (  0.8889436  0.8474649  0.5857019  )
       144        O      tau( 144) = (  0.1083931  0.6562304  0.5876036  )
       145        O      tau( 145) = (  0.6186086  0.6073770  0.6935158  )
       146        O      tau( 146) = (  0.6164078  0.3898214  0.6495711  )
       147        O      tau( 147) = (  0.3815593  0.8936421  0.6937329  )
       148        O      tau( 148) = (  0.3846139  0.1106481  0.6494770  )
       149        O      tau( 149) = (  0.8452478  0.6184906  0.6391723  )
       150        O      tau( 150) = (  0.6511842  0.6164271  0.5897893  )
       151        O      tau( 151) = (  0.8155008  0.3985946  0.7020303  )
       152        O      tau( 152) = (  0.6541350  0.3752520  0.5251180  )
       153        H      tau( 153) = (  0.3224913  0.4629349  0.2994660  )
       154        H      tau( 154) = (  0.6777455  0.0363917  0.2997985  )
       155        H      tau( 155) = (  0.1381674  0.6439969  0.2817405  )
       156        H      tau( 156) = (  0.1371989  0.3793460  0.2820286  )
       157        H      tau( 157) = (  0.8642256  0.1217573  0.2822974  )
       158        H      tau( 158) = (  0.1772525  0.9633182  0.2996418  )
       159        H      tau( 159) = (  0.8220910  0.5381503  0.2998625  )
       160        H      tau( 160) = (  0.3621545  0.1440321  0.2821007  )
       161        H      tau( 161) = (  0.6376870  0.6238591  0.2824448  )
       162        H      tau( 162) = (  0.3645949  0.8804669  0.2822205  )
       163        H      tau( 163) = (  0.8613118  0.8547652  0.2824985  )
       164        H      tau( 164) = (  0.6369225  0.3561100  0.2820584  )
       165        H      tau( 165) = (  0.3618326  0.6439969  0.7182595  )
       166        H      tau( 166) = (  0.3628011  0.3793460  0.7179714  )
       167        H      tau( 167) = (  0.6357744  0.1217573  0.7177026  )
       168        H      tau( 168) = (  0.1378455  0.1440321  0.7178993  )
       169        H      tau( 169) = (  0.8623130  0.6238591  0.7175552  )
       170        H      tau( 170) = (  0.1354051  0.8804669  0.7177795  )
       171        H      tau( 171) = (  0.8222545  0.0363917  0.7002015  )
       172        H      tau( 172) = (  0.1775087  0.4629349  0.7005340  )
       173        H      tau( 173) = (  0.6386882  0.8547652  0.7175015  )
       174        H      tau( 174) = (  0.6779090  0.5381503  0.7001375  )
       175        H      tau( 175) = (  0.3227475  0.9633182  0.7003582  )
       176        H      tau( 176) = (  0.8630775  0.3561100  0.7179416  )

     number of k points=     4  Marzari-Vanderbilt smearing, width (Ry)=  0.0100
                       cart. coord. in units 2pi/alat
        k(    1) = (   0.0000000   0.0000000   0.0000000), wk =   0.2222222
        k(    2) = (   0.0000000   0.3336381   0.0000000), wk =   0.4444444
        k(    3) = (   0.3333333   0.0000000   0.0000000), wk =   0.4444444
        k(    4) = (   0.3333333   0.3336381   0.0000000), wk =   0.8888889

                       cryst. coord.
        k(    1) = (   0.0000000   0.0000000   0.0000000), wk =   0.2222222
        k(    2) = (   0.0000000   0.3333333   0.0000000), wk =   0.4444444
        k(    3) = (   0.3333333   0.0000000   0.0000000), wk =   0.4444444
        k(    4) = (   0.3333333   0.3333333   0.0000000), wk =   0.8888889

     Dense  grid:  7413139 G-vectors     FFT dimensions: ( 150, 150, 648)

     Smooth grid:  2620949 G-vectors     FFT dimensions: ( 108, 108, 480)

     Dynamical RAM for                 wfc:     104.21 MB

     Dynamical RAM for     wfc (w. buffer):     521.07 MB

     Dynamical RAM for           str. fact:      13.71 MB

     Dynamical RAM for           local pot:       0.00 MB

     Dynamical RAM for          nlocal pot:     276.29 MB

     Dynamical RAM for                qrad:       7.65 MB

     Dynamical RAM for          rho,v,vnew:      20.58 MB

     Dynamical RAM for               rhoin:       6.86 MB

     Dynamical RAM for            rho*nmix:      54.84 MB

     Dynamical RAM for           G-vectors:      13.46 MB

     Dynamical RAM for          h,s,v(r/c):       3.46 MB

     Dynamical RAM for          <psi|beta>:      19.15 MB

     Dynamical RAM for                 psi:     208.43 MB

     Dynamical RAM for                hpsi:     208.43 MB

     Dynamical RAM for                spsi:     208.43 MB

     Dynamical RAM for      wfcinit/wfcrot:     219.27 MB

     Dynamical RAM for           addusdens:     966.54 MB

     Dynamical RAM for          addusforce:    1619.84 MB

     Dynamical RAM for         addusstress:     688.92 MB

     Estimated static dynamical RAM per process >     893.92 MB

     Estimated max dynamical RAM per process >       2.51 GB

     Estimated total dynamical RAM >      82.78 GB

     Initial potential from superposition of free atoms

     starting charge    1328.7946, renormalised to    1329.0000

     negative rho (up, down):  1.780E-03 0.000E+00
     Starting wfcs are  916 randomized atomic wfcs
     Checking if some PAW data can be deallocated... 
       PAW data deallocated on   20 nodes for type:  1
       PAW data deallocated on   12 nodes for type:  2
       PAW data deallocated on   32 nodes for type:  3
       PAW data deallocated on   28 nodes for type:  4

     total cpu time spent up to now is       43.5 secs

     per-process dynamical memory:   994.3 Mb

     Self-consistent Calculation

     iteration #  1     ecut=    71.00 Ry     beta= 0.20
     Davidson diagonalization with overlap

---- Real-time Memory Report at c_bands before calling an iterative solver
          1175 MiB given to the printing process from OS
           970 MiB allocation reported by mallinfo(arena+hblkhd)
        233575 MiB available memory on the node where the printing process lives
------------------
     ethr =  1.00E-02,  avg # of iterations =  2.0

     negative rho (up, down):  4.974E-04 0.000E+00

     total cpu time spent up to now is      137.5 secs

     total energy              =  -27387.99546385 Ry
     estimated scf accuracy    <      47.76625661 Ry

     iteration #  2     ecut=    71.00 Ry     beta= 0.20
     Davidson diagonalization with overlap

---- Real-time Memory Report at c_bands before calling an iterative solver
          1822 MiB given to the printing process from OS
          1000 MiB allocation reported by mallinfo(arena+hblkhd)
        226811 MiB available memory on the node where the printing process lives
------------------
     ethr =  3.59E-03,  avg # of iterations =  2.0

     negative rho (up, down):  3.515E-02 0.000E+00

     total cpu time spent up to now is      233.1 secs

     total energy              =  -27374.33141447 Ry
     estimated scf accuracy    <      29.63298018 Ry

     iteration #  3     ecut=    71.00 Ry     beta= 0.20
     Davidson diagonalization with overlap

---- Real-time Memory Report at c_bands before calling an iterative solver
          1822 MiB given to the printing process from OS
          1003 MiB allocation reported by mallinfo(arena+hblkhd)
        226624 MiB available memory on the node where the printing process lives
------------------
     ethr =  2.23E-03,  avg # of iterations =  5.0

     negative rho (up, down):  2.557E-02 0.000E+00

     total cpu time spent up to now is      379.9 secs

     total energy              =  -27384.25056104 Ry
     estimated scf accuracy    <       2.60407792 Ry

     iteration #  4     ecut=    71.00 Ry     beta= 0.20
     Davidson diagonalization with overlap

---- Real-time Memory Report at c_bands before calling an iterative solver
          1822 MiB given to the printing process from OS
          1006 MiB allocation reported by mallinfo(arena+hblkhd)
        226830 MiB available memory on the node where the printing process lives
------------------
     ethr =  1.96E-04,  avg # of iterations = 11.5

     negative rho (up, down):  1.002E-02 0.000E+00

     total cpu time spent up to now is      535.8 secs

     total energy              =  -27384.39199726 Ry
     estimated scf accuracy    <       3.43152294 Ry

     iteration #  5     ecut=    71.00 Ry     beta= 0.20
     Davidson diagonalization with overlap

---- Real-time Memory Report at c_bands before calling an iterative solver
          1822 MiB given to the printing process from OS
          1009 MiB allocation reported by mallinfo(arena+hblkhd)
        226851 MiB available memory on the node where the printing process lives
------------------
     ethr =  1.96E-04,  avg # of iterations =  7.2

     negative rho (up, down):  3.905E-02 0.000E+00

     total cpu time spent up to now is      693.1 secs

     total energy              =  -27384.62962143 Ry
     estimated scf accuracy    <       2.68637875 Ry

     iteration #  6     ecut=    71.00 Ry     beta= 0.20
     Davidson diagonalization with overlap

---- Real-time Memory Report at c_bands before calling an iterative solver
          1822 MiB given to the printing process from OS
          1011 MiB allocation reported by mallinfo(arena+hblkhd)
        226162 MiB available memory on the node where the printing process lives
------------------
     ethr =  1.96E-04,  avg # of iterations =  3.2

     negative rho (up, down):  4.724E-02 0.000E+00

     total cpu time spent up to now is      790.7 secs

     total energy              =  -27384.95420752 Ry
     estimated scf accuracy    <       0.27128384 Ry

     iteration #  7     ecut=    71.00 Ry     beta= 0.20
     Davidson diagonalization with overlap

---- Real-time Memory Report at c_bands before calling an iterative solver
          1822 MiB given to the printing process from OS
          1014 MiB allocation reported by mallinfo(arena+hblkhd)
        225868 MiB available memory on the node where the printing process lives
------------------
     ethr =  2.04E-05,  avg # of iterations = 14.5

     negative rho (up, down):  4.357E-02 0.000E+00

     total cpu time spent up to now is      967.2 secs

     total energy              =  -27385.31094549 Ry
     estimated scf accuracy    <       1.06286838 Ry

     iteration #  8     ecut=    71.00 Ry     beta= 0.20
     Davidson diagonalization with overlap

---- Real-time Memory Report at c_bands before calling an iterative solver
          1823 MiB given to the printing process from OS
          1017 MiB allocation reported by mallinfo(arena+hblkhd)
        222440 MiB available memory on the node where the printing process lives
------------------
     ethr =  2.04E-05,  avg # of iterations =  2.0

     negative rho (up, down):  4.566E-02 0.000E+00

     total cpu time spent up to now is     1053.0 secs

     total energy              =  -27384.94584843 Ry
     estimated scf accuracy    <       0.64837992 Ry

     iteration #  9     ecut=    71.00 Ry     beta= 0.20
     Davidson diagonalization with overlap

---- Real-time Memory Report at c_bands before calling an iterative solver
          1828 MiB given to the printing process from OS
          1020 MiB allocation reported by mallinfo(arena+hblkhd)
        221732 MiB available memory on the node where the printing process lives
------------------
     c_bands:  1 eigenvalues not converged
     ethr =  2.04E-05,  avg # of iterations =  9.5

     negative rho (up, down):  4.584E-02 0.000E+00

     total cpu time spent up to now is     1244.0 secs

     total energy              =  -27385.45047376 Ry
     estimated scf accuracy    <       0.66001160 Ry

     iteration # 10     ecut=    71.00 Ry     beta= 0.20
     Davidson diagonalization with overlap

---- Real-time Memory Report at c_bands before calling an iterative solver
          1830 MiB given to the printing process from OS
          1023 MiB allocation reported by mallinfo(arena+hblkhd)
        221014 MiB available memory on the node where the printing process lives
------------------
     ethr =  2.04E-05,  avg # of iterations =  1.2

     negative rho (up, down):  3.989E-02 0.000E+00

     total cpu time spent up to now is     1321.7 secs

     total energy              =  -27385.42323924 Ry
     estimated scf accuracy    <       0.75924203 Ry

     iteration # 11     ecut=    71.00 Ry     beta= 0.20
     Davidson diagonalization with overlap

---- Real-time Memory Report at c_bands before calling an iterative solver
          1830 MiB given to the printing process from OS
          1023 MiB allocation reported by mallinfo(arena+hblkhd)
        220371 MiB available memory on the node where the printing process lives
------------------
     ethr =  2.04E-05,  avg # of iterations =  6.0

     negative rho (up, down):  4.059E-02 0.000E+00

     total cpu time spent up to now is     1413.7 secs

     total energy              =  -27385.35715440 Ry
     estimated scf accuracy    <       0.85965842 Ry

     iteration # 12     ecut=    71.00 Ry     beta= 0.20
     Davidson diagonalization with overlap

---- Real-time Memory Report at c_bands before calling an iterative solver
          1830 MiB given to the printing process from OS
          1023 MiB allocation reported by mallinfo(arena+hblkhd)
        220701 MiB available memory on the node where the printing process lives
------------------
     ethr =  2.04E-05,  avg # of iterations =  1.0

     negative rho (up, down):  4.121E-02 0.000E+00

     total cpu time spent up to now is     1488.6 secs

     total energy              =  -27385.25044415 Ry
     estimated scf accuracy    <       0.66898814 Ry

     iteration # 13     ecut=    71.00 Ry     beta= 0.20
     Davidson diagonalization with overlap

---- Real-time Memory Report at c_bands before calling an iterative solver
          1830 MiB given to the printing process from OS
          1023 MiB allocation reported by mallinfo(arena+hblkhd)
        220626 MiB available memory on the node where the printing process lives
------------------
     ethr =  2.04E-05,  avg # of iterations =  2.8

     negative rho (up, down):  3.902E-02 0.000E+00

     total cpu time spent up to now is     1574.4 secs

     total energy              =  -27385.16137653 Ry
     estimated scf accuracy    <       0.37521179 Ry

     iteration # 14     ecut=    71.00 Ry     beta= 0.20
     Davidson diagonalization with overlap

---- Real-time Memory Report at c_bands before calling an iterative solver
          1830 MiB given to the printing process from OS
          1023 MiB allocation reported by mallinfo(arena+hblkhd)
        225890 MiB available memory on the node where the printing process lives
------------------
     ethr =  2.04E-05,  avg # of iterations =  7.2

     negative rho (up, down):  3.989E-02 0.000E+00

     total cpu time spent up to now is     1679.9 secs

     total energy              =  -27385.20995859 Ry
     estimated scf accuracy    <       0.20223223 Ry

     iteration # 15     ecut=    71.00 Ry     beta= 0.20
     Davidson diagonalization with overlap

---- Real-time Memory Report at c_bands before calling an iterative solver
          1830 MiB given to the printing process from OS
          1023 MiB allocation reported by mallinfo(arena+hblkhd)
        226506 MiB available memory on the node where the printing process lives
------------------
     ethr =  1.52E-05,  avg # of iterations =  2.0

     negative rho (up, down):  4.188E-02 0.000E+00

     total cpu time spent up to now is     1767.8 secs

     total energy              =  -27385.22656928 Ry
     estimated scf accuracy    <       0.14111046 Ry

     iteration # 16     ecut=    71.00 Ry     beta= 0.20
     Davidson diagonalization with overlap

---- Real-time Memory Report at c_bands before calling an iterative solver
          1833 MiB given to the printing process from OS
          1023 MiB allocation reported by mallinfo(arena+hblkhd)
        226009 MiB available memory on the node where the printing process lives
------------------
     ethr =  1.06E-05,  avg # of iterations =  2.0

     negative rho (up, down):  5.074E-02 0.000E+00

     total cpu time spent up to now is     1853.1 secs

     total energy              =  -27385.19921211 Ry
     estimated scf accuracy    <       0.13508311 Ry

     iteration # 17     ecut=    71.00 Ry     beta= 0.20
     Davidson diagonalization with overlap

---- Real-time Memory Report at c_bands before calling an iterative solver
          1833 MiB given to the printing process from OS
          1023 MiB allocation reported by mallinfo(arena+hblkhd)
        226764 MiB available memory on the node where the printing process lives
------------------
     ethr =  1.02E-05,  avg # of iterations =  2.0

     negative rho (up, down):  4.962E-02 0.000E+00

     total cpu time spent up to now is     1942.4 secs

     total energy              =  -27385.20255504 Ry
     estimated scf accuracy    <       0.06936932 Ry

     iteration # 18     ecut=    71.00 Ry     beta= 0.20
     Davidson diagonalization with overlap

---- Real-time Memory Report at c_bands before calling an iterative solver
          1833 MiB given to the printing process from OS
          1023 MiB allocation reported by mallinfo(arena+hblkhd)
        225908 MiB available memory on the node where the printing process lives
------------------
     c_bands:  1 eigenvalues not converged
     c_bands:  1 eigenvalues not converged
     ethr =  5.22E-06,  avg # of iterations = 18.2

     negative rho (up, down):  4.579E-02 0.000E+00

     total cpu time spent up to now is     2080.2 secs

     total energy              =  -27385.21896272 Ry
     estimated scf accuracy    <       0.06355858 Ry

     iteration # 19     ecut=    71.00 Ry     beta= 0.20
     Davidson diagonalization with overlap

---- Real-time Memory Report at c_bands before calling an iterative solver
          1833 MiB given to the printing process from OS
          1023 MiB allocation reported by mallinfo(arena+hblkhd)
        226299 MiB available memory on the node where the printing process lives
------------------
     ethr =  4.78E-06,  avg # of iterations =  2.0

     negative rho (up, down):  4.755E-02 0.000E+00

     total cpu time spent up to now is     2167.7 secs

     total energy              =  -27385.22957094 Ry
     estimated scf accuracy    <       0.05424765 Ry

     iteration # 20     ecut=    71.00 Ry     beta= 0.20
     Davidson diagonalization with overlap

---- Real-time Memory Report at c_bands before calling an iterative solver
          1833 MiB given to the printing process from OS
          1023 MiB allocation reported by mallinfo(arena+hblkhd)
        225977 MiB available memory on the node where the printing process lives
------------------
     ethr =  4.08E-06,  avg # of iterations =  5.8

     negative rho (up, down):  4.816E-02 0.000E+00

     total cpu time spent up to now is     2327.4 secs

     total energy              =  -27385.24546558 Ry
     estimated scf accuracy    <       0.17934587 Ry

     iteration # 21     ecut=    71.00 Ry     beta= 0.20
     Davidson diagonalization with overlap

---- Real-time Memory Report at c_bands before calling an iterative solver
          1833 MiB given to the printing process from OS
          1023 MiB allocation reported by mallinfo(arena+hblkhd)
        226081 MiB available memory on the node where the printing process lives
------------------
     ethr =  4.08E-06,  avg # of iterations =  1.5

     negative rho (up, down):  4.691E-02 0.000E+00

     total cpu time spent up to now is     2407.0 secs

     total energy              =  -27385.28141825 Ry
     estimated scf accuracy    <       0.14790147 Ry

     iteration # 22     ecut=    71.00 Ry     beta= 0.20
     Davidson diagonalization with overlap

---- Real-time Memory Report at c_bands before calling an iterative solver
          1833 MiB given to the printing process from OS
          1023 MiB allocation reported by mallinfo(arena+hblkhd)
        226147 MiB available memory on the node where the printing process lives
------------------
     ethr =  4.08E-06,  avg # of iterations =  2.0

     negative rho (up, down):  5.158E-02 0.000E+00

     total cpu time spent up to now is     2495.1 secs

     total energy              =  -27385.17005331 Ry
     estimated scf accuracy    <       0.22722008 Ry

     iteration # 23     ecut=    71.00 Ry     beta= 0.20
     Davidson diagonalization with overlap

---- Real-time Memory Report at c_bands before calling an iterative solver
          1833 MiB given to the printing process from OS
          1023 MiB allocation reported by mallinfo(arena+hblkhd)
        225783 MiB available memory on the node where the printing process lives
------------------
     ethr =  4.08E-06,  avg # of iterations =  6.0

     negative rho (up, down):  1.597E-01 0.000E+00

     total cpu time spent up to now is     2667.4 secs

     total energy              =  -27385.22244759 Ry
     estimated scf accuracy    <       0.05802584 Ry

     iteration # 24     ecut=    71.00 Ry     beta= 0.20
     Davidson diagonalization with overlap

---- Real-time Memory Report at c_bands before calling an iterative solver
          1835 MiB given to the printing process from OS
          1026 MiB allocation reported by mallinfo(arena+hblkhd)
        226318 MiB available memory on the node where the printing process lives
------------------
     ethr =  4.08E-06,  avg # of iterations = 10.5

     negative rho (up, down):  1.916E-01 0.000E+00

     total cpu time spent up to now is     2761.4 secs

     total energy              =  -27385.23580266 Ry
     estimated scf accuracy    <       0.06396114 Ry

     iteration # 25     ecut=    71.00 Ry     beta= 0.20
     Davidson diagonalization with overlap

---- Real-time Memory Report at c_bands before calling an iterative solver
          1835 MiB given to the printing process from OS
          1026 MiB allocation reported by mallinfo(arena+hblkhd)
        225990 MiB available memory on the node where the printing process lives
------------------
     ethr =  4.08E-06,  avg # of iterations =  4.5

     negative rho (up, down):  1.591E-01 0.000E+00

     total cpu time spent up to now is     2861.2 secs

     total energy              =  -27385.22957847 Ry
     estimated scf accuracy    <       0.12034356 Ry

     iteration # 26     ecut=    71.00 Ry     beta= 0.20
     Davidson diagonalization with overlap

---- Real-time Memory Report at c_bands before calling an iterative solver
          1835 MiB given to the printing process from OS
          1026 MiB allocation reported by mallinfo(arena+hblkhd)
        226432 MiB available memory on the node where the printing process lives
------------------
     ethr =  4.08E-06,  avg # of iterations =  1.0

     negative rho (up, down):  1.039E-01 0.000E+00

     total cpu time spent up to now is     2935.3 secs

     total energy              =  -27385.18148286 Ry
     estimated scf accuracy    <       0.09578129 Ry

     iteration # 27     ecut=    71.00 Ry     beta= 0.20
     Davidson diagonalization with overlap

---- Real-time Memory Report at c_bands before calling an iterative solver
          1837 MiB given to the printing process from OS
          1026 MiB allocation reported by mallinfo(arena+hblkhd)
        225961 MiB available memory on the node where the printing process lives
------------------
     ethr =  4.08E-06,  avg # of iterations =  8.5

     negative rho (up, down):  1.318E-01 0.000E+00

     total cpu time spent up to now is     3114.9 secs

     total energy              =  -27385.19963642 Ry
     estimated scf accuracy    <       0.05386472 Ry

     iteration # 28     ecut=    71.00 Ry     beta= 0.20
     Davidson diagonalization with overlap

---- Real-time Memory Report at c_bands before calling an iterative solver
          1837 MiB given to the printing process from OS
          1026 MiB allocation reported by mallinfo(arena+hblkhd)
        222836 MiB available memory on the node where the printing process lives
------------------
     ethr =  4.05E-06,  avg # of iterations =  4.5

     negative rho (up, down):  1.094E-01 0.000E+00

     total cpu time spent up to now is     3210.5 secs

     total energy              =  -27385.20467171 Ry
     estimated scf accuracy    <       0.01799655 Ry

     iteration # 29     ecut=    71.00 Ry     beta= 0.20
     Davidson diagonalization with overlap

---- Real-time Memory Report at c_bands before calling an iterative solver
          1837 MiB given to the printing process from OS
          1026 MiB allocation reported by mallinfo(arena+hblkhd)
        215476 MiB available memory on the node where the printing process lives
------------------
     ethr =  1.35E-06,  avg # of iterations =  5.0

     negative rho (up, down):  9.204E-02 0.000E+00

     total cpu time spent up to now is     3348.9 secs

     total energy              =  -27385.20938043 Ry
     estimated scf accuracy    <       0.01747818 Ry

     iteration # 30     ecut=    71.00 Ry     beta= 0.20
     Davidson diagonalization with overlap

---- Real-time Memory Report at c_bands before calling an iterative solver
          1837 MiB given to the printing process from OS
          1026 MiB allocation reported by mallinfo(arena+hblkhd)
        210849 MiB available memory on the node where the printing process lives
------------------
     ethr =  1.32E-06,  avg # of iterations =  2.2

     negative rho (up, down):  7.066E-02 0.000E+00

     total cpu time spent up to now is     3433.2 secs

     total energy              =  -27385.20870896 Ry
     estimated scf accuracy    <       0.01460801 Ry

     iteration # 31     ecut=    71.00 Ry     beta= 0.20
     Davidson diagonalization with overlap

---- Real-time Memory Report at c_bands before calling an iterative solver
          1837 MiB given to the printing process from OS
          1026 MiB allocation reported by mallinfo(arena+hblkhd)
        210175 MiB available memory on the node where the printing process lives
------------------
     ethr =  1.10E-06,  avg # of iterations =  5.0

     negative rho (up, down):  1.275E-01 0.000E+00

     total cpu time spent up to now is     3578.0 secs

     total energy              =  -27385.19934215 Ry
     estimated scf accuracy    <       0.04391042 Ry

     iteration # 32     ecut=    71.00 Ry     beta= 0.20
     Davidson diagonalization with overlap

---- Real-time Memory Report at c_bands before calling an iterative solver
          1837 MiB given to the printing process from OS
          1026 MiB allocation reported by mallinfo(arena+hblkhd)
        218624 MiB available memory on the node where the printing process lives
------------------
     c_bands:  1 eigenvalues not converged
     c_bands:  2 eigenvalues not converged
     ethr =  1.10E-06,  avg # of iterations = 15.2

     negative rho (up, down):  1.280E-01 0.000E+00

     total cpu time spent up to now is     3750.9 secs

     total energy              =  -27385.20722885 Ry
     estimated scf accuracy    <       0.00728884 Ry

     iteration # 33     ecut=    71.00 Ry     beta= 0.20
     Davidson diagonalization with overlap

---- Real-time Memory Report at c_bands before calling an iterative solver
          1837 MiB given to the printing process from OS
          1026 MiB allocation reported by mallinfo(arena+hblkhd)
        217207 MiB available memory on the node where the printing process lives
------------------
     ethr =  5.48E-07,  avg # of iterations =  2.0

     negative rho (up, down):  1.223E-01 0.000E+00

     total cpu time spent up to now is     3843.8 secs

     total energy              =  -27385.20775083 Ry
     estimated scf accuracy    <       0.00563832 Ry

     iteration # 34     ecut=    71.00 Ry     beta= 0.20
     Davidson diagonalization with overlap

---- Real-time Memory Report at c_bands before calling an iterative solver
          1837 MiB given to the printing process from OS
          1026 MiB allocation reported by mallinfo(arena+hblkhd)
        213696 MiB available memory on the node where the printing process lives
------------------
     ethr =  4.24E-07,  avg # of iterations =  2.0

     negative rho (up, down):  8.103E-02 0.000E+00

     total cpu time spent up to now is     3941.2 secs

     total energy              =  -27385.20613862 Ry
     estimated scf accuracy    <       0.00625332 Ry

     iteration # 35     ecut=    71.00 Ry     beta= 0.20
     Davidson diagonalization with overlap

---- Real-time Memory Report at c_bands before calling an iterative solver
          1837 MiB given to the printing process from OS
          1026 MiB allocation reported by mallinfo(arena+hblkhd)
        203453 MiB available memory on the node where the printing process lives
------------------
     c_bands:  1 eigenvalues not converged
     ethr =  4.24E-07,  avg # of iterations =  8.5

     negative rho (up, down):  7.145E-02 0.000E+00

     total cpu time spent up to now is     4037.9 secs

     total energy              =  -27385.20623874 Ry
     estimated scf accuracy    <       0.00249449 Ry

     iteration # 36     ecut=    71.00 Ry     beta= 0.20
     Davidson diagonalization with overlap

---- Real-time Memory Report at c_bands before calling an iterative solver
          1837 MiB given to the printing process from OS
          1026 MiB allocation reported by mallinfo(arena+hblkhd)
        201008 MiB available memory on the node where the printing process lives
------------------
     ethr =  1.88E-07,  avg # of iterations =  5.8

     negative rho (up, down):  7.477E-02 0.000E+00

     total cpu time spent up to now is     4145.6 secs

     total energy              =  -27385.20649188 Ry
     estimated scf accuracy    <       0.00172709 Ry

     iteration # 37     ecut=    71.00 Ry     beta= 0.20
     Davidson diagonalization with overlap

---- Real-time Memory Report at c_bands before calling an iterative solver
          1837 MiB given to the printing process from OS
          1026 MiB allocation reported by mallinfo(arena+hblkhd)
        200709 MiB available memory on the node where the printing process lives
------------------
     ethr =  1.30E-07,  avg # of iterations =  2.0

     negative rho (up, down):  5.570E-02 0.000E+00

     total cpu time spent up to now is     4236.1 secs

     total energy              =  -27385.20609235 Ry
     estimated scf accuracy    <       0.00129794 Ry

     iteration # 38     ecut=    71.00 Ry     beta= 0.20
     Davidson diagonalization with overlap

---- Real-time Memory Report at c_bands before calling an iterative solver
          1837 MiB given to the printing process from OS
          1026 MiB allocation reported by mallinfo(arena+hblkhd)
        200425 MiB available memory on the node where the printing process lives
------------------
     ethr =  9.77E-08,  avg # of iterations =  6.5

     negative rho (up, down):  5.682E-02 0.000E+00

     total cpu time spent up to now is     4341.1 secs

     total energy              =  -27385.20628695 Ry
     estimated scf accuracy    <       0.00101479 Ry

     iteration # 39     ecut=    71.00 Ry     beta= 0.20
     Davidson diagonalization with overlap

---- Real-time Memory Report at c_bands before calling an iterative solver
          1837 MiB given to the printing process from OS
          1026 MiB allocation reported by mallinfo(arena+hblkhd)
        199865 MiB available memory on the node where the printing process lives
------------------
     ethr =  7.64E-08,  avg # of iterations =  2.0

     negative rho (up, down):  6.009E-02 0.000E+00

     total cpu time spent up to now is     4439.0 secs

     total energy              =  -27385.20631650 Ry
     estimated scf accuracy    <       0.00076730 Ry

     iteration # 40     ecut=    71.00 Ry     beta= 0.20
     Davidson diagonalization with overlap

---- Real-time Memory Report at c_bands before calling an iterative solver
          1837 MiB given to the printing process from OS
          1026 MiB allocation reported by mallinfo(arena+hblkhd)
        199402 MiB available memory on the node where the printing process lives
------------------
     ethr =  5.77E-08,  avg # of iterations =  2.0

     negative rho (up, down):  6.006E-02 0.000E+00

     total cpu time spent up to now is     4527.6 secs

     total energy              =  -27385.20618941 Ry
     estimated scf accuracy    <       0.00050076 Ry

     iteration # 41     ecut=    71.00 Ry     beta= 0.20
     Davidson diagonalization with overlap

---- Real-time Memory Report at c_bands before calling an iterative solver
          1837 MiB given to the printing process from OS
          1026 MiB allocation reported by mallinfo(arena+hblkhd)
        198485 MiB available memory on the node where the printing process lives
------------------
     c_bands:  1 eigenvalues not converged
     c_bands:  1 eigenvalues not converged
     ethr =  3.77E-08,  avg # of iterations = 13.2

     negative rho (up, down):  5.911E-02 0.000E+00

     total cpu time spent up to now is     4714.7 secs

     total energy              =  -27385.20600745 Ry
     estimated scf accuracy    <       0.00124679 Ry

     iteration # 42     ecut=    71.00 Ry     beta= 0.20
     Davidson diagonalization with overlap

---- Real-time Memory Report at c_bands before calling an iterative solver
          1837 MiB given to the printing process from OS
          1026 MiB allocation reported by mallinfo(arena+hblkhd)
        197339 MiB available memory on the node where the printing process lives
------------------
     ethr =  3.77E-08,  avg # of iterations =  6.5

     negative rho (up, down):  5.336E-02 0.000E+00

     total cpu time spent up to now is     4888.2 secs

     total energy              =  -27385.20612962 Ry
     estimated scf accuracy    <       0.00038451 Ry

     iteration # 43     ecut=    71.00 Ry     beta= 0.20
     Davidson diagonalization with overlap

---- Real-time Memory Report at c_bands before calling an iterative solver
          1837 MiB given to the printing process from OS
          1026 MiB allocation reported by mallinfo(arena+hblkhd)
        196895 MiB available memory on the node where the printing process lives
------------------
     ethr =  2.89E-08,  avg # of iterations =  5.0

     negative rho (up, down):  5.128E-02 0.000E+00

     total cpu time spent up to now is     5034.2 secs

     total energy              =  -27385.20620936 Ry
     estimated scf accuracy    <       0.00032882 Ry

     iteration # 44     ecut=    71.00 Ry     beta= 0.20
     Davidson diagonalization with overlap

---- Real-time Memory Report at c_bands before calling an iterative solver
          1837 MiB given to the printing process from OS
          1026 MiB allocation reported by mallinfo(arena+hblkhd)
        196024 MiB available memory on the node where the printing process lives
------------------
     ethr =  2.47E-08,  avg # of iterations =  2.0

     negative rho (up, down):  4.801E-02 0.000E+00

     total cpu time spent up to now is     5122.5 secs

     total energy              =  -27385.20612029 Ry
     estimated scf accuracy    <       0.00011983 Ry

     iteration # 45     ecut=    71.00 Ry     beta= 0.20
     Davidson diagonalization with overlap

---- Real-time Memory Report at c_bands before calling an iterative solver
          1837 MiB given to the printing process from OS
          1026 MiB allocation reported by mallinfo(arena+hblkhd)
        195163 MiB available memory on the node where the printing process lives
------------------
     ethr =  9.02E-09,  avg # of iterations =  5.0

     negative rho (up, down):  4.802E-02 0.000E+00

     total cpu time spent up to now is     5282.4 secs

     total energy              =  -27385.20621532 Ry
     estimated scf accuracy    <       0.00015700 Ry

     iteration # 46     ecut=    71.00 Ry     beta= 0.20
     Davidson diagonalization with overlap

---- Real-time Memory Report at c_bands before calling an iterative solver
          1837 MiB given to the printing process from OS
          1026 MiB allocation reported by mallinfo(arena+hblkhd)
        214470 MiB available memory on the node where the printing process lives
------------------
     ethr =  9.02E-09,  avg # of iterations =  2.0

     negative rho (up, down):  4.813E-02 0.000E+00

     total cpu time spent up to now is     5371.5 secs

     total energy              =  -27385.20619484 Ry
     estimated scf accuracy    <       0.00009850 Ry

     iteration # 47     ecut=    71.00 Ry     beta= 0.20
     Davidson diagonalization with overlap

---- Real-time Memory Report at c_bands before calling an iterative solver
          1837 MiB given to the printing process from OS
          1026 MiB allocation reported by mallinfo(arena+hblkhd)
        214139 MiB available memory on the node where the printing process lives
------------------
     ethr =  7.41E-09,  avg # of iterations =  2.0

     negative rho (up, down):  4.767E-02 0.000E+00

     total cpu time spent up to now is     5456.5 secs

     total energy              =  -27385.20618558 Ry
     estimated scf accuracy    <       0.00004497 Ry

     iteration # 48     ecut=    71.00 Ry     beta= 0.20
     Davidson diagonalization with overlap

---- Real-time Memory Report at c_bands before calling an iterative solver
          1837 MiB given to the printing process from OS
          1026 MiB allocation reported by mallinfo(arena+hblkhd)
        212806 MiB available memory on the node where the printing process lives
------------------
     ethr =  3.38E-09,  avg # of iterations =  3.5

     negative rho (up, down):  4.818E-02 0.000E+00

     total cpu time spent up to now is     5558.6 secs

     total energy              =  -27385.20617934 Ry
     estimated scf accuracy    <       0.00002130 Ry

     iteration # 49     ecut=    71.00 Ry     beta= 0.20
     Davidson diagonalization with overlap

---- Real-time Memory Report at c_bands before calling an iterative solver
          1837 MiB given to the printing process from OS
          1026 MiB allocation reported by mallinfo(arena+hblkhd)
        207649 MiB available memory on the node where the printing process lives
------------------
     ethr =  1.60E-09,  avg # of iterations =  5.0

     negative rho (up, down):  4.802E-02 0.000E+00

     total cpu time spent up to now is     5709.8 secs

     total energy              =  -27385.20619289 Ry
     estimated scf accuracy    <       0.00001838 Ry

     iteration # 50     ecut=    71.00 Ry     beta= 0.20
     Davidson diagonalization with overlap

---- Real-time Memory Report at c_bands before calling an iterative solver
          1837 MiB given to the printing process from OS
          1026 MiB allocation reported by mallinfo(arena+hblkhd)
        207659 MiB available memory on the node where the printing process lives
------------------
     ethr =  1.38E-09,  avg # of iterations =  1.5

     negative rho (up, down):  4.761E-02 0.000E+00

     total cpu time spent up to now is     5793.7 secs

     total energy              =  -27385.20618570 Ry
     estimated scf accuracy    <       0.00001081 Ry

     iteration # 51     ecut=    71.00 Ry     beta= 0.20
     Davidson diagonalization with overlap

---- Real-time Memory Report at c_bands before calling an iterative solver
          1837 MiB given to the printing process from OS
          1026 MiB allocation reported by mallinfo(arena+hblkhd)
        207284 MiB available memory on the node where the printing process lives
------------------
     ethr =  8.14E-10,  avg # of iterations =  5.0

     negative rho (up, down):  4.775E-02 0.000E+00

     total cpu time spent up to now is     5935.9 secs

     total energy              =  -27385.20618787 Ry
     estimated scf accuracy    <       0.00000719 Ry

     iteration # 52     ecut=    71.00 Ry     beta= 0.20
     Davidson diagonalization with overlap

---- Real-time Memory Report at c_bands before calling an iterative solver
          1837 MiB given to the printing process from OS
          1026 MiB allocation reported by mallinfo(arena+hblkhd)
        207517 MiB available memory on the node where the printing process lives
------------------
     ethr =  5.41E-10,  avg # of iterations =  2.0

     negative rho (up, down):  4.783E-02 0.000E+00

     total cpu time spent up to now is     6021.9 secs

     total energy              =  -27385.20618542 Ry
     estimated scf accuracy    <       0.00000342 Ry

     iteration # 53     ecut=    71.00 Ry     beta= 0.20
     Davidson diagonalization with overlap

---- Real-time Memory Report at c_bands before calling an iterative solver
          1837 MiB given to the printing process from OS
          1026 MiB allocation reported by mallinfo(arena+hblkhd)
        215500 MiB available memory on the node where the printing process lives
------------------
     ethr =  2.57E-10,  avg # of iterations =  5.0

     negative rho (up, down):  4.706E-02 0.000E+00

     total cpu time spent up to now is     6156.5 secs

     total energy              =  -27385.20618449 Ry
     estimated scf accuracy    <       0.00000343 Ry

     iteration # 54     ecut=    71.00 Ry     beta= 0.20
     Davidson diagonalization with overlap

---- Real-time Memory Report at c_bands before calling an iterative solver
          1837 MiB given to the printing process from OS
          1026 MiB allocation reported by mallinfo(arena+hblkhd)
        215185 MiB available memory on the node where the printing process lives
------------------
     ethr =  2.57E-10,  avg # of iterations =  2.0

     negative rho (up, down):  4.641E-02 0.000E+00

     total cpu time spent up to now is     6247.1 secs

     total energy              =  -27385.20618272 Ry
     estimated scf accuracy    <       0.00000173 Ry

     iteration # 55     ecut=    71.00 Ry     beta= 0.20
     Davidson diagonalization with overlap

---- Real-time Memory Report at c_bands before calling an iterative solver
          1837 MiB given to the printing process from OS
          1026 MiB allocation reported by mallinfo(arena+hblkhd)
        213656 MiB available memory on the node where the printing process lives
------------------
     ethr =  1.30E-10,  avg # of iterations =  7.5

     negative rho (up, down):  4.625E-02 0.000E+00

     total cpu time spent up to now is     6354.5 secs

     total energy              =  -27385.20618295 Ry
     estimated scf accuracy    <       0.00000109 Ry

     iteration # 56     ecut=    71.00 Ry     beta= 0.20
     Davidson diagonalization with overlap

---- Real-time Memory Report at c_bands before calling an iterative solver
          1837 MiB given to the printing process from OS
          1026 MiB allocation reported by mallinfo(arena+hblkhd)
        210582 MiB available memory on the node where the printing process lives
------------------
     ethr =  8.23E-11,  avg # of iterations =  5.5

     negative rho (up, down):  4.624E-02 0.000E+00

     total cpu time spent up to now is     6460.2 secs

     total energy              =  -27385.20618274 Ry
     estimated scf accuracy    <       0.00000112 Ry

     iteration # 57     ecut=    71.00 Ry     beta= 0.20
     Davidson diagonalization with overlap

---- Real-time Memory Report at c_bands before calling an iterative solver
          1837 MiB given to the printing process from OS
          1026 MiB allocation reported by mallinfo(arena+hblkhd)
        206509 MiB available memory on the node where the printing process lives
------------------
     ethr =  8.23E-11,  avg # of iterations =  2.0

     negative rho (up, down):  4.613E-02 0.000E+00

     total cpu time spent up to now is     6550.3 secs

     total energy              =  -27385.20618272 Ry
     estimated scf accuracy    <       0.00000050 Ry

     iteration # 58     ecut=    71.00 Ry     beta= 0.20
     Davidson diagonalization with overlap

---- Real-time Memory Report at c_bands before calling an iterative solver
          1837 MiB given to the printing process from OS
          1026 MiB allocation reported by mallinfo(arena+hblkhd)
        206117 MiB available memory on the node where the printing process lives
------------------
     ethr =  3.77E-11,  avg # of iterations =  5.0

     negative rho (up, down):  4.606E-02 0.000E+00

     total cpu time spent up to now is     6688.4 secs

     total energy              =  -27385.20618284 Ry
     estimated scf accuracy    <       0.00000021 Ry

     iteration # 59     ecut=    71.00 Ry     beta= 0.20
     Davidson diagonalization with overlap

---- Real-time Memory Report at c_bands before calling an iterative solver
          1837 MiB given to the printing process from OS
          1026 MiB allocation reported by mallinfo(arena+hblkhd)
        205714 MiB available memory on the node where the printing process lives
------------------
     ethr =  1.58E-11,  avg # of iterations =  5.0

     negative rho (up, down):  4.600E-02 0.000E+00

     total cpu time spent up to now is     6829.2 secs

     total energy              =  -27385.20618308 Ry
     estimated scf accuracy    <       0.00000034 Ry

     iteration # 60     ecut=    71.00 Ry     beta= 0.20
     Davidson diagonalization with overlap

---- Real-time Memory Report at c_bands before calling an iterative solver
          1837 MiB given to the printing process from OS
          1026 MiB allocation reported by mallinfo(arena+hblkhd)
        205828 MiB available memory on the node where the printing process lives
------------------
     ethr =  1.58E-11,  avg # of iterations =  2.0

     negative rho (up, down):  4.595E-02 0.000E+00

     total cpu time spent up to now is     6921.5 secs

     total energy              =  -27385.20618295 Ry
     estimated scf accuracy    <       0.00000043 Ry

     iteration # 61     ecut=    71.00 Ry     beta= 0.20
     Davidson diagonalization with overlap

---- Real-time Memory Report at c_bands before calling an iterative solver
          1837 MiB given to the printing process from OS
          1026 MiB allocation reported by mallinfo(arena+hblkhd)
        205741 MiB available memory on the node where the printing process lives
------------------
     ethr =  1.58E-11,  avg # of iterations =  2.0

     negative rho (up, down):  4.595E-02 0.000E+00

     total cpu time spent up to now is     7020.2 secs

     total energy              =  -27385.20618288 Ry
     estimated scf accuracy    <       0.00000013 Ry

     iteration # 62     ecut=    71.00 Ry     beta= 0.20
     Davidson diagonalization with overlap

---- Real-time Memory Report at c_bands before calling an iterative solver
          1837 MiB given to the printing process from OS
          1026 MiB allocation reported by mallinfo(arena+hblkhd)
        205919 MiB available memory on the node where the printing process lives
------------------
     ethr =  9.48E-12,  avg # of iterations =  5.0

     negative rho (up, down):  4.592E-02 0.000E+00

     total cpu time spent up to now is     7165.6 secs

     total energy              =  -27385.20618292 Ry
     estimated scf accuracy    <       0.00000008 Ry

     iteration # 63     ecut=    71.00 Ry     beta= 0.20
     Davidson diagonalization with overlap

---- Real-time Memory Report at c_bands before calling an iterative solver
          1837 MiB given to the printing process from OS
          1026 MiB allocation reported by mallinfo(arena+hblkhd)
        214612 MiB available memory on the node where the printing process lives
------------------
     ethr =  6.25E-12,  avg # of iterations =  5.0

     negative rho (up, down):  4.595E-02 0.000E+00

     total cpu time spent up to now is     7311.7 secs

     total energy              =  -27385.20618293 Ry
     estimated scf accuracy    <       0.00000015 Ry

     iteration # 64     ecut=    71.00 Ry     beta= 0.20
     Davidson diagonalization with overlap

---- Real-time Memory Report at c_bands before calling an iterative solver
          1837 MiB given to the printing process from OS
          1026 MiB allocation reported by mallinfo(arena+hblkhd)
        214157 MiB available memory on the node where the printing process lives
------------------
     ethr =  6.25E-12,  avg # of iterations =  2.0

     negative rho (up, down):  4.596E-02 0.000E+00

     total cpu time spent up to now is     7399.2 secs

     total energy              =  -27385.20618291 Ry
     estimated scf accuracy    <       0.00000006 Ry

     iteration # 65     ecut=    71.00 Ry     beta= 0.20
     Davidson diagonalization with overlap

---- Real-time Memory Report at c_bands before calling an iterative solver
          1837 MiB given to the printing process from OS
          1026 MiB allocation reported by mallinfo(arena+hblkhd)
        217659 MiB available memory on the node where the printing process lives
------------------
     ethr =  4.60E-12,  avg # of iterations =  5.2

     negative rho (up, down):  4.594E-02 0.000E+00

     total cpu time spent up to now is     7513.1 secs

     total energy              =  -27385.20618293 Ry
     estimated scf accuracy    <       0.00000001 Ry

     iteration # 66     ecut=    71.00 Ry     beta= 0.20
     Davidson diagonalization with overlap

---- Real-time Memory Report at c_bands before calling an iterative solver
          1837 MiB given to the printing process from OS
          1026 MiB allocation reported by mallinfo(arena+hblkhd)
        212252 MiB available memory on the node where the printing process lives
------------------
     ethr =  1.02E-12,  avg # of iterations =  2.8

     negative rho (up, down):  4.594E-02 0.000E+00

     total cpu time spent up to now is     7609.8 secs

     total energy              =  -27385.20618293 Ry
     estimated scf accuracy    <       0.00000001 Ry

     iteration # 67     ecut=    71.00 Ry     beta= 0.20
     Davidson diagonalization with overlap

---- Real-time Memory Report at c_bands before calling an iterative solver
          1837 MiB given to the printing process from OS
          1026 MiB allocation reported by mallinfo(arena+hblkhd)
        214030 MiB available memory on the node where the printing process lives
------------------
     ethr =  8.24E-13,  avg # of iterations =  4.2

     negative rho (up, down):  4.595E-02 0.000E+00

     total cpu time spent up to now is     7709.3 secs

     total energy              =  -27385.20618294 Ry
     estimated scf accuracy    <          8.7E-09 Ry

     iteration # 68     ecut=    71.00 Ry     beta= 0.20
     Davidson diagonalization with overlap

---- Real-time Memory Report at c_bands before calling an iterative solver
          1837 MiB given to the printing process from OS
          1026 MiB allocation reported by mallinfo(arena+hblkhd)
        207845 MiB available memory on the node where the printing process lives
------------------
     ethr =  6.57E-13,  avg # of iterations =  5.8

     negative rho (up, down):  4.596E-02 0.000E+00

     total cpu time spent up to now is     7838.5 secs

     total energy              =  -27385.20618294 Ry
     estimated scf accuracy    <       0.00000001 Ry

     iteration # 69     ecut=    71.00 Ry     beta= 0.20
     Davidson diagonalization with overlap

---- Real-time Memory Report at c_bands before calling an iterative solver
          1837 MiB given to the printing process from OS
          1026 MiB allocation reported by mallinfo(arena+hblkhd)
        207070 MiB available memory on the node where the printing process lives
------------------
     ethr =  6.57E-13,  avg # of iterations =  2.0

     negative rho (up, down):  4.596E-02 0.000E+00

     total cpu time spent up to now is     7926.4 secs

     total energy              =  -27385.20618294 Ry
     estimated scf accuracy    <       0.00000001 Ry

     iteration # 70     ecut=    71.00 Ry     beta= 0.20
     Davidson diagonalization with overlap

---- Real-time Memory Report at c_bands before calling an iterative solver
          1837 MiB given to the printing process from OS
          1026 MiB allocation reported by mallinfo(arena+hblkhd)
        206525 MiB available memory on the node where the printing process lives
------------------
     ethr =  6.57E-13,  avg # of iterations =  1.0

     negative rho (up, down):  4.596E-02 0.000E+00

     total cpu time spent up to now is     8004.5 secs

     total energy              =  -27385.20618294 Ry
     estimated scf accuracy    <          9.7E-09 Ry

     iteration # 71     ecut=    71.00 Ry     beta= 0.20
     Davidson diagonalization with overlap

---- Real-time Memory Report at c_bands before calling an iterative solver
          1837 MiB given to the printing process from OS
          1026 MiB allocation reported by mallinfo(arena+hblkhd)
        205758 MiB available memory on the node where the printing process lives
------------------
     ethr =  6.57E-13,  avg # of iterations =  1.0

     negative rho (up, down):  4.595E-02 0.000E+00

     total cpu time spent up to now is     8082.2 secs

     total energy              =  -27385.20618294 Ry
     estimated scf accuracy    <          9.6E-09 Ry

     iteration # 72     ecut=    71.00 Ry     beta= 0.20
     Davidson diagonalization with overlap

---- Real-time Memory Report at c_bands before calling an iterative solver
          1837 MiB given to the printing process from OS
          1026 MiB allocation reported by mallinfo(arena+hblkhd)
        205416 MiB available memory on the node where the printing process lives
------------------
     ethr =  6.57E-13,  avg # of iterations =  1.0

     negative rho (up, down):  4.595E-02 0.000E+00

     total cpu time spent up to now is     8159.8 secs

     total energy              =  -27385.20618293 Ry
     estimated scf accuracy    <          8.8E-09 Ry

     iteration # 73     ecut=    71.00 Ry     beta= 0.20
     Davidson diagonalization with overlap

---- Real-time Memory Report at c_bands before calling an iterative solver
          1837 MiB given to the printing process from OS
          1026 MiB allocation reported by mallinfo(arena+hblkhd)
        205233 MiB available memory on the node where the printing process lives
------------------
     ethr =  6.57E-13,  avg # of iterations =  1.8

     negative rho (up, down):  4.594E-02 0.000E+00

     total cpu time spent up to now is     8245.0 secs

     total energy              =  -27385.20618294 Ry
     estimated scf accuracy    <          5.9E-09 Ry

     iteration # 74     ecut=    71.00 Ry     beta= 0.20
     Davidson diagonalization with overlap

---- Real-time Memory Report at c_bands before calling an iterative solver
          1837 MiB given to the printing process from OS
          1026 MiB allocation reported by mallinfo(arena+hblkhd)
        205296 MiB available memory on the node where the printing process lives
------------------
     ethr =  4.45E-13,  avg # of iterations =  5.0

     negative rho (up, down):  4.593E-02 0.000E+00

     total cpu time spent up to now is     8394.4 secs

     total energy              =  -27385.20618295 Ry
     estimated scf accuracy    <       0.00000002 Ry

     iteration # 75     ecut=    71.00 Ry     beta= 0.20
     Davidson diagonalization with overlap

---- Real-time Memory Report at c_bands before calling an iterative solver
          1837 MiB given to the printing process from OS
          1026 MiB allocation reported by mallinfo(arena+hblkhd)
        215058 MiB available memory on the node where the printing process lives
------------------
     ethr =  4.45E-13,  avg # of iterations =  4.8

     negative rho (up, down):  4.593E-02 0.000E+00

     total cpu time spent up to now is     8529.0 secs

     total energy              =  -27385.20618295 Ry
     estimated scf accuracy    <          4.4E-09 Ry

     iteration # 76     ecut=    71.00 Ry     beta= 0.20
     Davidson diagonalization with overlap

---- Real-time Memory Report at c_bands before calling an iterative solver
          1837 MiB given to the printing process from OS
          1026 MiB allocation reported by mallinfo(arena+hblkhd)
        214713 MiB available memory on the node where the printing process lives
------------------
     ethr =  3.29E-13,  avg # of iterations =  2.0

     negative rho (up, down):  4.593E-02 0.000E+00

     total cpu time spent up to now is     8622.0 secs

     total energy              =  -27385.20618295 Ry
     estimated scf accuracy    <          5.1E-09 Ry

     iteration # 77     ecut=    71.00 Ry     beta= 0.20
     Davidson diagonalization with overlap

---- Real-time Memory Report at c_bands before calling an iterative solver
          1837 MiB given to the printing process from OS
          1026 MiB allocation reported by mallinfo(arena+hblkhd)
        220241 MiB available memory on the node where the printing process lives
------------------
     ethr =  3.29E-13,  avg # of iterations =  2.0

     negative rho (up, down):  4.592E-02 0.000E+00

     total cpu time spent up to now is     8715.1 secs

     total energy              =  -27385.20618296 Ry
     estimated scf accuracy    <          4.0E-09 Ry

     iteration # 78     ecut=    71.00 Ry     beta= 0.20
     Davidson diagonalization with overlap

---- Real-time Memory Report at c_bands before calling an iterative solver
          1837 MiB given to the printing process from OS
          1026 MiB allocation reported by mallinfo(arena+hblkhd)
        220363 MiB available memory on the node where the printing process lives
------------------
     ethr =  3.04E-13,  avg # of iterations =  2.0

     negative rho (up, down):  4.591E-02 0.000E+00

     total cpu time spent up to now is     8806.3 secs

     total energy              =  -27385.20618296 Ry
     estimated scf accuracy    <          3.5E-09 Ry

     iteration # 79     ecut=    71.00 Ry     beta= 0.20
     Davidson diagonalization with overlap

---- Real-time Memory Report at c_bands before calling an iterative solver
          1837 MiB given to the printing process from OS
          1026 MiB allocation reported by mallinfo(arena+hblkhd)
        216169 MiB available memory on the node where the printing process lives
------------------
     ethr =  2.64E-13,  avg # of iterations =  6.0

     negative rho (up, down):  4.591E-02 0.000E+00

     total cpu time spent up to now is     8993.0 secs

     total energy              =  -27385.20618296 Ry
     estimated scf accuracy    <       0.00000003 Ry

     iteration # 80     ecut=    71.00 Ry     beta= 0.20
     Davidson diagonalization with overlap

---- Real-time Memory Report at c_bands before calling an iterative solver
          1837 MiB given to the printing process from OS
          1026 MiB allocation reported by mallinfo(arena+hblkhd)
        210554 MiB available memory on the node where the printing process lives
------------------
     ethr =  2.64E-13,  avg # of iterations =  2.0

     negative rho (up, down):  4.590E-02 0.000E+00

     total cpu time spent up to now is     9099.6 secs

     total energy              =  -27385.20618297 Ry
     estimated scf accuracy    <       0.00000001 Ry

     iteration # 81     ecut=    71.00 Ry     beta= 0.20
     Davidson diagonalization with overlap

---- Real-time Memory Report at c_bands before calling an iterative solver
          1837 MiB given to the printing process from OS
          1026 MiB allocation reported by mallinfo(arena+hblkhd)
        205702 MiB available memory on the node where the printing process lives
------------------
     ethr =  2.64E-13,  avg # of iterations =  1.2

     negative rho (up, down):  4.590E-02 0.000E+00

     total cpu time spent up to now is     9180.0 secs

     total energy              =  -27385.20618297 Ry
     estimated scf accuracy    <       0.00000001 Ry

     iteration # 82     ecut=    71.00 Ry     beta= 0.20
     Davidson diagonalization with overlap

---- Real-time Memory Report at c_bands before calling an iterative solver
          1837 MiB given to the printing process from OS
          1026 MiB allocation reported by mallinfo(arena+hblkhd)
        205411 MiB available memory on the node where the printing process lives
------------------
     ethr =  2.64E-13,  avg # of iterations =  2.0

     negative rho (up, down):  4.590E-02 0.000E+00

     total cpu time spent up to now is     9281.4 secs

     total energy              =  -27385.20618297 Ry
     estimated scf accuracy    <          9.8E-09 Ry

     iteration # 83     ecut=    71.00 Ry     beta= 0.20
     Davidson diagonalization with overlap

---- Real-time Memory Report at c_bands before calling an iterative solver
          1837 MiB given to the printing process from OS
          1026 MiB allocation reported by mallinfo(arena+hblkhd)
        208158 MiB available memory on the node where the printing process lives
------------------
     ethr =  2.64E-13,  avg # of iterations =  2.0

     negative rho (up, down):  4.590E-02 0.000E+00

     total cpu time spent up to now is     9369.5 secs

     total energy              =  -27385.20618297 Ry
     estimated scf accuracy    <       0.00000001 Ry

     iteration # 84     ecut=    71.00 Ry     beta= 0.20
     Davidson diagonalization with overlap

---- Real-time Memory Report at c_bands before calling an iterative solver
          1837 MiB given to the printing process from OS
          1026 MiB allocation reported by mallinfo(arena+hblkhd)
        207695 MiB available memory on the node where the printing process lives
------------------
     ethr =  2.64E-13,  avg # of iterations =  2.0

     negative rho (up, down):  4.590E-02 0.000E+00

     total cpu time spent up to now is     9458.4 secs

     total energy              =  -27385.20618297 Ry
     estimated scf accuracy    <          8.2E-09 Ry

     iteration # 85     ecut=    71.00 Ry     beta= 0.20
     Davidson diagonalization with overlap

---- Real-time Memory Report at c_bands before calling an iterative solver
          1837 MiB given to the printing process from OS
          1026 MiB allocation reported by mallinfo(arena+hblkhd)
        207133 MiB available memory on the node where the printing process lives
------------------
     ethr =  2.64E-13,  avg # of iterations =  1.0

     negative rho (up, down):  4.590E-02 0.000E+00

     total cpu time spent up to now is     9536.1 secs

     total energy              =  -27385.20618297 Ry
     estimated scf accuracy    <          9.2E-09 Ry

     iteration # 86     ecut=    71.00 Ry     beta= 0.20
     Davidson diagonalization with overlap

---- Real-time Memory Report at c_bands before calling an iterative solver
          1837 MiB given to the printing process from OS
          1026 MiB allocation reported by mallinfo(arena+hblkhd)
        206652 MiB available memory on the node where the printing process lives
------------------
