
     Program PWSCF v.7.3.1 starts on 30Sep2026 at 18:48:15 

     This program is part of the open-source Quantum ESPRESSO suite
     for quantum simulation of materials; please cite
         "P. Giannozzi et al., J. Phys.:Condens. Matter 21 395502 (2009);
         "P. Giannozzi et al., J. Phys.:Condens. Matter 29 465901 (2017);
         "P. Giannozzi et al., J. Chem. Phys. 152 154105 (2020);
          URL http://www.quantum-espresso.org", 
     in publications or presentations arising from this work. More details at
     http://www.quantum-espresso.org/quote

     Parallel version (MPI & OpenMP), running on       1 processor cores
     Number of MPI processes:                 1
     Threads/MPI process:                     1

     MPI processes distributed on     1 nodes
     96171 MiB available memory on the printing compute node when the environment starts
 
     Reading input from scf.in

     Current dimensions of program PWSCF are:
     Max number of different atomic species (ntypx) = 10
     Max number of k-points (npk) =  40000
     Max angular momentum in pseudopotentials (lmaxx) =  4
     Message from routine setup:
     using ibrav=0 with symmetry is DISCOURAGED, use correct ibrav instead
 
     Subspace diagonalization in iterative solution of the eigenvalue problem:
     a serial algorithm will be used

 
     G-vector sticks info
     --------------------
     sticks:   dense  smooth     PW     G-vecs:    dense   smooth      PW
     Sum        6817    6817   1809               356799   356799   48797
 
     Using Slab Decomposition
 


     bravais-lattice index     =            0
     lattice parameter (alat)  =      16.8664  a.u.
     unit-cell volume          =    3693.5878 (a.u.)^3
     number of atoms/cell      =           40
     number of atomic types    =            2
     number of electrons       =       352.00
     number of Kohn-Sham states=          192
     kinetic-energy cutoff     =      80.0000  Ry
     charge density cutoff     =     320.0000  Ry
     scf convergence threshold =      1.0E-09
     mixing beta               =       0.3000
     number of iterations used =            8  plain     mixing
     Exchange-correlation= PBE
                           (   1   4   3   4   0   0   0)

     GPU acceleration is ACTIVE.  1 visible GPUs per MPI rank
     GPU-aware MPI enabled


     GPU used by master process:

        Device Number: 0
        Device name: NVIDIA H100 NVL
        Compute capability : 90
        Ratio of single to double precision performance  : 2
        Memory Clock Rate (KHz): 2619000
        Memory Bus Width (bits): 6016
        Peak Memory Bandwidth (GB/s): ******

     celldm(1)=  16.866440  celldm(2)=   0.000000  celldm(3)=   0.000000
     celldm(4)=   0.000000  celldm(5)=   0.000000  celldm(6)=   0.000000

     crystal axes: (cart. coord. in units of alat)
               a(1) = (  -0.577350   0.577350   0.577350 )  
               a(2) = (   0.577350  -0.577350   0.577350 )  
               a(3) = (   0.577350   0.577350  -0.577350 )  

     reciprocal axes: (cart. coord. in units 2 pi/alat)
               b(1) = ( -0.000000  0.866025  0.866025 )  
               b(2) = (  0.866025 -0.000000  0.866025 )  
               b(3) = (  0.866025  0.866025 -0.000000 )  


     PseudoPot. # 1 for In read from file:
     ./In_ONCV_PBE-1.2.upf
     MD5 check sum: 2123f823f6143602c63cd302e3a0bdd6
     Pseudo is Norm-conserving, Zval = 13.0
     Generated using ONCVPSP code by D. R. Hamann
     Using radial grid of  602 points,  6 beta functions with: 
                l(1) =   0
                l(2) =   0
                l(3) =   1
                l(4) =   1
                l(5) =   2
                l(6) =   2

     PseudoPot. # 2 for O  read from file:
     ./O_ONCV_PBE-1.2.upf
     MD5 check sum: e36c48deb68f4e355fffe4602be2c42c
     Pseudo is Norm-conserving, Zval =  6.0
     Generated using ONCVPSP code by D. R. Hamann
     Using radial grid of  602 points,  4 beta functions with: 
                l(1) =   0
                l(2) =   0
                l(3) =   1
                l(4) =   1

     atomic species   valence    mass     pseudopotential
     In               13.00   114.81800     In( 1.00)
     O                 6.00    15.99900     O ( 1.00)

     24 Sym. Ops., with inversion, found (18 have fractional translation)


                                    s                        frac. trans.

      isym =  1     identity                                     

 cryst.   s( 1) = (     1          0          0      )
                  (     0          1          0      )
                  (     0          0          1      )

 cart.    s( 1) = (  1.0000000  0.0000000 -0.0000000 )
                  (  0.0000000  1.0000000 -0.0000000 )
                  ( -0.0000000 -0.0000000  1.0000000 )


      isym =  2     180 deg rotation - cart. axis [0,0,1]        

 cryst.   s( 2) = (     0          1          0      )    f =(  0.5000000 )
                  (     1          0          0      )       (  0.0000000 )
                  (    -1         -1         -1      )       (  0.5000000 )

 cart.    s( 2) = ( -1.0000000 -0.0000000  0.0000000 )    f =(  0.0000000 )
                  ( -0.0000000 -1.0000000  0.0000000 )       (  0.5773503 )
                  (  0.0000000  0.0000000  1.0000000 )       (  0.0000000 )


      isym =  3     180 deg rotation - cart. axis [0,1,0]        

 cryst.   s( 3) = (     0          0          1      )    f =(  0.0000000 )
                  (    -1         -1         -1      )       (  0.5000000 )
                  (     1          0          0      )       (  0.5000000 )

 cart.    s( 3) = ( -1.0000000  0.0000000 -0.0000000 )    f =(  0.5773503 )
                  ( -0.0000000  1.0000000  0.0000000 )       (  0.0000000 )
                  (  0.0000000 -0.0000000 -1.0000000 )       (  0.0000000 )


      isym =  4     180 deg rotation - cart. axis [1,0,0]        

 cryst.   s( 4) = (    -1         -1         -1      )    f =(  0.5000000 )
                  (     0          0          1      )       (  0.5000000 )
                  (     0          1          0      )       (  0.0000000 )

 cart.    s( 4) = (  1.0000000 -0.0000000 -0.0000000 )    f =(  0.0000000 )
                  (  0.0000000 -1.0000000  0.0000000 )       (  0.0000000 )
                  ( -0.0000000  0.0000000 -1.0000000 )       (  0.5773503 )


      isym =  5     120 deg rotation - cart. axis [-1,-1,-1]     

 cryst.   s( 5) = (     0          0          1      )
                  (     1          0          0      )
                  (     0          1          0      )

 cart.    s( 5) = ( -0.0000000  1.0000000  0.0000000 )
                  ( -0.0000000  0.0000000  1.0000000 )
                  (  1.0000000 -0.0000000 -0.0000000 )


      isym =  6     120 deg rotation - cart. axis [-1,1,1]       

 cryst.   s( 6) = (     1          0          0      )    f =(  0.0000000 )
                  (     0          0          1      )       (  0.5000000 )
                  (    -1         -1         -1      )       (  0.5000000 )

 cart.    s( 6) = ( -0.0000000 -1.0000000  0.0000000 )    f =(  0.5773503 )
                  (  0.0000000 -0.0000000  1.0000000 )       (  0.0000000 )
                  ( -1.0000000  0.0000000 -0.0000000 )       (  0.0000000 )


      isym =  7     120 deg rotation - cart. axis [1,1,-1]       

 cryst.   s( 7) = (     0          1          0      )    f =(  0.5000000 )
                  (    -1         -1         -1      )       (  0.5000000 )
                  (     0          0          1      )       (  0.0000000 )

 cart.    s( 7) = ( -0.0000000  1.0000000 -0.0000000 )    f =(  0.0000000 )
                  (  0.0000000  0.0000000 -1.0000000 )       (  0.0000000 )
                  ( -1.0000000 -0.0000000  0.0000000 )       (  0.5773503 )


      isym =  8     120 deg rotation - cart. axis [1,-1,1]       

 cryst.   s( 8) = (    -1         -1         -1      )    f =(  0.5000000 )
                  (     0          1          0      )       (  0.0000000 )
                  (     1          0          0      )       (  0.5000000 )

 cart.    s( 8) = (  0.0000000 -1.0000000 -0.0000000 )    f =(  0.0000000 )
                  (  0.0000000 -0.0000000 -1.0000000 )       (  0.5773503 )
                  (  1.0000000  0.0000000  0.0000000 )       (  0.0000000 )


      isym =  9     120 deg rotation - cart. axis [1,1,1]        

 cryst.   s( 9) = (     0          1          0      )
                  (     0          0          1      )
                  (     1          0          0      )

 cart.    s( 9) = (  0.0000000 -0.0000000  1.0000000 )
                  (  1.0000000 -0.0000000  0.0000000 )
                  ( -0.0000000  1.0000000 -0.0000000 )


      isym = 10     120 deg rotation - cart. axis [-1,1,-1]      

 cryst.   s(10) = (     0          0          1      )    f =(  0.5000000 )
                  (     0          1          0      )       (  0.5000000 )
                  (    -1         -1         -1      )       (  0.0000000 )

 cart.    s(10) = ( -0.0000000 -0.0000000  1.0000000 )    f =(  0.0000000 )
                  ( -1.0000000  0.0000000  0.0000000 )       (  0.0000000 )
                  (  0.0000000 -1.0000000 -0.0000000 )       (  0.5773503 )


      isym = 11     120 deg rotation - cart. axis [1,-1,-1]      

 cryst.   s(11) = (     1          0          0      )    f =(  0.5000000 )
                  (    -1         -1         -1      )       (  0.0000000 )
                  (     0          1          0      )       (  0.5000000 )

 cart.    s(11) = ( -0.0000000  0.0000000 -1.0000000 )    f =(  0.0000000 )
                  ( -1.0000000  0.0000000 -0.0000000 )       (  0.5773503 )
                  (  0.0000000  1.0000000  0.0000000 )       (  0.0000000 )


      isym = 12     120 deg rotation - cart. axis [-1,-1,1]      

 cryst.   s(12) = (    -1         -1         -1      )    f =(  0.0000000 )
                  (     1          0          0      )       (  0.5000000 )
                  (     0          0          1      )       (  0.5000000 )

 cart.    s(12) = (  0.0000000 -0.0000000 -1.0000000 )    f =(  0.5773503 )
                  (  1.0000000  0.0000000 -0.0000000 )       (  0.0000000 )
                  ( -0.0000000 -1.0000000  0.0000000 )       (  0.0000000 )


      isym = 13     inversion                                    

 cryst.   s(13) = (    -1          0          0      )
                  (     0         -1          0      )
                  (     0          0         -1      )

 cart.    s(13) = ( -1.0000000 -0.0000000  0.0000000 )
                  ( -0.0000000 -1.0000000  0.0000000 )
                  (  0.0000000  0.0000000 -1.0000000 )


      isym = 14     inv. 180 deg rotation - cart. axis [0,0,1]   

 cryst.   s(14) = (     0         -1          0      )    f =(  0.5000000 )
                  (    -1          0          0      )       (  0.0000000 )
                  (     1          1          1      )       (  0.5000000 )

 cart.    s(14) = (  1.0000000  0.0000000 -0.0000000 )    f =(  0.0000000 )
                  (  0.0000000  1.0000000 -0.0000000 )       (  0.5773503 )
                  ( -0.0000000 -0.0000000 -1.0000000 )       (  0.0000000 )


      isym = 15     inv. 180 deg rotation - cart. axis [0,1,0]   

 cryst.   s(15) = (     0          0         -1      )    f =(  0.0000000 )
                  (     1          1          1      )       (  0.5000000 )
                  (    -1          0          0      )       (  0.5000000 )

 cart.    s(15) = (  1.0000000 -0.0000000  0.0000000 )    f =(  0.5773503 )
                  (  0.0000000 -1.0000000 -0.0000000 )       (  0.0000000 )
                  ( -0.0000000  0.0000000  1.0000000 )       (  0.0000000 )


      isym = 16     inv. 180 deg rotation - cart. axis [1,0,0]   

 cryst.   s(16) = (     1          1          1      )    f =(  0.5000000 )
                  (     0          0         -1      )       (  0.5000000 )
                  (     0         -1          0      )       (  0.0000000 )

 cart.    s(16) = ( -1.0000000  0.0000000  0.0000000 )    f =(  0.0000000 )
                  ( -0.0000000  1.0000000 -0.0000000 )       (  0.0000000 )
                  (  0.0000000 -0.0000000  1.0000000 )       (  0.5773503 )


      isym = 17     inv. 120 deg rotation - cart. axis [-1,-1,-1]

 cryst.   s(17) = (     0          0         -1      )
                  (    -1          0          0      )
                  (     0         -1          0      )

 cart.    s(17) = (  0.0000000 -1.0000000 -0.0000000 )
                  (  0.0000000 -0.0000000 -1.0000000 )
                  ( -1.0000000  0.0000000  0.0000000 )


      isym = 18     inv. 120 deg rotation - cart. axis [-1,1,1]  

 cryst.   s(18) = (    -1          0          0      )    f =(  0.0000000 )
                  (     0          0         -1      )       (  0.5000000 )
                  (     1          1          1      )       (  0.5000000 )

 cart.    s(18) = (  0.0000000  1.0000000 -0.0000000 )    f =(  0.5773503 )
                  ( -0.0000000  0.0000000 -1.0000000 )       (  0.0000000 )
                  (  1.0000000 -0.0000000  0.0000000 )       (  0.0000000 )


      isym = 19     inv. 120 deg rotation - cart. axis [1,1,-1]  

 cryst.   s(19) = (     0         -1          0      )    f =(  0.5000000 )
                  (     1          1          1      )       (  0.5000000 )
                  (     0          0         -1      )       (  0.0000000 )

 cart.    s(19) = (  0.0000000 -1.0000000  0.0000000 )    f =(  0.0000000 )
                  ( -0.0000000 -0.0000000  1.0000000 )       (  0.0000000 )
                  (  1.0000000  0.0000000 -0.0000000 )       (  0.5773503 )


      isym = 20     inv. 120 deg rotation - cart. axis [1,-1,1]  

 cryst.   s(20) = (     1          1          1      )    f =(  0.5000000 )
                  (     0         -1          0      )       (  0.0000000 )
                  (    -1          0          0      )       (  0.5000000 )

 cart.    s(20) = ( -0.0000000  1.0000000  0.0000000 )    f =(  0.0000000 )
                  ( -0.0000000  0.0000000  1.0000000 )       (  0.5773503 )
                  ( -1.0000000 -0.0000000 -0.0000000 )       (  0.0000000 )


      isym = 21     inv. 120 deg rotation - cart. axis [1,1,1]   

 cryst.   s(21) = (     0         -1          0      )
                  (     0          0         -1      )
                  (    -1          0          0      )

 cart.    s(21) = ( -0.0000000  0.0000000 -1.0000000 )
                  ( -1.0000000  0.0000000 -0.0000000 )
                  (  0.0000000 -1.0000000  0.0000000 )


      isym = 22     inv. 120 deg rotation - cart. axis [-1,1,-1] 

 cryst.   s(22) = (     0          0         -1      )    f =(  0.5000000 )
                  (     0         -1          0      )       (  0.5000000 )
                  (     1          1          1      )       (  0.0000000 )

 cart.    s(22) = (  0.0000000  0.0000000 -1.0000000 )    f =(  0.0000000 )
                  (  1.0000000 -0.0000000 -0.0000000 )       (  0.0000000 )
                  ( -0.0000000  1.0000000  0.0000000 )       (  0.5773503 )


      isym = 23     inv. 120 deg rotation - cart. axis [1,-1,-1] 

 cryst.   s(23) = (    -1          0          0      )    f =(  0.5000000 )
                  (     1          1          1      )       (  0.0000000 )
                  (     0         -1          0      )       (  0.5000000 )

 cart.    s(23) = (  0.0000000 -0.0000000  1.0000000 )    f =(  0.0000000 )
                  (  1.0000000 -0.0000000  0.0000000 )       (  0.5773503 )
                  ( -0.0000000 -1.0000000 -0.0000000 )       (  0.0000000 )


      isym = 24     inv. 120 deg rotation - cart. axis [-1,-1,1] 

 cryst.   s(24) = (     1          1          1      )    f =(  0.0000000 )
                  (    -1          0          0      )       (  0.5000000 )
                  (     0          0         -1      )       (  0.5000000 )

 cart.    s(24) = ( -0.0000000  0.0000000  1.0000000 )    f =(  0.5773503 )
                  ( -1.0000000 -0.0000000  0.0000000 )       (  0.0000000 )
                  (  0.0000000  1.0000000 -0.0000000 )       (  0.0000000 )


   Cartesian axes

     site n.     atom                  positions (alat units)
         1        In     tau(   1) = (   0.2886751   0.2886751   0.2886751  )
         2        In     tau(   2) = (  -0.2886751   0.2886751   0.2886751  )
         3        In     tau(   3) = (   0.2886751   0.2886751  -0.2886751  )
         4        In     tau(   4) = (   0.2886751  -0.2886751   0.2886751  )
         5        In     tau(   5) = (   0.5383142   0.5773503  -0.2886751  )
         6        In     tau(   6) = (   0.0390360   0.5773503   0.2886751  )
         7        In     tau(   7) = (  -0.2886751   0.5383142   0.5773503  )
         8        In     tau(   8) = (   0.2886751   0.0390360   0.5773503  )
         9        In     tau(   9) = (   0.5773503  -0.2886751   0.5383142  )
        10        In     tau(  10) = (   0.5773503   0.2886751   0.0390360  )
        11        In     tau(  11) = (   0.0390360   0.0000000   0.8660254  )
        12        In     tau(  12) = (   0.5383142  -0.0000000   0.2886751  )
        13        In     tau(  13) = (   0.8660254   0.0390360  -0.0000000  )
        14        In     tau(  14) = (   0.2886751   0.5383142   0.0000000  )
        15        In     tau(  15) = (   0.0000000   0.8660254   0.0390360  )
        16        In     tau(  16) = (   0.0000000   0.2886751   0.5383142  )
        17        O      tau(  17) = (   0.4500235   0.1783700   0.4415309  )
        18        O      tau(  18) = (   0.7046770   0.3989803   0.4415309  )
        19        O      tau(  19) = (   0.1273267   0.1783700   0.7131696  )
        20        O      tau(  20) = (  -0.1273267   0.3989803   0.7131696  )
        21        O      tau(  21) = (   0.4415309   0.4500235   0.1783700  )
        22        O      tau(  22) = (   0.4415309   0.7046770   0.3989803  )
        23        O      tau(  23) = (   0.7131696   0.1273267   0.1783700  )
        24        O      tau(  24) = (   0.7131696  -0.1273267   0.3989803  )
        25        O      tau(  25) = (   0.1783700   0.4415309   0.4500235  )
        26        O      tau(  26) = (   0.3989803   0.4415309   0.7046770  )
        27        O      tau(  27) = (   0.1783700   0.7131696   0.1273267  )
        28        O      tau(  28) = (   0.3989803   0.7131696  -0.1273267  )
        29        O      tau(  29) = (   0.1273267   0.3989803   0.1358194  )
        30        O      tau(  30) = (  -0.1273267   0.1783700   0.1358194  )
        31        O      tau(  31) = (   0.4500235   0.3989803  -0.1358194  )
        32        O      tau(  32) = (   0.7046770   0.1783700  -0.1358194  )
        33        O      tau(  33) = (   0.1358194   0.1273267   0.3989803  )
        34        O      tau(  34) = (   0.1358194  -0.1273267   0.1783700  )
        35        O      tau(  35) = (  -0.1358194   0.4500235   0.3989803  )
        36        O      tau(  36) = (  -0.1358194   0.7046770   0.1783700  )
        37        O      tau(  37) = (   0.3989803   0.1358194   0.1273267  )
        38        O      tau(  38) = (   0.1783700   0.1358194  -0.1273267  )
        39        O      tau(  39) = (   0.3989803  -0.1358194   0.4500235  )
        40        O      tau(  40) = (   0.1783700  -0.1358194   0.7046770  )

   Crystallographic axes

     site n.     atom                  positions (cryst. coord.)
         1        In     tau(   1) = (  0.5000000  0.5000000  0.5000000  )
         2        In     tau(   2) = (  0.5000000  0.0000000 -0.0000000  )
         3        In     tau(   3) = ( -0.0000000 -0.0000000  0.5000000  )
         4        In     tau(   4) = (  0.0000000  0.5000000 -0.0000000  )
         5        In     tau(   5) = (  0.2500000  0.2161938  0.9661938  )
         6        In     tau(   6) = (  0.7500000  0.2838062  0.5338062  )
         7        In     tau(   7) = (  0.9661938  0.2500000  0.2161938  )
         8        In     tau(   8) = (  0.5338062  0.7500000  0.2838062  )
         9        In     tau(   9) = (  0.2161938  0.9661938  0.2500000  )
        10        In     tau(  10) = (  0.2838062  0.5338062  0.7500000  )
        11        In     tau(  11) = (  0.7500000  0.7838062  0.0338062  )
        12        In     tau(  12) = (  0.2500000  0.7161938  0.4661938  )
        13        In     tau(  13) = (  0.0338062  0.7500000  0.7838062  )
        14        In     tau(  14) = (  0.4661938  0.2500000  0.7161938  )
        15        In     tau(  15) = (  0.7838062  0.0338062  0.7500000  )
        16        In     tau(  16) = (  0.7161938  0.4661938  0.2500000  )
        17        O      tau(  17) = (  0.5368499  0.7721088  0.5442047  )
        18        O      tau(  18) = (  0.7279041  0.9926452  0.9557953  )
        19        O      tau(  19) = (  0.7720959  0.7278912  0.2647411  )
        20        O      tau(  20) = (  0.9631501  0.5073548  0.2352589  )
        21        O      tau(  21) = (  0.5442047  0.5368499  0.7721088  )
        22        O      tau(  22) = (  0.9557953  0.7279041  0.9926452  )
        23        O      tau(  23) = (  0.2647411  0.7720959  0.7278912  )
        24        O      tau(  24) = (  0.2352589  0.9631501  0.5073548  )
        25        O      tau(  25) = (  0.7721088  0.5442047  0.5368499  )
        26        O      tau(  26) = (  0.9926452  0.9557953  0.7279041  )
        27        O      tau(  27) = (  0.7278912  0.2647411  0.7720959  )
        28        O      tau(  28) = (  0.5073548  0.2352589  0.9631501  )
        29        O      tau(  29) = (  0.4631501  0.2278912  0.4557953  )
        30        O      tau(  30) = (  0.2720959  0.0073548  0.0442047  )
        31        O      tau(  31) = (  0.2279041  0.2721088  0.7352589  )
        32        O      tau(  32) = (  0.0368499  0.4926452  0.7647411  )
        33        O      tau(  33) = (  0.4557953  0.4631501  0.2278912  )
        34        O      tau(  34) = (  0.0442047  0.2720959  0.0073548  )
        35        O      tau(  35) = (  0.7352589  0.2279041  0.2721088  )
        36        O      tau(  36) = (  0.7647411  0.0368499  0.4926452  )
        37        O      tau(  37) = (  0.2278912  0.4557953  0.4631501  )
        38        O      tau(  38) = (  0.0073548  0.0442047  0.2720959  )
        39        O      tau(  39) = (  0.2721088  0.7352589  0.2279041  )
        40        O      tau(  40) = (  0.4926452  0.7647411  0.0368499  )

     number of k points=     4
                       cart. coord. in units 2pi/alat
        k(    1) = (   0.0000000   0.0000000   0.0000000), wk =   0.0740741
        k(    2) = (   0.2886751   0.2886751  -0.0000000), wk =   0.8888889
        k(    3) = (   0.5773503   0.2886751   0.2886751), wk =   0.5925926
        k(    4) = (  -0.0000000  -0.0000000   0.5773503), wk =   0.4444444

                       cryst. coord.
        k(    1) = (   0.0000000   0.0000000   0.0000000), wk =   0.0740741
        k(    2) = (  -0.0000000   0.0000000   0.3333333), wk =   0.8888889
        k(    3) = (  -0.0000000   0.3333333   0.3333333), wk =   0.5925926
        k(    4) = (   0.3333333   0.3333333  -0.3333333), wk =   0.4444444

     Dense  grid:   356799 G-vectors     FFT dimensions: ( 100, 100, 100)

     Dynamical RAM for                 wfc:     130.75 MB

     Dynamical RAM for     wfc (w. buffer):     653.77 MB

     Dynamical RAM for           str. fact:      10.89 MB

     Dynamical RAM for           local pot:       0.00 MB

     Dynamical RAM for          nlocal pot:     326.89 MB

     Dynamical RAM for                qrad:       2.87 MB

     Dynamical RAM for          rho,v,vnew:      39.22 MB

     Dynamical RAM for               rhoin:      13.07 MB

     Dynamical RAM for            rho*nmix:      87.11 MB

     Dynamical RAM for           G-vectors:      23.14 MB

     Dynamical RAM for          h,s,v(r/c):       6.75 MB

     Dynamical RAM for          <psi|beta>:       1.41 MB

     Dynamical RAM for                 psi:     261.51 MB

     Dynamical RAM for                hpsi:     261.51 MB

     Dynamical RAM for      wfcinit/wfcrot:     262.35 MB

     Estimated static dynamical RAM per process >       1.10 GB

     Estimated max dynamical RAM per process >       1.70 GB

     Initial potential from superposition of free atoms

     starting charge     350.3039, renormalised to     352.0000
     Starting wfcs are random

     total cpu time spent up to now is        1.6 secs

     Self-consistent Calculation
[tb_dev] Currently allocated     4.29E+00 Mbytes, locked:    0 /   5
[tb_pin] Currently allocated     0.00E+00 Mbytes, locked:    0 /   0

     iteration #  1     ecut=    80.00 Ry     beta= 0.30
     Davidson diagonalization with overlap

---- Real-time Memory Report at c_bands before calling an iterative solver
          1766 MiB given to the printing process from OS
             0 MiB allocation reported by mallinfo(arena+hblkhd)
         94900 MiB available memory on the node where the printing process lives
     GPU memory used/free/total (MiB): 2902 / 92408 / 95311
------------------
     ethr =  1.00E-02,  avg # of iterations = 12.0

     total cpu time spent up to now is        3.7 secs

     total energy              =   -2439.81600389 Ry
     estimated scf accuracy    <       9.67138101 Ry
[tb_dev] Currently allocated     1.53E-04 Mbytes, locked:    0 /   1
[tb_pin] Currently allocated     0.00E+00 Mbytes, locked:    0 /   0

     iteration #  2     ecut=    80.00 Ry     beta= 0.30
     Davidson diagonalization with overlap

---- Real-time Memory Report at c_bands before calling an iterative solver
          1839 MiB given to the printing process from OS
             0 MiB allocation reported by mallinfo(arena+hblkhd)
         94873 MiB available memory on the node where the printing process lives
     GPU memory used/free/total (MiB): 3530 / 91780 / 95311
------------------
     ethr =  2.75E-03,  avg # of iterations =  2.0

     total cpu time spent up to now is        4.5 secs

     total energy              =   -2441.18358717 Ry
     estimated scf accuracy    <       0.43769976 Ry
[tb_dev] Currently allocated     1.53E-04 Mbytes, locked:    0 /   1
[tb_pin] Currently allocated     0.00E+00 Mbytes, locked:    0 /   0

     iteration #  3     ecut=    80.00 Ry     beta= 0.30
     Davidson diagonalization with overlap

---- Real-time Memory Report at c_bands before calling an iterative solver
          1866 MiB given to the printing process from OS
             0 MiB allocation reported by mallinfo(arena+hblkhd)
         94862 MiB available memory on the node where the printing process lives
     GPU memory used/free/total (MiB): 3530 / 91780 / 95311
------------------
     ethr =  1.24E-04,  avg # of iterations =  4.5

     total cpu time spent up to now is        5.4 secs

     total energy              =   -2441.23275372 Ry
     estimated scf accuracy    <       0.13300436 Ry
[tb_dev] Currently allocated     1.53E-04 Mbytes, locked:    0 /   1
[tb_pin] Currently allocated     0.00E+00 Mbytes, locked:    0 /   0

     iteration #  4     ecut=    80.00 Ry     beta= 0.30
     Davidson diagonalization with overlap

---- Real-time Memory Report at c_bands before calling an iterative solver
          1892 MiB given to the printing process from OS
             0 MiB allocation reported by mallinfo(arena+hblkhd)
         94855 MiB available memory on the node where the printing process lives
     GPU memory used/free/total (MiB): 3592 / 91718 / 95311
------------------
     ethr =  3.78E-05,  avg # of iterations =  3.5

     total cpu time spent up to now is        6.3 secs

     total energy              =   -2441.23834638 Ry
     estimated scf accuracy    <       0.01304545 Ry
[tb_dev] Currently allocated     1.53E-04 Mbytes, locked:    0 /   1
[tb_pin] Currently allocated     0.00E+00 Mbytes, locked:    0 /   0

     iteration #  5     ecut=    80.00 Ry     beta= 0.30
     Davidson diagonalization with overlap

---- Real-time Memory Report at c_bands before calling an iterative solver
          1917 MiB given to the printing process from OS
             0 MiB allocation reported by mallinfo(arena+hblkhd)
         94662 MiB available memory on the node where the printing process lives
     GPU memory used/free/total (MiB): 3592 / 91718 / 95311
------------------
     ethr =  3.71E-06,  avg # of iterations =  7.3

     total cpu time spent up to now is        7.3 secs

     total energy              =   -2441.24201093 Ry
     estimated scf accuracy    <       0.00315589 Ry
[tb_dev] Currently allocated     1.53E-04 Mbytes, locked:    0 /   1
[tb_pin] Currently allocated     0.00E+00 Mbytes, locked:    0 /   0

     iteration #  6     ecut=    80.00 Ry     beta= 0.30
     Davidson diagonalization with overlap

---- Real-time Memory Report at c_bands before calling an iterative solver
          1940 MiB given to the printing process from OS
             0 MiB allocation reported by mallinfo(arena+hblkhd)
         94609 MiB available memory on the node where the printing process lives
     GPU memory used/free/total (MiB): 3592 / 91718 / 95311
------------------
     ethr =  8.97E-07,  avg # of iterations =  2.0

     total cpu time spent up to now is        8.2 secs

     total energy              =   -2441.24245163 Ry
     estimated scf accuracy    <       0.00016445 Ry
[tb_dev] Currently allocated     1.53E-04 Mbytes, locked:    0 /   1
[tb_pin] Currently allocated     0.00E+00 Mbytes, locked:    0 /   0

     iteration #  7     ecut=    80.00 Ry     beta= 0.30
     Davidson diagonalization with overlap

---- Real-time Memory Report at c_bands before calling an iterative solver
          1963 MiB given to the printing process from OS
             0 MiB allocation reported by mallinfo(arena+hblkhd)
         94718 MiB available memory on the node where the printing process lives
     GPU memory used/free/total (MiB): 3592 / 91718 / 95311
------------------
     ethr =  4.67E-08,  avg # of iterations =  3.0

     total cpu time spent up to now is        9.2 secs

     total energy              =   -2441.24251924 Ry
     estimated scf accuracy    <       0.00005436 Ry
[tb_dev] Currently allocated     1.53E-04 Mbytes, locked:    0 /   1
[tb_pin] Currently allocated     0.00E+00 Mbytes, locked:    0 /   0

     iteration #  8     ecut=    80.00 Ry     beta= 0.30
     Davidson diagonalization with overlap

---- Real-time Memory Report at c_bands before calling an iterative solver
          1986 MiB given to the printing process from OS
             0 MiB allocation reported by mallinfo(arena+hblkhd)
         94760 MiB available memory on the node where the printing process lives
     GPU memory used/free/total (MiB): 3616 / 91694 / 95311
------------------
     ethr =  1.54E-08,  avg # of iterations =  2.0

     total cpu time spent up to now is       10.2 secs

     total energy              =   -2441.24253136 Ry
     estimated scf accuracy    <       0.00000076 Ry
[tb_dev] Currently allocated     1.53E-04 Mbytes, locked:    0 /   1
[tb_pin] Currently allocated     0.00E+00 Mbytes, locked:    0 /   0

     iteration #  9     ecut=    80.00 Ry     beta= 0.30
     Davidson diagonalization with overlap

---- Real-time Memory Report at c_bands before calling an iterative solver
          2000 MiB given to the printing process from OS
             0 MiB allocation reported by mallinfo(arena+hblkhd)
         94775 MiB available memory on the node where the printing process lives
     GPU memory used/free/total (MiB): 3682 / 91628 / 95311
------------------
     ethr =  2.15E-10,  avg # of iterations =  4.0

     total cpu time spent up to now is       11.3 secs

     total energy              =   -2441.24253155 Ry
     estimated scf accuracy    <       0.00000315 Ry
[tb_dev] Currently allocated     1.53E-04 Mbytes, locked:    0 /   1
[tb_pin] Currently allocated     0.00E+00 Mbytes, locked:    0 /   0

     iteration # 10     ecut=    80.00 Ry     beta= 0.30
     Davidson diagonalization with overlap

---- Real-time Memory Report at c_bands before calling an iterative solver
          2017 MiB given to the printing process from OS
             0 MiB allocation reported by mallinfo(arena+hblkhd)
         94785 MiB available memory on the node where the printing process lives
     GPU memory used/free/total (MiB): 3682 / 91628 / 95311
------------------
     ethr =  2.15E-10,  avg # of iterations =  3.0

     total cpu time spent up to now is       12.3 secs

     total energy              =   -2441.24253193 Ry
     estimated scf accuracy    <       0.00000012 Ry
[tb_dev] Currently allocated     1.53E-04 Mbytes, locked:    0 /   1
[tb_pin] Currently allocated     0.00E+00 Mbytes, locked:    0 /   0

     iteration # 11     ecut=    80.00 Ry     beta= 0.30
     Davidson diagonalization with overlap

---- Real-time Memory Report at c_bands before calling an iterative solver
          2028 MiB given to the printing process from OS
             0 MiB allocation reported by mallinfo(arena+hblkhd)
         94758 MiB available memory on the node where the printing process lives
     GPU memory used/free/total (MiB): 3682 / 91628 / 95311
------------------
     ethr =  3.42E-11,  avg # of iterations =  3.0

     total cpu time spent up to now is       13.3 secs

     total energy              =   -2441.24253197 Ry
     estimated scf accuracy    <          2.7E-09 Ry
[tb_dev] Currently allocated     1.53E-04 Mbytes, locked:    0 /   1
[tb_pin] Currently allocated     0.00E+00 Mbytes, locked:    0 /   0

     iteration # 12     ecut=    80.00 Ry     beta= 0.30
     Davidson diagonalization with overlap

---- Real-time Memory Report at c_bands before calling an iterative solver
          2028 MiB given to the printing process from OS
             0 MiB allocation reported by mallinfo(arena+hblkhd)
         94867 MiB available memory on the node where the printing process lives
     GPU memory used/free/total (MiB): 3682 / 91628 / 95311
------------------
     ethr =  7.57E-13,  avg # of iterations =  3.5

     total cpu time spent up to now is       14.4 secs

     total energy              =   -2441.24253197 Ry
     estimated scf accuracy    <          4.6E-09 Ry
[tb_dev] Currently allocated     1.53E-04 Mbytes, locked:    0 /   1
[tb_pin] Currently allocated     0.00E+00 Mbytes, locked:    0 /   0

     iteration # 13     ecut=    80.00 Ry     beta= 0.30
     Davidson diagonalization with overlap

---- Real-time Memory Report at c_bands before calling an iterative solver
          2028 MiB given to the printing process from OS
             0 MiB allocation reported by mallinfo(arena+hblkhd)
         94828 MiB available memory on the node where the printing process lives
     GPU memory used/free/total (MiB): 3682 / 91628 / 95311
------------------
     ethr =  7.57E-13,  avg # of iterations =  3.0

     total cpu time spent up to now is       15.3 secs

     End of self-consistent calculation

          k = 0.0000 0.0000 0.0000 ( 44411 PWs)   bands (ev):

    -8.5052  -7.9579  -7.9579  -7.8904  -7.8904  -7.8904  -7.8506  -7.8506
    -7.8506  -7.8086  -7.8086  -7.8086  -7.6131  -7.6131  -7.6131  -7.6030
    -7.6030  -7.5367  -7.5367  -7.5367  -7.4755  -7.4755  -7.4755  -7.2447
    -3.6387  -3.6387  -3.6387  -3.5563  -3.5563  -3.5563  -3.5472  -3.5446
    -3.5446  -3.5122  -3.5122  -3.5122  -3.4883  -3.4749  -3.4749  -3.4749
    -3.4715  -3.4715  -3.4528  -3.4521  -3.4521  -3.4521  -3.4375  -3.4375
    -3.4375  -3.4265  -3.4265  -3.4071  -3.4071  -3.4071  -3.3929  -3.3929
    -3.3929  -3.3673  -3.3673  -3.3518  -3.3518  -3.3518  -3.3467  -3.3425
    -3.3425  -3.3425  -3.3342  -3.3175  -3.3175  -3.2838  -3.2838  -3.2838
    -3.2625  -3.2625  -3.2625  -3.2405  -3.2405  -3.2405  -3.2218  -3.2218
    -3.2218  -3.2055  -3.2055  -3.2047  -3.1418  -3.0929  -3.0929  -3.0929
    -3.0653  -3.0653  -3.0653  -3.0461  -3.0461  -3.0302  -3.0302  -3.0302
    -2.5707  -2.5707  -2.5707  -2.5127  -2.5127  -2.1794  -2.1794  -2.1794
     3.8341   3.8520   3.8520   4.3432   4.3432   4.4594   4.4594   4.4594
     4.6773   4.6773   4.6773   4.8392   4.8392   4.8392   5.0418   5.3970
     5.3970   5.3970   5.8238   5.8238   5.8238   6.0404   6.1006   6.1006
     6.1006   6.1589   6.1589   6.1589   6.5835   6.8266   6.8266   6.8266
     6.8788   6.8788   7.2524   7.2524   7.2524   7.3004   7.3004   7.3004
     7.3889   7.3889   7.3889   7.4374   7.5122   7.5122   7.5547   7.5547
     7.5547   7.8900   7.8900   8.1886   8.1886   8.1886   8.2154   8.2154
     8.2154   8.4921   8.4921   8.4921   8.5943   8.5943   8.5943   8.6432
     8.6432   8.6755   8.6862   8.6862   8.6862   8.8993   8.8993   8.8993
     9.8209  14.0839  14.0839  14.0839  14.1640  14.1966  14.1966  14.2084
    14.2084  14.2084  14.3190  14.3190  14.3190  14.9989  14.9989  15.1121

     occupation numbers 
     1.0000   1.0000   1.0000   1.0000   1.0000   1.0000   1.0000   1.0000
     1.0000   1.0000   1.0000   1.0000   1.0000   1.0000   1.0000   1.0000
     1.0000   1.0000   1.0000   1.0000   1.0000   1.0000   1.0000   1.0000
     1.0000   1.0000   1.0000   1.0000   1.0000   1.0000   1.0000   1.0000
     1.0000   1.0000   1.0000   1.0000   1.0000   1.0000   1.0000   1.0000
     1.0000   1.0000   1.0000   1.0000   1.0000   1.0000   1.0000   1.0000
     1.0000   1.0000   1.0000   1.0000   1.0000   1.0000   1.0000   1.0000
     1.0000   1.0000   1.0000   1.0000   1.0000   1.0000   1.0000   1.0000
     1.0000   1.0000   1.0000   1.0000   1.0000   1.0000   1.0000   1.0000
     1.0000   1.0000   1.0000   1.0000   1.0000   1.0000   1.0000   1.0000
     1.0000   1.0000   1.0000   1.0000   1.0000   1.0000   1.0000   1.0000
     1.0000   1.0000   1.0000   1.0000   1.0000   1.0000   1.0000   1.0000
     1.0000   1.0000   1.0000   1.0000   1.0000   1.0000   1.0000   1.0000
     1.0000   1.0000   1.0000   1.0000   1.0000   1.0000   1.0000   1.0000
     1.0000   1.0000   1.0000   1.0000   1.0000   1.0000   1.0000   1.0000
     1.0000   1.0000   1.0000   1.0000   1.0000   1.0000   1.0000   1.0000
     1.0000   1.0000   1.0000   1.0000   1.0000   1.0000   1.0000   1.0000
     1.0000   1.0000   1.0000   1.0000   1.0000   1.0000   1.0000   1.0000
     1.0000   1.0000   1.0000   1.0000   1.0000   1.0000   1.0000   1.0000
     1.0000   1.0000   1.0000   1.0000   1.0000   1.0000   1.0000   1.0000
     1.0000   1.0000   1.0000   1.0000   1.0000   1.0000   1.0000   1.0000
     1.0000   1.0000   1.0000   1.0000   1.0000   1.0000   1.0000   1.0000
     0.0000   0.0000   0.0000   0.0000   0.0000   0.0000   0.0000   0.0000
     0.0000   0.0000   0.0000   0.0000   0.0000   0.0000   0.0000   0.0000

          k = 0.2887 0.2887-0.0000 ( 44579 PWs)   bands (ev):

    -8.3941  -8.1315  -8.0128  -7.9881  -7.9429  -7.9182  -7.8316  -7.8109
    -7.8034  -7.7781  -7.7607  -7.7112  -7.6503  -7.6207  -7.6105  -7.5848
    -7.5743  -7.5608  -7.5292  -7.5197  -7.4842  -7.4642  -7.4219  -7.2997
    -3.6163  -3.6048  -3.5795  -3.5779  -3.5769  -3.5565  -3.5511  -3.5462
    -3.5369  -3.5337  -3.5309  -3.5183  -3.5139  -3.5136  -3.5090  -3.4915
    -3.4774  -3.4722  -3.4698  -3.4543  -3.4537  -3.4475  -3.4437  -3.4374
    -3.4301  -3.4295  -3.4253  -3.4164  -3.4104  -3.4103  -3.4046  -3.3981
    -3.3920  -3.3794  -3.3638  -3.3597  -3.3509  -3.3493  -3.3428  -3.3317
    -3.3255  -3.3234  -3.3170  -3.3116  -3.3059  -3.2874  -3.2837  -3.2773
    -3.2603  -3.2500  -3.2447  -3.2411  -3.2341  -3.2294  -3.2234  -3.2210
    -3.2204  -3.2139  -3.2071  -3.2064  -3.1947  -3.1731  -3.1570  -3.1456
    -3.1274  -3.0949  -3.0644  -2.9877  -2.9632  -2.9594  -2.8792  -2.7182
    -2.6683  -2.5592  -2.5397  -2.5103  -2.4680  -2.2911  -2.2862  -2.2635
     3.8547   3.9983   4.0287   4.0429   4.2134   4.2648   4.2991   4.3617
     4.3740   4.4751   4.8299   4.8499   5.1012   5.1187   5.3640   5.4099
     5.4804   5.6258   5.8135   5.8563   5.9830   5.9872   6.0224   6.0964
     6.1236   6.1822   6.3325   6.3843   6.5428   6.5480   6.7664   6.7684
     6.8118   6.8838   6.9545   7.0239   7.0601   7.1622   7.1755   7.2917
     7.4167   7.4370   7.4525   7.5372   7.5986   7.6377   7.6966   7.7964
     7.8873   7.8890   7.9477   7.9926   8.0461   8.0768   8.1213   8.1997
     8.2596   8.2977   8.3870   8.4797   8.4807   8.5170   8.5562   8.6326
     8.6495   8.6528   8.6850   8.7440   8.8093   8.8220   8.8693   8.9005
    11.0216  12.7386  13.6410  13.6494  13.7195  13.7380  14.3027  14.4083
    14.5676  14.6529  14.6578  14.7280  14.7782  14.8702  15.0423  15.1934

     occupation numbers 
     1.0000   1.0000   1.0000   1.0000   1.0000   1.0000   1.0000   1.0000
     1.0000   1.0000   1.0000   1.0000   1.0000   1.0000   1.0000   1.0000
     1.0000   1.0000   1.0000   1.0000   1.0000   1.0000   1.0000   1.0000
     1.0000   1.0000   1.0000   1.0000   1.0000   1.0000   1.0000   1.0000
     1.0000   1.0000   1.0000   1.0000   1.0000   1.0000   1.0000   1.0000
     1.0000   1.0000   1.0000   1.0000   1.0000   1.0000   1.0000   1.0000
     1.0000   1.0000   1.0000   1.0000   1.0000   1.0000   1.0000   1.0000
     1.0000   1.0000   1.0000   1.0000   1.0000   1.0000   1.0000   1.0000
     1.0000   1.0000   1.0000   1.0000   1.0000   1.0000   1.0000   1.0000
     1.0000   1.0000   1.0000   1.0000   1.0000   1.0000   1.0000   1.0000
     1.0000   1.0000   1.0000   1.0000   1.0000   1.0000   1.0000   1.0000
     1.0000   1.0000   1.0000   1.0000   1.0000   1.0000   1.0000   1.0000
     1.0000   1.0000   1.0000   1.0000   1.0000   1.0000   1.0000   1.0000
     1.0000   1.0000   1.0000   1.0000   1.0000   1.0000   1.0000   1.0000
     1.0000   1.0000   1.0000   1.0000   1.0000   1.0000   1.0000   1.0000
     1.0000   1.0000   1.0000   1.0000   1.0000   1.0000   1.0000   1.0000
     1.0000   1.0000   1.0000   1.0000   1.0000   1.0000   1.0000   1.0000
     1.0000   1.0000   1.0000   1.0000   1.0000   1.0000   1.0000   1.0000
     1.0000   1.0000   1.0000   1.0000   1.0000   1.0000   1.0000   1.0000
     1.0000   1.0000   1.0000   1.0000   1.0000   1.0000   1.0000   1.0000
     1.0000   1.0000   1.0000   1.0000   1.0000   1.0000   1.0000   1.0000
     1.0000   1.0000   1.0000   1.0000   1.0000   1.0000   1.0000   1.0000
     0.0000   0.0000   0.0000   0.0000   0.0000   0.0000   0.0000   0.0000
     0.0000   0.0000   0.0000   0.0000   0.0000   0.0000   0.0000   0.0000

          k = 0.5774 0.2887 0.2887 ( 44587 PWs)   bands (ev):

    -8.2129  -8.2073  -8.2073  -8.0471  -7.8826  -7.8826  -7.8259  -7.8073
    -7.8073  -7.7525  -7.7066  -7.7066  -7.6495  -7.6495  -7.6436  -7.5952
    -7.5952  -7.5546  -7.5362  -7.5362  -7.4429  -7.3983  -7.3796  -7.3796
    -3.5918  -3.5918  -3.5837  -3.5837  -3.5836  -3.5700  -3.5700  -3.5654
    -3.5433  -3.5302  -3.5302  -3.5175  -3.5092  -3.5092  -3.4857  -3.4857
    -3.4769  -3.4718  -3.4718  -3.4686  -3.4533  -3.4512  -3.4512  -3.4464
    -3.4464  -3.4464  -3.4389  -3.4278  -3.4278  -3.4008  -3.3988  -3.3988
    -3.3775  -3.3693  -3.3693  -3.3530  -3.3530  -3.3436  -3.3368  -3.3368
    -3.3309  -3.3122  -3.3116  -3.3116  -3.3099  -3.2858  -3.2858  -3.2774
    -3.2496  -3.2456  -3.2456  -3.2395  -3.2308  -3.2251  -3.2251  -3.2224
    -3.2197  -3.2197  -3.2129  -3.2129  -3.1907  -3.1907  -3.1814  -3.1271
    -3.1271  -3.0741  -3.0056  -3.0056  -2.9225  -2.9225  -2.8679  -2.7774
    -2.5387  -2.5158  -2.5158  -2.4660  -2.4660  -2.3930  -2.3571  -2.3571
     3.9631   3.9631   4.0196   4.0930   4.0930   4.1170   4.4134   4.4134
     4.4194   4.4679   4.5568   4.5568   5.1409   5.3929   5.5297   5.5384
     5.5384   5.7091   5.8179   5.8179   6.0059   6.0059   6.0296   6.1826
     6.1826   6.2167   6.3488   6.3488   6.5191   6.5961   6.6498   6.6498
     6.8428   6.8871   6.8871   7.0528   7.0528   7.1188   7.1188   7.1898
     7.3061   7.3768   7.3768   7.6285   7.6285   7.6786   7.7384   7.7384
     7.8129   7.9184   7.9184   8.0145   8.0704   8.1286   8.1286   8.2243
     8.3263   8.3263   8.4136   8.4136   8.4622   8.4966   8.4966   8.5048
     8.7564   8.7596   8.7596   8.7802   8.7884   8.7884   8.8110   8.8110
    12.2734  12.2734  12.2846  13.3992  14.0894  14.1097  14.1097  14.4200
    14.4200  14.5740  14.8736  14.9249  14.9249  14.9895  15.0936  15.0936

     occupation numbers 
     1.0000   1.0000   1.0000   1.0000   1.0000   1.0000   1.0000   1.0000
     1.0000   1.0000   1.0000   1.0000   1.0000   1.0000   1.0000   1.0000
     1.0000   1.0000   1.0000   1.0000   1.0000   1.0000   1.0000   1.0000
     1.0000   1.0000   1.0000   1.0000   1.0000   1.0000   1.0000   1.0000
     1.0000   1.0000   1.0000   1.0000   1.0000   1.0000   1.0000   1.0000
     1.0000   1.0000   1.0000   1.0000   1.0000   1.0000   1.0000   1.0000
     1.0000   1.0000   1.0000   1.0000   1.0000   1.0000   1.0000   1.0000
     1.0000   1.0000   1.0000   1.0000   1.0000   1.0000   1.0000   1.0000
     1.0000   1.0000   1.0000   1.0000   1.0000   1.0000   1.0000   1.0000
     1.0000   1.0000   1.0000   1.0000   1.0000   1.0000   1.0000   1.0000
     1.0000   1.0000   1.0000   1.0000   1.0000   1.0000   1.0000   1.0000
     1.0000   1.0000   1.0000   1.0000   1.0000   1.0000   1.0000   1.0000
     1.0000   1.0000   1.0000   1.0000   1.0000   1.0000   1.0000   1.0000
     1.0000   1.0000   1.0000   1.0000   1.0000   1.0000   1.0000   1.0000
     1.0000   1.0000   1.0000   1.0000   1.0000   1.0000   1.0000   1.0000
     1.0000   1.0000   1.0000   1.0000   1.0000   1.0000   1.0000   1.0000
     1.0000   1.0000   1.0000   1.0000   1.0000   1.0000   1.0000   1.0000
     1.0000   1.0000   1.0000   1.0000   1.0000   1.0000   1.0000   1.0000
     1.0000   1.0000   1.0000   1.0000   1.0000   1.0000   1.0000   1.0000
     1.0000   1.0000   1.0000   1.0000   1.0000   1.0000   1.0000   1.0000
     1.0000   1.0000   1.0000   1.0000   1.0000   1.0000   1.0000   1.0000
     1.0000   1.0000   1.0000   1.0000   1.0000   1.0000   1.0000   1.0000
     0.0000   0.0000   0.0000   0.0000   0.0000   0.0000   0.0000   0.0000
     0.0000   0.0000   0.0000   0.0000   0.0000   0.0000   0.0000   0.0000

          k =-0.0000-0.0000 0.5774 ( 44720 PWs)   bands (ev):

    -8.2892  -8.0876  -8.0799  -8.0080  -7.9904  -7.9290  -7.8865  -7.8852
    -7.8847  -7.7703  -7.6809  -7.6783  -7.6440  -7.6383  -7.6147  -7.6080
    -7.5678  -7.5316  -7.5194  -7.5038  -7.4295  -7.4252  -7.4125  -7.3439
    -3.6081  -3.5950  -3.5786  -3.5767  -3.5707  -3.5631  -3.5613  -3.5601
    -3.5558  -3.5422  -3.5249  -3.5108  -3.5054  -3.5029  -3.5001  -3.4920
    -3.4875  -3.4862  -3.4638  -3.4636  -3.4612  -3.4574  -3.4565  -3.4539
    -3.4444  -3.4417  -3.4392  -3.4175  -3.4169  -3.4135  -3.4133  -3.3917
    -3.3799  -3.3568  -3.3497  -3.3443  -3.3415  -3.3397  -3.3336  -3.3310
    -3.3247  -3.3184  -3.3128  -3.3119  -3.3117  -3.2935  -3.2849  -3.2713
    -3.2688  -3.2600  -3.2518  -3.2479  -3.2358  -3.2338  -3.2302  -3.2275
    -3.2270  -3.2251  -3.2169  -3.2113  -3.2100  -3.2014  -3.1859  -3.1721
    -3.1608  -3.1564  -2.9571  -2.8850  -2.8459  -2.7687  -2.7529  -2.6895
    -2.6198  -2.6174  -2.5681  -2.5195  -2.4727  -2.4221  -2.4009  -2.3357
     3.7642   3.8521   3.8839   3.9580   4.0719   4.0743   4.5527   4.5603
     4.6089   4.6397   4.7143   5.2671   5.3009   5.3049   5.3466   5.4037
     5.4711   5.5088   5.5898   5.6507   5.6748   5.8194   5.9631   6.1648
     6.2394   6.2775   6.3625   6.4356   6.4483   6.5864   6.6417   6.8135
     6.8723   6.8898   6.9866   7.0993   7.1004   7.1158   7.1799   7.2785
     7.3171   7.3787   7.4209   7.4399   7.5174   7.6348   7.6570   7.7089
     7.7383   7.9184   7.9976   8.0306   8.1318   8.1875   8.2975   8.3333
     8.3963   8.4093   8.4564   8.4657   8.5347   8.5457   8.6465   8.6498
     8.6516   8.6732   8.6949   8.7107   8.7188   8.7476   8.7521   8.7839
    11.6593  13.0009  13.0148  13.0358  13.0384  13.8009  14.1524  14.2016
    14.2231  14.3859  15.0655  15.0961  15.1384  15.1690  15.2890  15.4033

     occupation numbers 
     1.0000   1.0000   1.0000   1.0000   1.0000   1.0000   1.0000   1.0000
     1.0000   1.0000   1.0000   1.0000   1.0000   1.0000   1.0000   1.0000
     1.0000   1.0000   1.0000   1.0000   1.0000   1.0000   1.0000   1.0000
     1.0000   1.0000   1.0000   1.0000   1.0000   1.0000   1.0000   1.0000
     1.0000   1.0000   1.0000   1.0000   1.0000   1.0000   1.0000   1.0000
     1.0000   1.0000   1.0000   1.0000   1.0000   1.0000   1.0000   1.0000
     1.0000   1.0000   1.0000   1.0000   1.0000   1.0000   1.0000   1.0000
     1.0000   1.0000   1.0000   1.0000   1.0000   1.0000   1.0000   1.0000
     1.0000   1.0000   1.0000   1.0000   1.0000   1.0000   1.0000   1.0000
     1.0000   1.0000   1.0000   1.0000   1.0000   1.0000   1.0000   1.0000
     1.0000   1.0000   1.0000   1.0000   1.0000   1.0000   1.0000   1.0000
     1.0000   1.0000   1.0000   1.0000   1.0000   1.0000   1.0000   1.0000
     1.0000   1.0000   1.0000   1.0000   1.0000   1.0000   1.0000   1.0000
     1.0000   1.0000   1.0000   1.0000   1.0000   1.0000   1.0000   1.0000
     1.0000   1.0000   1.0000   1.0000   1.0000   1.0000   1.0000   1.0000
     1.0000   1.0000   1.0000   1.0000   1.0000   1.0000   1.0000   1.0000
     1.0000   1.0000   1.0000   1.0000   1.0000   1.0000   1.0000   1.0000
     1.0000   1.0000   1.0000   1.0000   1.0000   1.0000   1.0000   1.0000
     1.0000   1.0000   1.0000   1.0000   1.0000   1.0000   1.0000   1.0000
     1.0000   1.0000   1.0000   1.0000   1.0000   1.0000   1.0000   1.0000
     1.0000   1.0000   1.0000   1.0000   1.0000   1.0000   1.0000   1.0000
     1.0000   1.0000   1.0000   1.0000   1.0000   1.0000   1.0000   1.0000
     0.0000   0.0000   0.0000   0.0000   0.0000   0.0000   0.0000   0.0000
     0.0000   0.0000   0.0000   0.0000   0.0000   0.0000   0.0000   0.0000

     highest occupied, lowest unoccupied level (ev):     8.9005    9.8209

!    total energy              =   -2441.24253197 Ry
     estimated scf accuracy    <          4.0E-10 Ry

     The total energy is the sum of the following terms:
     one-electron contribution =    -583.17212411 Ry
     hartree contribution      =     550.73876174 Ry
     xc contribution           =    -394.06199352 Ry
     ewald contribution        =   -2014.74717608 Ry

     convergence has been achieved in  13 iterations

     Forces acting on atoms (cartesian axes, Ry/au):

     atom    1 type  1   force =     0.00000000    0.00000000   -0.00000000
     atom    2 type  1   force =    -0.00000000   -0.00000000    0.00000000
     atom    3 type  1   force =    -0.00000000    0.00000000   -0.00000000
     atom    4 type  1   force =     0.00000000   -0.00000000   -0.00000000
     atom    5 type  1   force =     0.00016536   -0.00000000   -0.00000000
     atom    6 type  1   force =    -0.00016536   -0.00000000   -0.00000000
     atom    7 type  1   force =    -0.00000000    0.00016536   -0.00000000
     atom    8 type  1   force =     0.00000000   -0.00016536    0.00000000
     atom    9 type  1   force =    -0.00000000   -0.00000000    0.00016536
     atom   10 type  1   force =     0.00000000    0.00000000   -0.00016536
     atom   11 type  1   force =    -0.00016536    0.00000000    0.00000000
     atom   12 type  1   force =     0.00016536    0.00000000    0.00000000
     atom   13 type  1   force =     0.00000000   -0.00016536    0.00000000
     atom   14 type  1   force =    -0.00000000    0.00016536   -0.00000000
     atom   15 type  1   force =     0.00000000    0.00000000   -0.00016536
     atom   16 type  1   force =    -0.00000000   -0.00000000    0.00016536
     atom   17 type  2   force =    -0.00033486    0.00004227    0.00022117
     atom   18 type  2   force =     0.00033486   -0.00004227    0.00022117
     atom   19 type  2   force =     0.00033486    0.00004227   -0.00022117
     atom   20 type  2   force =    -0.00033486   -0.00004227   -0.00022117
     atom   21 type  2   force =     0.00022117   -0.00033486    0.00004227
     atom   22 type  2   force =     0.00022117    0.00033486   -0.00004227
     atom   23 type  2   force =    -0.00022117    0.00033486    0.00004227
     atom   24 type  2   force =    -0.00022117   -0.00033486   -0.00004227
     atom   25 type  2   force =     0.00004227    0.00022117   -0.00033486
     atom   26 type  2   force =    -0.00004227    0.00022117    0.00033486
     atom   27 type  2   force =     0.00004227   -0.00022117    0.00033486
     atom   28 type  2   force =    -0.00004227   -0.00022117   -0.00033486
     atom   29 type  2   force =     0.00033486   -0.00004227   -0.00022117
     atom   30 type  2   force =    -0.00033486    0.00004227   -0.00022117
     atom   31 type  2   force =    -0.00033486   -0.00004227    0.00022117
     atom   32 type  2   force =     0.00033486    0.00004227    0.00022117
     atom   33 type  2   force =    -0.00022117    0.00033486   -0.00004227
     atom   34 type  2   force =    -0.00022117   -0.00033486    0.00004227
     atom   35 type  2   force =     0.00022117   -0.00033486   -0.00004227
     atom   36 type  2   force =     0.00022117    0.00033486    0.00004227
     atom   37 type  2   force =    -0.00004227   -0.00022117    0.00033486
     atom   38 type  2   force =     0.00004227   -0.00022117   -0.00033486
     atom   39 type  2   force =    -0.00004227    0.00022117   -0.00033486
     atom   40 type  2   force =     0.00004227    0.00022117    0.00033486
     The non-local contrib.  to forces
     atom    1 type  1   force =    -0.00000000    0.00000000   -0.00000000
     atom    2 type  1   force =    -0.00000000   -0.00000000   -0.00000000
     atom    3 type  1   force =    -0.00000000    0.00000000    0.00000000
     atom    4 type  1   force =    -0.00000000   -0.00000000    0.00000000
     atom    5 type  1   force =    -0.00754160   -0.00000000    0.00000000
     atom    6 type  1   force =     0.00754160    0.00000000   -0.00000000
     atom    7 type  1   force =    -0.00000000   -0.00754160    0.00000000
     atom    8 type  1   force =     0.00000000    0.00754160   -0.00000000
     atom    9 type  1   force =     0.00000000    0.00000000   -0.00754160
     atom   10 type  1   force =    -0.00000000   -0.00000000    0.00754160
     atom   11 type  1   force =     0.00754160    0.00000000   -0.00000000
     atom   12 type  1   force =    -0.00754160   -0.00000000    0.00000000
     atom   13 type  1   force =     0.00000000    0.00754160   -0.00000000
     atom   14 type  1   force =    -0.00000000   -0.00754160    0.00000000
     atom   15 type  1   force =    -0.00000000   -0.00000000    0.00754160
     atom   16 type  1   force =     0.00000000    0.00000000   -0.00754160
     atom   17 type  2   force =    -0.07744083   -0.03505136    0.06809180
     atom   18 type  2   force =     0.07744083    0.03505136    0.06809180
     atom   19 type  2   force =     0.07744083   -0.03505136   -0.06809180
     atom   20 type  2   force =    -0.07744083    0.03505136   -0.06809180
     atom   21 type  2   force =     0.06809180   -0.07744083   -0.03505136
     atom   22 type  2   force =     0.06809180    0.07744083    0.03505136
     atom   23 type  2   force =    -0.06809180    0.07744083   -0.03505136
     atom   24 type  2   force =    -0.06809180   -0.07744083    0.03505136
     atom   25 type  2   force =    -0.03505136    0.06809180   -0.07744083
     atom   26 type  2   force =     0.03505136    0.06809180    0.07744083
     atom   27 type  2   force =    -0.03505136   -0.06809180    0.07744083
     atom   28 type  2   force =     0.03505136   -0.06809180   -0.07744083
     atom   29 type  2   force =     0.07744083    0.03505136   -0.06809180
     atom   30 type  2   force =    -0.07744083   -0.03505136   -0.06809180
     atom   31 type  2   force =    -0.07744083    0.03505136    0.06809180
     atom   32 type  2   force =     0.07744083   -0.03505136    0.06809180
     atom   33 type  2   force =    -0.06809180    0.07744083    0.03505136
     atom   34 type  2   force =    -0.06809180   -0.07744083   -0.03505136
     atom   35 type  2   force =     0.06809180   -0.07744083    0.03505136
     atom   36 type  2   force =     0.06809180    0.07744083   -0.03505136
     atom   37 type  2   force =     0.03505136   -0.06809180    0.07744083
     atom   38 type  2   force =    -0.03505136   -0.06809180   -0.07744083
     atom   39 type  2   force =     0.03505136    0.06809180   -0.07744083
     atom   40 type  2   force =    -0.03505136    0.06809180    0.07744083
     The ionic contribution  to forces
     atom    1 type  1   force =    -0.00000000   -0.00000000   -0.00000000
     atom    2 type  1   force =    -0.00000000    0.00000000   -0.00000000
     atom    3 type  1   force =    -0.00000000   -0.00000000   -0.00000000
     atom    4 type  1   force =     0.00000000   -0.00000000   -0.00000000
     atom    5 type  1   force =     3.92015284    0.00000000   -0.00000000
     atom    6 type  1   force =    -3.92015284    0.00000000    0.00000000
     atom    7 type  1   force =     0.00000000    3.92015284   -0.00000000
     atom    8 type  1   force =     0.00000000   -3.92015284    0.00000000
     atom    9 type  1   force =     0.00000000   -0.00000000    3.92015284
     atom   10 type  1   force =     0.00000000    0.00000000   -3.92015284
     atom   11 type  1   force =    -3.92015284    0.00000000   -0.00000000
     atom   12 type  1   force =     3.92015284   -0.00000000    0.00000000
     atom   13 type  1   force =    -0.00000000   -3.92015284    0.00000000
     atom   14 type  1   force =     0.00000000    3.92015284   -0.00000000
     atom   15 type  1   force =     0.00000000   -0.00000000   -3.92015284
     atom   16 type  1   force =    -0.00000000    0.00000000    3.92015284
     atom   17 type  2   force =     2.58866876    1.73183117   -0.06463433
     atom   18 type  2   force =    -2.58866876   -1.73183117   -0.06463433
     atom   19 type  2   force =    -2.58866876    1.73183117    0.06463433
     atom   20 type  2   force =     2.58866876   -1.73183117    0.06463433
     atom   21 type  2   force =    -0.06463433    2.58866876    1.73183117
     atom   22 type  2   force =    -0.06463433   -2.58866876   -1.73183117
     atom   23 type  2   force =     0.06463433   -2.58866876    1.73183117
     atom   24 type  2   force =     0.06463433    2.58866876   -1.73183117
     atom   25 type  2   force =     1.73183117   -0.06463433    2.58866876
     atom   26 type  2   force =    -1.73183117   -0.06463433   -2.58866876
     atom   27 type  2   force =     1.73183117    0.06463433   -2.58866876
     atom   28 type  2   force =    -1.73183117    0.06463433    2.58866876
     atom   29 type  2   force =    -2.58866876   -1.73183117    0.06463433
     atom   30 type  2   force =     2.58866876    1.73183117    0.06463433
     atom   31 type  2   force =     2.58866876   -1.73183117   -0.06463433
     atom   32 type  2   force =    -2.58866876    1.73183117   -0.06463433
     atom   33 type  2   force =     0.06463433   -2.58866876   -1.73183117
     atom   34 type  2   force =     0.06463433    2.58866876    1.73183117
     atom   35 type  2   force =    -0.06463433    2.58866876   -1.73183117
     atom   36 type  2   force =    -0.06463433   -2.58866876    1.73183117
     atom   37 type  2   force =    -1.73183117    0.06463433   -2.58866876
     atom   38 type  2   force =     1.73183117    0.06463433    2.58866876
     atom   39 type  2   force =    -1.73183117   -0.06463433    2.58866876
     atom   40 type  2   force =     1.73183117   -0.06463433   -2.58866876
     The local contribution  to forces
     atom    1 type  1   force =     0.00000000    0.00000000    0.00000000
     atom    2 type  1   force =    -0.00000000    0.00000000    0.00000000
     atom    3 type  1   force =     0.00000000    0.00000000    0.00000000
     atom    4 type  1   force =     0.00000000    0.00000000    0.00000000
     atom    5 type  1   force =    -3.91244721    0.00000000    0.00000000
     atom    6 type  1   force =     3.91244721    0.00000000    0.00000000
     atom    7 type  1   force =    -0.00000000   -3.91244721    0.00000000
     atom    8 type  1   force =     0.00000000    3.91244721    0.00000000
     atom    9 type  1   force =     0.00000000    0.00000000   -3.91244721
     atom   10 type  1   force =     0.00000000    0.00000000    3.91244721
     atom   11 type  1   force =     3.91244721   -0.00000000    0.00000000
     atom   12 type  1   force =    -3.91244721    0.00000000    0.00000000
     atom   13 type  1   force =     0.00000000    3.91244721    0.00000000
     atom   14 type  1   force =     0.00000000   -3.91244721    0.00000000
     atom   15 type  1   force =    -0.00000000    0.00000000    3.91244721
     atom   16 type  1   force =     0.00000000    0.00000000   -3.91244721
     atom   17 type  2   force =    -2.51156318   -1.69673707   -0.00323639
     atom   18 type  2   force =     2.51156318    1.69673707   -0.00323639
     atom   19 type  2   force =     2.51156318   -1.69673707    0.00323639
     atom   20 type  2   force =    -2.51156318    1.69673707    0.00323639
     atom   21 type  2   force =    -0.00323639   -2.51156318   -1.69673707
     atom   22 type  2   force =    -0.00323639    2.51156318    1.69673707
     atom   23 type  2   force =     0.00323639    2.51156318   -1.69673707
     atom   24 type  2   force =     0.00323639   -2.51156318    1.69673707
     atom   25 type  2   force =    -1.69673707   -0.00323639   -2.51156318
     atom   26 type  2   force =     1.69673707   -0.00323639    2.51156318
     atom   27 type  2   force =    -1.69673707    0.00323639    2.51156318
     atom   28 type  2   force =     1.69673707    0.00323639   -2.51156318
     atom   29 type  2   force =     2.51156318    1.69673707    0.00323639
     atom   30 type  2   force =    -2.51156318   -1.69673707    0.00323639
     atom   31 type  2   force =    -2.51156318    1.69673707   -0.00323639
     atom   32 type  2   force =     2.51156318   -1.69673707   -0.00323639
     atom   33 type  2   force =     0.00323639    2.51156318    1.69673707
     atom   34 type  2   force =     0.00323639   -2.51156318   -1.69673707
     atom   35 type  2   force =    -0.00323639   -2.51156318    1.69673707
     atom   36 type  2   force =    -0.00323639    2.51156318   -1.69673707
     atom   37 type  2   force =     1.69673707    0.00323639    2.51156318
     atom   38 type  2   force =    -1.69673707    0.00323639   -2.51156318
     atom   39 type  2   force =     1.69673707   -0.00323639   -2.51156318
     atom   40 type  2   force =    -1.69673707   -0.00323639    2.51156318
     The core correction contribution to forces
     atom    1 type  1   force =     0.00000000    0.00000000    0.00000000
     atom    2 type  1   force =     0.00000000    0.00000000    0.00000000
     atom    3 type  1   force =     0.00000000    0.00000000    0.00000000
     atom    4 type  1   force =     0.00000000    0.00000000    0.00000000
     atom    5 type  1   force =     0.00000000    0.00000000    0.00000000
     atom    6 type  1   force =     0.00000000    0.00000000    0.00000000
     atom    7 type  1   force =     0.00000000    0.00000000    0.00000000
     atom    8 type  1   force =     0.00000000    0.00000000    0.00000000
     atom    9 type  1   force =     0.00000000    0.00000000    0.00000000
     atom   10 type  1   force =     0.00000000    0.00000000    0.00000000
     atom   11 type  1   force =     0.00000000    0.00000000    0.00000000
     atom   12 type  1   force =     0.00000000    0.00000000    0.00000000
     atom   13 type  1   force =     0.00000000    0.00000000    0.00000000
     atom   14 type  1   force =     0.00000000    0.00000000    0.00000000
     atom   15 type  1   force =     0.00000000    0.00000000    0.00000000
     atom   16 type  1   force =     0.00000000    0.00000000    0.00000000
     atom   17 type  2   force =     0.00000000    0.00000000    0.00000000
     atom   18 type  2   force =     0.00000000    0.00000000    0.00000000
     atom   19 type  2   force =     0.00000000    0.00000000    0.00000000
     atom   20 type  2   force =     0.00000000    0.00000000    0.00000000
     atom   21 type  2   force =     0.00000000    0.00000000    0.00000000
     atom   22 type  2   force =     0.00000000    0.00000000    0.00000000
     atom   23 type  2   force =     0.00000000    0.00000000    0.00000000
     atom   24 type  2   force =     0.00000000    0.00000000    0.00000000
     atom   25 type  2   force =     0.00000000    0.00000000    0.00000000
     atom   26 type  2   force =     0.00000000    0.00000000    0.00000000
     atom   27 type  2   force =     0.00000000    0.00000000    0.00000000
     atom   28 type  2   force =     0.00000000    0.00000000    0.00000000
     atom   29 type  2   force =     0.00000000    0.00000000    0.00000000
     atom   30 type  2   force =     0.00000000    0.00000000    0.00000000
     atom   31 type  2   force =     0.00000000    0.00000000    0.00000000
     atom   32 type  2   force =     0.00000000    0.00000000    0.00000000
     atom   33 type  2   force =     0.00000000    0.00000000    0.00000000
     atom   34 type  2   force =     0.00000000    0.00000000    0.00000000
     atom   35 type  2   force =     0.00000000    0.00000000    0.00000000
     atom   36 type  2   force =     0.00000000    0.00000000    0.00000000
     atom   37 type  2   force =     0.00000000    0.00000000    0.00000000
     atom   38 type  2   force =     0.00000000    0.00000000    0.00000000
     atom   39 type  2   force =     0.00000000    0.00000000    0.00000000
     atom   40 type  2   force =     0.00000000    0.00000000    0.00000000
     The Hubbard contrib.    to forces
     atom    1 type  1   force =     0.00000000    0.00000000    0.00000000
     atom    2 type  1   force =     0.00000000    0.00000000    0.00000000
     atom    3 type  1   force =     0.00000000    0.00000000    0.00000000
     atom    4 type  1   force =     0.00000000    0.00000000    0.00000000
     atom    5 type  1   force =     0.00000000    0.00000000    0.00000000
     atom    6 type  1   force =     0.00000000    0.00000000    0.00000000
     atom    7 type  1   force =     0.00000000    0.00000000    0.00000000
     atom    8 type  1   force =     0.00000000    0.00000000    0.00000000
     atom    9 type  1   force =     0.00000000    0.00000000    0.00000000
     atom   10 type  1   force =     0.00000000    0.00000000    0.00000000
     atom   11 type  1   force =     0.00000000    0.00000000    0.00000000
     atom   12 type  1   force =     0.00000000    0.00000000    0.00000000
     atom   13 type  1   force =     0.00000000    0.00000000    0.00000000
     atom   14 type  1   force =     0.00000000    0.00000000    0.00000000
     atom   15 type  1   force =     0.00000000    0.00000000    0.00000000
     atom   16 type  1   force =     0.00000000    0.00000000    0.00000000
     atom   17 type  2   force =     0.00000000    0.00000000    0.00000000
     atom   18 type  2   force =     0.00000000    0.00000000    0.00000000
     atom   19 type  2   force =     0.00000000    0.00000000    0.00000000
     atom   20 type  2   force =     0.00000000    0.00000000    0.00000000
     atom   21 type  2   force =     0.00000000    0.00000000    0.00000000
     atom   22 type  2   force =     0.00000000    0.00000000    0.00000000
     atom   23 type  2   force =     0.00000000    0.00000000    0.00000000
     atom   24 type  2   force =     0.00000000    0.00000000    0.00000000
     atom   25 type  2   force =     0.00000000    0.00000000    0.00000000
     atom   26 type  2   force =     0.00000000    0.00000000    0.00000000
     atom   27 type  2   force =     0.00000000    0.00000000    0.00000000
     atom   28 type  2   force =     0.00000000    0.00000000    0.00000000
     atom   29 type  2   force =     0.00000000    0.00000000    0.00000000
     atom   30 type  2   force =     0.00000000    0.00000000    0.00000000
     atom   31 type  2   force =     0.00000000    0.00000000    0.00000000
     atom   32 type  2   force =     0.00000000    0.00000000    0.00000000
     atom   33 type  2   force =     0.00000000    0.00000000    0.00000000
     atom   34 type  2   force =     0.00000000    0.00000000    0.00000000
     atom   35 type  2   force =     0.00000000    0.00000000    0.00000000
     atom   36 type  2   force =     0.00000000    0.00000000    0.00000000
     atom   37 type  2   force =     0.00000000    0.00000000    0.00000000
     atom   38 type  2   force =     0.00000000    0.00000000    0.00000000
     atom   39 type  2   force =     0.00000000    0.00000000    0.00000000
     atom   40 type  2   force =     0.00000000    0.00000000    0.00000000
     The SCF correction term to forces
     atom    1 type  1   force =    -0.00000000    0.00000000   -0.00000000
     atom    2 type  1   force =     0.00000000   -0.00000000    0.00000000
     atom    3 type  1   force =     0.00000000    0.00000000    0.00000000
     atom    4 type  1   force =    -0.00000000   -0.00000000    0.00000000
     atom    5 type  1   force =     0.00000133    0.00000000   -0.00000000
     atom    6 type  1   force =    -0.00000133    0.00000000    0.00000000
     atom    7 type  1   force =     0.00000000    0.00000133    0.00000000
     atom    8 type  1   force =    -0.00000000   -0.00000133   -0.00000000
     atom    9 type  1   force =    -0.00000000    0.00000000    0.00000133
     atom   10 type  1   force =     0.00000000   -0.00000000   -0.00000133
     atom   11 type  1   force =    -0.00000133   -0.00000000    0.00000000
     atom   12 type  1   force =     0.00000133    0.00000000   -0.00000000
     atom   13 type  1   force =     0.00000000   -0.00000133    0.00000000
     atom   14 type  1   force =     0.00000000    0.00000133    0.00000000
     atom   15 type  1   force =     0.00000000    0.00000000   -0.00000133
     atom   16 type  1   force =    -0.00000000    0.00000000    0.00000133
     atom   17 type  2   force =     0.00000039   -0.00000046    0.00000009
     atom   18 type  2   force =    -0.00000039    0.00000046    0.00000009
     atom   19 type  2   force =    -0.00000039   -0.00000046   -0.00000009
     atom   20 type  2   force =     0.00000039    0.00000046   -0.00000009
     atom   21 type  2   force =     0.00000009    0.00000039   -0.00000046
     atom   22 type  2   force =     0.00000009   -0.00000039    0.00000046
     atom   23 type  2   force =    -0.00000009   -0.00000039   -0.00000046
     atom   24 type  2   force =    -0.00000009    0.00000039    0.00000046
     atom   25 type  2   force =    -0.00000046    0.00000009    0.00000039
     atom   26 type  2   force =     0.00000046    0.00000009   -0.00000039
     atom   27 type  2   force =    -0.00000046   -0.00000009   -0.00000039
     atom   28 type  2   force =     0.00000046   -0.00000009    0.00000039
     atom   29 type  2   force =    -0.00000039    0.00000046   -0.00000009
     atom   30 type  2   force =     0.00000039   -0.00000046   -0.00000009
     atom   31 type  2   force =     0.00000039    0.00000046    0.00000009
     atom   32 type  2   force =    -0.00000039   -0.00000046    0.00000009
     atom   33 type  2   force =    -0.00000009   -0.00000039    0.00000046
     atom   34 type  2   force =    -0.00000009    0.00000039   -0.00000046
     atom   35 type  2   force =     0.00000009    0.00000039    0.00000046
     atom   36 type  2   force =     0.00000009   -0.00000039   -0.00000046
     atom   37 type  2   force =     0.00000046   -0.00000009   -0.00000039
     atom   38 type  2   force =    -0.00000046   -0.00000009    0.00000039
     atom   39 type  2   force =     0.00000046    0.00000009    0.00000039
     atom   40 type  2   force =    -0.00000046    0.00000009   -0.00000039

     Total force =     0.002058     Total SCF correction =     0.000005


     Computing stress (Cartesian axis) and pressure

          total   stress  (Ry/bohr**3)                   (kbar)     P=       -6.99
  -0.00004752  -0.00000000  -0.00000000           -6.99       -0.00       -0.00
  -0.00000000  -0.00004752  -0.00000000           -0.00       -6.99       -0.00
  -0.00000000  -0.00000000  -0.00004752           -0.00       -0.00       -6.99

     kinetic stress (kbar)  42618.17      0.00     -0.00
                               -0.00  42618.17     -0.00
                               -0.00     -0.00  42618.17

     local   stress (kbar)  -7942.82     -0.00     -0.00
                               -0.00  -7942.82      0.00
                               -0.00      0.00  -7942.82

     nonloc. stress (kbar) -10299.40     -0.00      0.00
                               -0.00 -10299.40     -0.00
                                0.00     -0.00 -10299.40

     hartree stress (kbar)   7311.45      0.00      0.00
                                0.00   7311.45      0.00
                                0.00      0.00   7311.45

     exc-cor stress (kbar)  -4947.18      0.00      0.00
                                0.00  -4947.18      0.00
                                0.00      0.00  -4947.18

     corecor stress (kbar)      0.00      0.00      0.00
                                0.00      0.00      0.00
                                0.00      0.00      0.00

     ewald   stress (kbar) -26747.21     -0.00      0.00
                               -0.00 -26747.21      0.00
                                0.00      0.00 -26747.21

     hubbard stress (kbar)      0.00      0.00      0.00
                                0.00      0.00      0.00
                                0.00      0.00      0.00

     DFT-D   stress (kbar)      0.00      0.00      0.00
                                0.00      0.00      0.00
                                0.00      0.00      0.00

     XDM     stress (kbar)      0.00      0.00      0.00
                                0.00      0.00      0.00
                                0.00      0.00      0.00

     dft-nl  stress (kbar)      0.00      0.00      0.00
                                0.00      0.00      0.00
                                0.00      0.00      0.00

     TS-vdW  stress (kbar)      0.00      0.00      0.00
                                0.00      0.00      0.00
                                0.00      0.00      0.00

     MDB     stress (kbar)      0.00      0.00      0.00
                                0.00      0.00      0.00
                                0.00      0.00      0.00

     3D-RISM stress (kbar)      0.00      0.00      0.00
                                0.00      0.00      0.00
                                0.00      0.00      0.00


     Writing all to output data dir ./tmp/nc.save/ :
     XML data file, charge density, pseudopotentials, collected wavefunctions
 
     init_run     :      0.88s CPU      1.55s WALL (       1 calls)
     electrons    :     13.35s CPU     13.66s WALL (       1 calls)
     forces       :      0.37s CPU      0.38s WALL (       1 calls)
     stress       :      1.23s CPU      1.24s WALL (       1 calls)

     Called by init_run:
     wfcinit      :      0.35s CPU      0.71s WALL (       1 calls)
     wfcinit:wfcr :      0.22s CPU      0.47s WALL (       4 calls)
     potinit      :      0.04s CPU      0.08s WALL (       1 calls)
     hinit0       :      0.23s CPU      0.29s WALL (       1 calls)

     Called by electrons:
     c_bands      :      9.91s CPU     10.10s WALL (      13 calls)
     sum_band     :      2.58s CPU      2.60s WALL (      13 calls)
     v_of_rho     :      0.20s CPU      0.24s WALL (      14 calls)
     v_h          :      0.11s CPU      0.12s WALL (      14 calls)
     v_xc         :      0.09s CPU      0.13s WALL (      14 calls)
     mix_rho      :      0.53s CPU      0.58s WALL (      13 calls)

     Called by c_bands:
     init_us_2    :      0.15s CPU      0.16s WALL (     116 calls)
     cegterg      :      6.08s CPU      6.23s WALL (      52 calls)

     Called by sum_band:
     sum_band:wei :      0.00s CPU      0.00s WALL (      13 calls)
                                        0.00s GPU  (      13 calls)
     sum_band:loo :      2.27s CPU      2.29s WALL (      13 calls)
                                        2.29s GPU  (      13 calls)
     sum_band:buf :      1.69s CPU      1.70s WALL (      52 calls)
                                        1.69s GPU  (      52 calls)
     sum_band:ini :      0.07s CPU      0.07s WALL (      52 calls)
                                        0.07s GPU  (      52 calls)

     Called by *egterg:
     cdiaghg      :      1.25s CPU      1.41s WALL (     263 calls)
                                        1.41s GPU  (     263 calls)
     cegterg:over :      0.28s CPU      0.28s WALL (     211 calls)
     cegterg:upda :      0.38s CPU      0.39s WALL (     211 calls)
     cegterg:last :      0.17s CPU      0.17s WALL (     144 calls)
     h_psi        :      3.94s CPU      4.15s WALL (     267 calls)
                                        4.15s GPU  (     267 calls)
     g_psi        :      0.00s CPU      0.08s WALL (     211 calls)
                                        0.08s GPU  (     211 calls)

     Called by h_psi:
     h_psi:calbec :      0.05s CPU      0.33s WALL (     267 calls)
                                        0.33s GPU  (     267 calls)
     vloc_psi     :      3.19s CPU      3.26s WALL (     267 calls)
                                        3.26s GPU  (     267 calls)
     add_vuspsi   :      0.35s CPU      0.53s WALL (     267 calls)
                                        0.53s GPU  (     267 calls)

     General routines
     calbec       :      0.05s CPU      0.18s WALL (     287 calls)
     fft          :      0.07s CPU      0.13s WALL (     147 calls)
                                        0.13s GPU  (     147 calls)
     ffts         :      0.00s CPU      0.00s WALL (      13 calls)
                                        0.00s GPU  (      13 calls)
     fftw         :      0.07s CPU      2.62s WALL (    4906 calls)
                                        2.59s GPU  (    4906 calls)
 
     Parallel routines
 
     PWSCF        :     16.09s CPU     17.68s WALL

 
   This run was terminated on:  18:48:33  30Sep2026            

=------------------------------------------------------------------------------=
   JOB DONE.
=------------------------------------------------------------------------------=
Warning: ieee_invalid is signaling
Warning: ieee_divide_by_zero is signaling
Warning: ieee_inexact is signaling
FORTRAN STOP
